<?xml version="1.0"?> 
<VTKFile type="UnstructuredGrid"> 
   <UnstructuredGrid> 
      <Piece NumberOfPoints="6000"  NumberOfCells="1500">  
          <Points>  
             <DataArray type="Float64" NumberOfComponents="3" format="ascii">   
-500.0   0.0   0.0
-450.0   0.0   0.0
-500.0   30.0   0.0
-500.0   0.0   16.666666666666668
-450.0   0.0   0.0
-450.0   30.0   0.0
-500.0   30.0   0.0
-450.0   30.0   16.666666666666668
-500.0   0.0   16.666666666666668
-500.0   30.0   16.666666666666668
-450.0   30.0   16.666666666666668
-500.0   30.0   0.0
-500.0   0.0   16.666666666666668
-450.0   30.0   16.666666666666668
-450.0   0.0   16.666666666666668
-450.0   0.0   0.0
-500.0   0.0   16.666666666666668
-450.0   30.0   16.666666666666668
-450.0   0.0   0.0
-500.0   30.0   0.0
-500.0   0.0   16.666666666666668
-450.0   0.0   16.666666666666668
-500.0   30.0   16.666666666666668
-500.0   0.0   33.333333333333336
-450.0   0.0   16.666666666666668
-450.0   30.0   16.666666666666668
-500.0   30.0   16.666666666666668
-450.0   30.0   33.333333333333336
-500.0   0.0   33.333333333333336
-500.0   30.0   33.333333333333336
-450.0   30.0   33.333333333333336
-500.0   30.0   16.666666666666668
-500.0   0.0   33.333333333333336
-450.0   30.0   33.333333333333336
-450.0   0.0   33.333333333333336
-450.0   0.0   16.666666666666668
-500.0   0.0   33.333333333333336
-450.0   30.0   33.333333333333336
-450.0   0.0   16.666666666666668
-500.0   30.0   16.666666666666668
-500.0   0.0   33.333333333333336
-450.0   0.0   33.333333333333336
-500.0   30.0   33.333333333333336
-500.0   0.0   50.0
-450.0   0.0   33.333333333333336
-450.0   30.0   33.333333333333336
-500.0   30.0   33.333333333333336
-450.0   30.0   50.0
-500.0   0.0   50.0
-500.0   30.0   50.0
-450.0   30.0   50.0
-500.0   30.0   33.333333333333336
-500.0   0.0   50.0
-450.0   30.0   50.0
-450.0   0.0   50.0
-450.0   0.0   33.333333333333336
-500.0   0.0   50.0
-450.0   30.0   50.0
-450.0   0.0   33.333333333333336
-500.0   30.0   33.333333333333336
-500.0   30.0   0.0
-450.0   30.0   0.0
-500.0   60.0   0.0
-500.0   30.0   16.666666666666668
-450.0   30.0   0.0
-450.0   60.0   0.0
-500.0   60.0   0.0
-450.0   60.0   16.666666666666668
-500.0   30.0   16.666666666666668
-500.0   60.0   16.666666666666668
-450.0   60.0   16.666666666666668
-500.0   60.0   0.0
-500.0   30.0   16.666666666666668
-450.0   60.0   16.666666666666668
-450.0   30.0   16.666666666666668
-450.0   30.0   0.0
-500.0   30.0   16.666666666666668
-450.0   60.0   16.666666666666668
-450.0   30.0   0.0
-500.0   60.0   0.0
-500.0   30.0   16.666666666666668
-450.0   30.0   16.666666666666668
-500.0   60.0   16.666666666666668
-500.0   30.0   33.333333333333336
-450.0   30.0   16.666666666666668
-450.0   60.0   16.666666666666668
-500.0   60.0   16.666666666666668
-450.0   60.0   33.333333333333336
-500.0   30.0   33.333333333333336
-500.0   60.0   33.333333333333336
-450.0   60.0   33.333333333333336
-500.0   60.0   16.666666666666668
-500.0   30.0   33.333333333333336
-450.0   60.0   33.333333333333336
-450.0   30.0   33.333333333333336
-450.0   30.0   16.666666666666668
-500.0   30.0   33.333333333333336
-450.0   60.0   33.333333333333336
-450.0   30.0   16.666666666666668
-500.0   60.0   16.666666666666668
-500.0   30.0   33.333333333333336
-450.0   30.0   33.333333333333336
-500.0   60.0   33.333333333333336
-500.0   30.0   50.0
-450.0   30.0   33.333333333333336
-450.0   60.0   33.333333333333336
-500.0   60.0   33.333333333333336
-450.0   60.0   50.0
-500.0   30.0   50.0
-500.0   60.0   50.0
-450.0   60.0   50.0
-500.0   60.0   33.333333333333336
-500.0   30.0   50.0
-450.0   60.0   50.0
-450.0   30.0   50.0
-450.0   30.0   33.333333333333336
-500.0   30.0   50.0
-450.0   60.0   50.0
-450.0   30.0   33.333333333333336
-500.0   60.0   33.333333333333336
-500.0   60.0   0.0
-450.0   60.0   0.0
-500.0   90.0   0.0
-500.0   60.0   16.666666666666668
-450.0   60.0   0.0
-450.0   90.0   0.0
-500.0   90.0   0.0
-450.0   90.0   16.666666666666668
-500.0   60.0   16.666666666666668
-500.0   90.0   16.666666666666668
-450.0   90.0   16.666666666666668
-500.0   90.0   0.0
-500.0   60.0   16.666666666666668
-450.0   90.0   16.666666666666668
-450.0   60.0   16.666666666666668
-450.0   60.0   0.0
-500.0   60.0   16.666666666666668
-450.0   90.0   16.666666666666668
-450.0   60.0   0.0
-500.0   90.0   0.0
-500.0   60.0   16.666666666666668
-450.0   60.0   16.666666666666668
-500.0   90.0   16.666666666666668
-500.0   60.0   33.333333333333336
-450.0   60.0   16.666666666666668
-450.0   90.0   16.666666666666668
-500.0   90.0   16.666666666666668
-450.0   90.0   33.333333333333336
-500.0   60.0   33.333333333333336
-500.0   90.0   33.333333333333336
-450.0   90.0   33.333333333333336
-500.0   90.0   16.666666666666668
-500.0   60.0   33.333333333333336
-450.0   90.0   33.333333333333336
-450.0   60.0   33.333333333333336
-450.0   60.0   16.666666666666668
-500.0   60.0   33.333333333333336
-450.0   90.0   33.333333333333336
-450.0   60.0   16.666666666666668
-500.0   90.0   16.666666666666668
-500.0   60.0   33.333333333333336
-450.0   60.0   33.333333333333336
-500.0   90.0   33.333333333333336
-500.0   60.0   50.0
-450.0   60.0   33.333333333333336
-450.0   90.0   33.333333333333336
-500.0   90.0   33.333333333333336
-450.0   90.0   50.0
-500.0   60.0   50.0
-500.0   90.0   50.0
-450.0   90.0   50.0
-500.0   90.0   33.333333333333336
-500.0   60.0   50.0
-450.0   90.0   50.0
-450.0   60.0   50.0
-450.0   60.0   33.333333333333336
-500.0   60.0   50.0
-450.0   90.0   50.0
-450.0   60.0   33.333333333333336
-500.0   90.0   33.333333333333336
-500.0   90.0   0.0
-450.0   90.0   0.0
-500.0   120.0   0.0
-500.0   90.0   16.666666666666668
-450.0   90.0   0.0
-450.0   120.0   0.0
-500.0   120.0   0.0
-450.0   120.0   16.666666666666668
-500.0   90.0   16.666666666666668
-500.0   120.0   16.666666666666668
-450.0   120.0   16.666666666666668
-500.0   120.0   0.0
-500.0   90.0   16.666666666666668
-450.0   120.0   16.666666666666668
-450.0   90.0   16.666666666666668
-450.0   90.0   0.0
-500.0   90.0   16.666666666666668
-450.0   120.0   16.666666666666668
-450.0   90.0   0.0
-500.0   120.0   0.0
-500.0   90.0   16.666666666666668
-450.0   90.0   16.666666666666668
-500.0   120.0   16.666666666666668
-500.0   90.0   33.333333333333336
-450.0   90.0   16.666666666666668
-450.0   120.0   16.666666666666668
-500.0   120.0   16.666666666666668
-450.0   120.0   33.333333333333336
-500.0   90.0   33.333333333333336
-500.0   120.0   33.333333333333336
-450.0   120.0   33.333333333333336
-500.0   120.0   16.666666666666668
-500.0   90.0   33.333333333333336
-450.0   120.0   33.333333333333336
-450.0   90.0   33.333333333333336
-450.0   90.0   16.666666666666668
-500.0   90.0   33.333333333333336
-450.0   120.0   33.333333333333336
-450.0   90.0   16.666666666666668
-500.0   120.0   16.666666666666668
-500.0   90.0   33.333333333333336
-450.0   90.0   33.333333333333336
-500.0   120.0   33.333333333333336
-500.0   90.0   50.0
-450.0   90.0   33.333333333333336
-450.0   120.0   33.333333333333336
-500.0   120.0   33.333333333333336
-450.0   120.0   50.0
-500.0   90.0   50.0
-500.0   120.0   50.0
-450.0   120.0   50.0
-500.0   120.0   33.333333333333336
-500.0   90.0   50.0
-450.0   120.0   50.0
-450.0   90.0   50.0
-450.0   90.0   33.333333333333336
-500.0   90.0   50.0
-450.0   120.0   50.0
-450.0   90.0   33.333333333333336
-500.0   120.0   33.333333333333336
-500.0   120.0   0.0
-450.0   120.0   0.0
-500.0   150.0   0.0
-500.0   120.0   16.666666666666668
-450.0   120.0   0.0
-450.0   150.0   0.0
-500.0   150.0   0.0
-450.0   150.0   16.666666666666668
-500.0   120.0   16.666666666666668
-500.0   150.0   16.666666666666668
-450.0   150.0   16.666666666666668
-500.0   150.0   0.0
-500.0   120.0   16.666666666666668
-450.0   150.0   16.666666666666668
-450.0   120.0   16.666666666666668
-450.0   120.0   0.0
-500.0   120.0   16.666666666666668
-450.0   150.0   16.666666666666668
-450.0   120.0   0.0
-500.0   150.0   0.0
-500.0   120.0   16.666666666666668
-450.0   120.0   16.666666666666668
-500.0   150.0   16.666666666666668
-500.0   120.0   33.333333333333336
-450.0   120.0   16.666666666666668
-450.0   150.0   16.666666666666668
-500.0   150.0   16.666666666666668
-450.0   150.0   33.333333333333336
-500.0   120.0   33.333333333333336
-500.0   150.0   33.333333333333336
-450.0   150.0   33.333333333333336
-500.0   150.0   16.666666666666668
-500.0   120.0   33.333333333333336
-450.0   150.0   33.333333333333336
-450.0   120.0   33.333333333333336
-450.0   120.0   16.666666666666668
-500.0   120.0   33.333333333333336
-450.0   150.0   33.333333333333336
-450.0   120.0   16.666666666666668
-500.0   150.0   16.666666666666668
-500.0   120.0   33.333333333333336
-450.0   120.0   33.333333333333336
-500.0   150.0   33.333333333333336
-500.0   120.0   50.0
-450.0   120.0   33.333333333333336
-450.0   150.0   33.333333333333336
-500.0   150.0   33.333333333333336
-450.0   150.0   50.0
-500.0   120.0   50.0
-500.0   150.0   50.0
-450.0   150.0   50.0
-500.0   150.0   33.333333333333336
-500.0   120.0   50.0
-450.0   150.0   50.0
-450.0   120.0   50.0
-450.0   120.0   33.333333333333336
-500.0   120.0   50.0
-450.0   150.0   50.0
-450.0   120.0   33.333333333333336
-500.0   150.0   33.333333333333336
-450.0   0.0   0.0
-400.0   0.0   0.0
-450.0   30.0   0.0
-450.0   0.0   16.666666666666668
-400.0   0.0   0.0
-400.0   30.0   0.0
-450.0   30.0   0.0
-400.0   30.0   16.666666666666668
-450.0   0.0   16.666666666666668
-450.0   30.0   16.666666666666668
-400.0   30.0   16.666666666666668
-450.0   30.0   0.0
-450.0   0.0   16.666666666666668
-400.0   30.0   16.666666666666668
-400.0   0.0   16.666666666666668
-400.0   0.0   0.0
-450.0   0.0   16.666666666666668
-400.0   30.0   16.666666666666668
-400.0   0.0   0.0
-450.0   30.0   0.0
-450.0   0.0   16.666666666666668
-400.0   0.0   16.666666666666668
-450.0   30.0   16.666666666666668
-450.0   0.0   33.333333333333336
-400.0   0.0   16.666666666666668
-400.0   30.0   16.666666666666668
-450.0   30.0   16.666666666666668
-400.0   30.0   33.333333333333336
-450.0   0.0   33.333333333333336
-450.0   30.0   33.333333333333336
-400.0   30.0   33.333333333333336
-450.0   30.0   16.666666666666668
-450.0   0.0   33.333333333333336
-400.0   30.0   33.333333333333336
-400.0   0.0   33.333333333333336
-400.0   0.0   16.666666666666668
-450.0   0.0   33.333333333333336
-400.0   30.0   33.333333333333336
-400.0   0.0   16.666666666666668
-450.0   30.0   16.666666666666668
-450.0   0.0   33.333333333333336
-400.0   0.0   33.333333333333336
-450.0   30.0   33.333333333333336
-450.0   0.0   50.0
-400.0   0.0   33.333333333333336
-400.0   30.0   33.333333333333336
-450.0   30.0   33.333333333333336
-400.0   30.0   50.0
-450.0   0.0   50.0
-450.0   30.0   50.0
-400.0   30.0   50.0
-450.0   30.0   33.333333333333336
-450.0   0.0   50.0
-400.0   30.0   50.0
-400.0   0.0   50.0
-400.0   0.0   33.333333333333336
-450.0   0.0   50.0
-400.0   30.0   50.0
-400.0   0.0   33.333333333333336
-450.0   30.0   33.333333333333336
-450.0   30.0   0.0
-400.0   30.0   0.0
-450.0   60.0   0.0
-450.0   30.0   16.666666666666668
-400.0   30.0   0.0
-400.0   60.0   0.0
-450.0   60.0   0.0
-400.0   60.0   16.666666666666668
-450.0   30.0   16.666666666666668
-450.0   60.0   16.666666666666668
-400.0   60.0   16.666666666666668
-450.0   60.0   0.0
-450.0   30.0   16.666666666666668
-400.0   60.0   16.666666666666668
-400.0   30.0   16.666666666666668
-400.0   30.0   0.0
-450.0   30.0   16.666666666666668
-400.0   60.0   16.666666666666668
-400.0   30.0   0.0
-450.0   60.0   0.0
-450.0   30.0   16.666666666666668
-400.0   30.0   16.666666666666668
-450.0   60.0   16.666666666666668
-450.0   30.0   33.333333333333336
-400.0   30.0   16.666666666666668
-400.0   60.0   16.666666666666668
-450.0   60.0   16.666666666666668
-400.0   60.0   33.333333333333336
-450.0   30.0   33.333333333333336
-450.0   60.0   33.333333333333336
-400.0   60.0   33.333333333333336
-450.0   60.0   16.666666666666668
-450.0   30.0   33.333333333333336
-400.0   60.0   33.333333333333336
-400.0   30.0   33.333333333333336
-400.0   30.0   16.666666666666668
-450.0   30.0   33.333333333333336
-400.0   60.0   33.333333333333336
-400.0   30.0   16.666666666666668
-450.0   60.0   16.666666666666668
-450.0   30.0   33.333333333333336
-400.0   30.0   33.333333333333336
-450.0   60.0   33.333333333333336
-450.0   30.0   50.0
-400.0   30.0   33.333333333333336
-400.0   60.0   33.333333333333336
-450.0   60.0   33.333333333333336
-400.0   60.0   50.0
-450.0   30.0   50.0
-450.0   60.0   50.0
-400.0   60.0   50.0
-450.0   60.0   33.333333333333336
-450.0   30.0   50.0
-400.0   60.0   50.0
-400.0   30.0   50.0
-400.0   30.0   33.333333333333336
-450.0   30.0   50.0
-400.0   60.0   50.0
-400.0   30.0   33.333333333333336
-450.0   60.0   33.333333333333336
-450.0   60.0   0.0
-400.0   60.0   0.0
-450.0   90.0   0.0
-450.0   60.0   16.666666666666668
-400.0   60.0   0.0
-400.0   90.0   0.0
-450.0   90.0   0.0
-400.0   90.0   16.666666666666668
-450.0   60.0   16.666666666666668
-450.0   90.0   16.666666666666668
-400.0   90.0   16.666666666666668
-450.0   90.0   0.0
-450.0   60.0   16.666666666666668
-400.0   90.0   16.666666666666668
-400.0   60.0   16.666666666666668
-400.0   60.0   0.0
-450.0   60.0   16.666666666666668
-400.0   90.0   16.666666666666668
-400.0   60.0   0.0
-450.0   90.0   0.0
-450.0   60.0   16.666666666666668
-400.0   60.0   16.666666666666668
-450.0   90.0   16.666666666666668
-450.0   60.0   33.333333333333336
-400.0   60.0   16.666666666666668
-400.0   90.0   16.666666666666668
-450.0   90.0   16.666666666666668
-400.0   90.0   33.333333333333336
-450.0   60.0   33.333333333333336
-450.0   90.0   33.333333333333336
-400.0   90.0   33.333333333333336
-450.0   90.0   16.666666666666668
-450.0   60.0   33.333333333333336
-400.0   90.0   33.333333333333336
-400.0   60.0   33.333333333333336
-400.0   60.0   16.666666666666668
-450.0   60.0   33.333333333333336
-400.0   90.0   33.333333333333336
-400.0   60.0   16.666666666666668
-450.0   90.0   16.666666666666668
-450.0   60.0   33.333333333333336
-400.0   60.0   33.333333333333336
-450.0   90.0   33.333333333333336
-450.0   60.0   50.0
-400.0   60.0   33.333333333333336
-400.0   90.0   33.333333333333336
-450.0   90.0   33.333333333333336
-400.0   90.0   50.0
-450.0   60.0   50.0
-450.0   90.0   50.0
-400.0   90.0   50.0
-450.0   90.0   33.333333333333336
-450.0   60.0   50.0
-400.0   90.0   50.0
-400.0   60.0   50.0
-400.0   60.0   33.333333333333336
-450.0   60.0   50.0
-400.0   90.0   50.0
-400.0   60.0   33.333333333333336
-450.0   90.0   33.333333333333336
-450.0   90.0   0.0
-400.0   90.0   0.0
-450.0   120.0   0.0
-450.0   90.0   16.666666666666668
-400.0   90.0   0.0
-400.0   120.0   0.0
-450.0   120.0   0.0
-400.0   120.0   16.666666666666668
-450.0   90.0   16.666666666666668
-450.0   120.0   16.666666666666668
-400.0   120.0   16.666666666666668
-450.0   120.0   0.0
-450.0   90.0   16.666666666666668
-400.0   120.0   16.666666666666668
-400.0   90.0   16.666666666666668
-400.0   90.0   0.0
-450.0   90.0   16.666666666666668
-400.0   120.0   16.666666666666668
-400.0   90.0   0.0
-450.0   120.0   0.0
-450.0   90.0   16.666666666666668
-400.0   90.0   16.666666666666668
-450.0   120.0   16.666666666666668
-450.0   90.0   33.333333333333336
-400.0   90.0   16.666666666666668
-400.0   120.0   16.666666666666668
-450.0   120.0   16.666666666666668
-400.0   120.0   33.333333333333336
-450.0   90.0   33.333333333333336
-450.0   120.0   33.333333333333336
-400.0   120.0   33.333333333333336
-450.0   120.0   16.666666666666668
-450.0   90.0   33.333333333333336
-400.0   120.0   33.333333333333336
-400.0   90.0   33.333333333333336
-400.0   90.0   16.666666666666668
-450.0   90.0   33.333333333333336
-400.0   120.0   33.333333333333336
-400.0   90.0   16.666666666666668
-450.0   120.0   16.666666666666668
-450.0   90.0   33.333333333333336
-400.0   90.0   33.333333333333336
-450.0   120.0   33.333333333333336
-450.0   90.0   50.0
-400.0   90.0   33.333333333333336
-400.0   120.0   33.333333333333336
-450.0   120.0   33.333333333333336
-400.0   120.0   50.0
-450.0   90.0   50.0
-450.0   120.0   50.0
-400.0   120.0   50.0
-450.0   120.0   33.333333333333336
-450.0   90.0   50.0
-400.0   120.0   50.0
-400.0   90.0   50.0
-400.0   90.0   33.333333333333336
-450.0   90.0   50.0
-400.0   120.0   50.0
-400.0   90.0   33.333333333333336
-450.0   120.0   33.333333333333336
-450.0   120.0   0.0
-400.0   120.0   0.0
-450.0   150.0   0.0
-450.0   120.0   16.666666666666668
-400.0   120.0   0.0
-400.0   150.0   0.0
-450.0   150.0   0.0
-400.0   150.0   16.666666666666668
-450.0   120.0   16.666666666666668
-450.0   150.0   16.666666666666668
-400.0   150.0   16.666666666666668
-450.0   150.0   0.0
-450.0   120.0   16.666666666666668
-400.0   150.0   16.666666666666668
-400.0   120.0   16.666666666666668
-400.0   120.0   0.0
-450.0   120.0   16.666666666666668
-400.0   150.0   16.666666666666668
-400.0   120.0   0.0
-450.0   150.0   0.0
-450.0   120.0   16.666666666666668
-400.0   120.0   16.666666666666668
-450.0   150.0   16.666666666666668
-450.0   120.0   33.333333333333336
-400.0   120.0   16.666666666666668
-400.0   150.0   16.666666666666668
-450.0   150.0   16.666666666666668
-400.0   150.0   33.333333333333336
-450.0   120.0   33.333333333333336
-450.0   150.0   33.333333333333336
-400.0   150.0   33.333333333333336
-450.0   150.0   16.666666666666668
-450.0   120.0   33.333333333333336
-400.0   150.0   33.333333333333336
-400.0   120.0   33.333333333333336
-400.0   120.0   16.666666666666668
-450.0   120.0   33.333333333333336
-400.0   150.0   33.333333333333336
-400.0   120.0   16.666666666666668
-450.0   150.0   16.666666666666668
-450.0   120.0   33.333333333333336
-400.0   120.0   33.333333333333336
-450.0   150.0   33.333333333333336
-450.0   120.0   50.0
-400.0   120.0   33.333333333333336
-400.0   150.0   33.333333333333336
-450.0   150.0   33.333333333333336
-400.0   150.0   50.0
-450.0   120.0   50.0
-450.0   150.0   50.0
-400.0   150.0   50.0
-450.0   150.0   33.333333333333336
-450.0   120.0   50.0
-400.0   150.0   50.0
-400.0   120.0   50.0
-400.0   120.0   33.333333333333336
-450.0   120.0   50.0
-400.0   150.0   50.0
-400.0   120.0   33.333333333333336
-450.0   150.0   33.333333333333336
-400.0   0.0   0.0
-350.0   0.0   0.0
-400.0   30.0   0.0
-400.0   0.0   16.666666666666668
-350.0   0.0   0.0
-350.0   30.0   0.0
-400.0   30.0   0.0
-350.0   30.0   16.666666666666668
-400.0   0.0   16.666666666666668
-400.0   30.0   16.666666666666668
-350.0   30.0   16.666666666666668
-400.0   30.0   0.0
-400.0   0.0   16.666666666666668
-350.0   30.0   16.666666666666668
-350.0   0.0   16.666666666666668
-350.0   0.0   0.0
-400.0   0.0   16.666666666666668
-350.0   30.0   16.666666666666668
-350.0   0.0   0.0
-400.0   30.0   0.0
-400.0   0.0   16.666666666666668
-350.0   0.0   16.666666666666668
-400.0   30.0   16.666666666666668
-400.0   0.0   33.333333333333336
-350.0   0.0   16.666666666666668
-350.0   30.0   16.666666666666668
-400.0   30.0   16.666666666666668
-350.0   30.0   33.333333333333336
-400.0   0.0   33.333333333333336
-400.0   30.0   33.333333333333336
-350.0   30.0   33.333333333333336
-400.0   30.0   16.666666666666668
-400.0   0.0   33.333333333333336
-350.0   30.0   33.333333333333336
-350.0   0.0   33.333333333333336
-350.0   0.0   16.666666666666668
-400.0   0.0   33.333333333333336
-350.0   30.0   33.333333333333336
-350.0   0.0   16.666666666666668
-400.0   30.0   16.666666666666668
-400.0   0.0   33.333333333333336
-350.0   0.0   33.333333333333336
-400.0   30.0   33.333333333333336
-400.0   0.0   50.0
-350.0   0.0   33.333333333333336
-350.0   30.0   33.333333333333336
-400.0   30.0   33.333333333333336
-350.0   30.0   50.0
-400.0   0.0   50.0
-400.0   30.0   50.0
-350.0   30.0   50.0
-400.0   30.0   33.333333333333336
-400.0   0.0   50.0
-350.0   30.0   50.0
-350.0   0.0   50.0
-350.0   0.0   33.333333333333336
-400.0   0.0   50.0
-350.0   30.0   50.0
-350.0   0.0   33.333333333333336
-400.0   30.0   33.333333333333336
-400.0   30.0   0.0
-350.0   30.0   0.0
-400.0   60.0   0.0
-400.0   30.0   16.666666666666668
-350.0   30.0   0.0
-350.0   60.0   0.0
-400.0   60.0   0.0
-350.0   60.0   16.666666666666668
-400.0   30.0   16.666666666666668
-400.0   60.0   16.666666666666668
-350.0   60.0   16.666666666666668
-400.0   60.0   0.0
-400.0   30.0   16.666666666666668
-350.0   60.0   16.666666666666668
-350.0   30.0   16.666666666666668
-350.0   30.0   0.0
-400.0   30.0   16.666666666666668
-350.0   60.0   16.666666666666668
-350.0   30.0   0.0
-400.0   60.0   0.0
-400.0   30.0   16.666666666666668
-350.0   30.0   16.666666666666668
-400.0   60.0   16.666666666666668
-400.0   30.0   33.333333333333336
-350.0   30.0   16.666666666666668
-350.0   60.0   16.666666666666668
-400.0   60.0   16.666666666666668
-350.0   60.0   33.333333333333336
-400.0   30.0   33.333333333333336
-400.0   60.0   33.333333333333336
-350.0   60.0   33.333333333333336
-400.0   60.0   16.666666666666668
-400.0   30.0   33.333333333333336
-350.0   60.0   33.333333333333336
-350.0   30.0   33.333333333333336
-350.0   30.0   16.666666666666668
-400.0   30.0   33.333333333333336
-350.0   60.0   33.333333333333336
-350.0   30.0   16.666666666666668
-400.0   60.0   16.666666666666668
-400.0   30.0   33.333333333333336
-350.0   30.0   33.333333333333336
-400.0   60.0   33.333333333333336
-400.0   30.0   50.0
-350.0   30.0   33.333333333333336
-350.0   60.0   33.333333333333336
-400.0   60.0   33.333333333333336
-350.0   60.0   50.0
-400.0   30.0   50.0
-400.0   60.0   50.0
-350.0   60.0   50.0
-400.0   60.0   33.333333333333336
-400.0   30.0   50.0
-350.0   60.0   50.0
-350.0   30.0   50.0
-350.0   30.0   33.333333333333336
-400.0   30.0   50.0
-350.0   60.0   50.0
-350.0   30.0   33.333333333333336
-400.0   60.0   33.333333333333336
-400.0   60.0   0.0
-350.0   60.0   0.0
-400.0   90.0   0.0
-400.0   60.0   16.666666666666668
-350.0   60.0   0.0
-350.0   90.0   0.0
-400.0   90.0   0.0
-350.0   90.0   16.666666666666668
-400.0   60.0   16.666666666666668
-400.0   90.0   16.666666666666668
-350.0   90.0   16.666666666666668
-400.0   90.0   0.0
-400.0   60.0   16.666666666666668
-350.0   90.0   16.666666666666668
-350.0   60.0   16.666666666666668
-350.0   60.0   0.0
-400.0   60.0   16.666666666666668
-350.0   90.0   16.666666666666668
-350.0   60.0   0.0
-400.0   90.0   0.0
-400.0   60.0   16.666666666666668
-350.0   60.0   16.666666666666668
-400.0   90.0   16.666666666666668
-400.0   60.0   33.333333333333336
-350.0   60.0   16.666666666666668
-350.0   90.0   16.666666666666668
-400.0   90.0   16.666666666666668
-350.0   90.0   33.333333333333336
-400.0   60.0   33.333333333333336
-400.0   90.0   33.333333333333336
-350.0   90.0   33.333333333333336
-400.0   90.0   16.666666666666668
-400.0   60.0   33.333333333333336
-350.0   90.0   33.333333333333336
-350.0   60.0   33.333333333333336
-350.0   60.0   16.666666666666668
-400.0   60.0   33.333333333333336
-350.0   90.0   33.333333333333336
-350.0   60.0   16.666666666666668
-400.0   90.0   16.666666666666668
-400.0   60.0   33.333333333333336
-350.0   60.0   33.333333333333336
-400.0   90.0   33.333333333333336
-400.0   60.0   50.0
-350.0   60.0   33.333333333333336
-350.0   90.0   33.333333333333336
-400.0   90.0   33.333333333333336
-350.0   90.0   50.0
-400.0   60.0   50.0
-400.0   90.0   50.0
-350.0   90.0   50.0
-400.0   90.0   33.333333333333336
-400.0   60.0   50.0
-350.0   90.0   50.0
-350.0   60.0   50.0
-350.0   60.0   33.333333333333336
-400.0   60.0   50.0
-350.0   90.0   50.0
-350.0   60.0   33.333333333333336
-400.0   90.0   33.333333333333336
-400.0   90.0   0.0
-350.0   90.0   0.0
-400.0   120.0   0.0
-400.0   90.0   16.666666666666668
-350.0   90.0   0.0
-350.0   120.0   0.0
-400.0   120.0   0.0
-350.0   120.0   16.666666666666668
-400.0   90.0   16.666666666666668
-400.0   120.0   16.666666666666668
-350.0   120.0   16.666666666666668
-400.0   120.0   0.0
-400.0   90.0   16.666666666666668
-350.0   120.0   16.666666666666668
-350.0   90.0   16.666666666666668
-350.0   90.0   0.0
-400.0   90.0   16.666666666666668
-350.0   120.0   16.666666666666668
-350.0   90.0   0.0
-400.0   120.0   0.0
-400.0   90.0   16.666666666666668
-350.0   90.0   16.666666666666668
-400.0   120.0   16.666666666666668
-400.0   90.0   33.333333333333336
-350.0   90.0   16.666666666666668
-350.0   120.0   16.666666666666668
-400.0   120.0   16.666666666666668
-350.0   120.0   33.333333333333336
-400.0   90.0   33.333333333333336
-400.0   120.0   33.333333333333336
-350.0   120.0   33.333333333333336
-400.0   120.0   16.666666666666668
-400.0   90.0   33.333333333333336
-350.0   120.0   33.333333333333336
-350.0   90.0   33.333333333333336
-350.0   90.0   16.666666666666668
-400.0   90.0   33.333333333333336
-350.0   120.0   33.333333333333336
-350.0   90.0   16.666666666666668
-400.0   120.0   16.666666666666668
-400.0   90.0   33.333333333333336
-350.0   90.0   33.333333333333336
-400.0   120.0   33.333333333333336
-400.0   90.0   50.0
-350.0   90.0   33.333333333333336
-350.0   120.0   33.333333333333336
-400.0   120.0   33.333333333333336
-350.0   120.0   50.0
-400.0   90.0   50.0
-400.0   120.0   50.0
-350.0   120.0   50.0
-400.0   120.0   33.333333333333336
-400.0   90.0   50.0
-350.0   120.0   50.0
-350.0   90.0   50.0
-350.0   90.0   33.333333333333336
-400.0   90.0   50.0
-350.0   120.0   50.0
-350.0   90.0   33.333333333333336
-400.0   120.0   33.333333333333336
-400.0   120.0   0.0
-350.0   120.0   0.0
-400.0   150.0   0.0
-400.0   120.0   16.666666666666668
-350.0   120.0   0.0
-350.0   150.0   0.0
-400.0   150.0   0.0
-350.0   150.0   16.666666666666668
-400.0   120.0   16.666666666666668
-400.0   150.0   16.666666666666668
-350.0   150.0   16.666666666666668
-400.0   150.0   0.0
-400.0   120.0   16.666666666666668
-350.0   150.0   16.666666666666668
-350.0   120.0   16.666666666666668
-350.0   120.0   0.0
-400.0   120.0   16.666666666666668
-350.0   150.0   16.666666666666668
-350.0   120.0   0.0
-400.0   150.0   0.0
-400.0   120.0   16.666666666666668
-350.0   120.0   16.666666666666668
-400.0   150.0   16.666666666666668
-400.0   120.0   33.333333333333336
-350.0   120.0   16.666666666666668
-350.0   150.0   16.666666666666668
-400.0   150.0   16.666666666666668
-350.0   150.0   33.333333333333336
-400.0   120.0   33.333333333333336
-400.0   150.0   33.333333333333336
-350.0   150.0   33.333333333333336
-400.0   150.0   16.666666666666668
-400.0   120.0   33.333333333333336
-350.0   150.0   33.333333333333336
-350.0   120.0   33.333333333333336
-350.0   120.0   16.666666666666668
-400.0   120.0   33.333333333333336
-350.0   150.0   33.333333333333336
-350.0   120.0   16.666666666666668
-400.0   150.0   16.666666666666668
-400.0   120.0   33.333333333333336
-350.0   120.0   33.333333333333336
-400.0   150.0   33.333333333333336
-400.0   120.0   50.0
-350.0   120.0   33.333333333333336
-350.0   150.0   33.333333333333336
-400.0   150.0   33.333333333333336
-350.0   150.0   50.0
-400.0   120.0   50.0
-400.0   150.0   50.0
-350.0   150.0   50.0
-400.0   150.0   33.333333333333336
-400.0   120.0   50.0
-350.0   150.0   50.0
-350.0   120.0   50.0
-350.0   120.0   33.333333333333336
-400.0   120.0   50.0
-350.0   150.0   50.0
-350.0   120.0   33.333333333333336
-400.0   150.0   33.333333333333336
-350.0   0.0   0.0
-300.0   0.0   0.0
-350.0   30.0   0.0
-350.0   0.0   16.666666666666668
-300.0   0.0   0.0
-300.0   30.0   0.0
-350.0   30.0   0.0
-300.0   30.0   16.666666666666668
-350.0   0.0   16.666666666666668
-350.0   30.0   16.666666666666668
-300.0   30.0   16.666666666666668
-350.0   30.0   0.0
-350.0   0.0   16.666666666666668
-300.0   30.0   16.666666666666668
-300.0   0.0   16.666666666666668
-300.0   0.0   0.0
-350.0   0.0   16.666666666666668
-300.0   30.0   16.666666666666668
-300.0   0.0   0.0
-350.0   30.0   0.0
-350.0   0.0   16.666666666666668
-300.0   0.0   16.666666666666668
-350.0   30.0   16.666666666666668
-350.0   0.0   33.333333333333336
-300.0   0.0   16.666666666666668
-300.0   30.0   16.666666666666668
-350.0   30.0   16.666666666666668
-300.0   30.0   33.333333333333336
-350.0   0.0   33.333333333333336
-350.0   30.0   33.333333333333336
-300.0   30.0   33.333333333333336
-350.0   30.0   16.666666666666668
-350.0   0.0   33.333333333333336
-300.0   30.0   33.333333333333336
-300.0   0.0   33.333333333333336
-300.0   0.0   16.666666666666668
-350.0   0.0   33.333333333333336
-300.0   30.0   33.333333333333336
-300.0   0.0   16.666666666666668
-350.0   30.0   16.666666666666668
-350.0   0.0   33.333333333333336
-300.0   0.0   33.333333333333336
-350.0   30.0   33.333333333333336
-350.0   0.0   50.0
-300.0   0.0   33.333333333333336
-300.0   30.0   33.333333333333336
-350.0   30.0   33.333333333333336
-300.0   30.0   50.0
-350.0   0.0   50.0
-350.0   30.0   50.0
-300.0   30.0   50.0
-350.0   30.0   33.333333333333336
-350.0   0.0   50.0
-300.0   30.0   50.0
-300.0   0.0   50.0
-300.0   0.0   33.333333333333336
-350.0   0.0   50.0
-300.0   30.0   50.0
-300.0   0.0   33.333333333333336
-350.0   30.0   33.333333333333336
-350.0   30.0   0.0
-300.0   30.0   0.0
-350.0   60.0   0.0
-350.0   30.0   16.666666666666668
-300.0   30.0   0.0
-300.0   60.0   0.0
-350.0   60.0   0.0
-300.0   60.0   16.666666666666668
-350.0   30.0   16.666666666666668
-350.0   60.0   16.666666666666668
-300.0   60.0   16.666666666666668
-350.0   60.0   0.0
-350.0   30.0   16.666666666666668
-300.0   60.0   16.666666666666668
-300.0   30.0   16.666666666666668
-300.0   30.0   0.0
-350.0   30.0   16.666666666666668
-300.0   60.0   16.666666666666668
-300.0   30.0   0.0
-350.0   60.0   0.0
-350.0   30.0   16.666666666666668
-300.0   30.0   16.666666666666668
-350.0   60.0   16.666666666666668
-350.0   30.0   33.333333333333336
-300.0   30.0   16.666666666666668
-300.0   60.0   16.666666666666668
-350.0   60.0   16.666666666666668
-300.0   60.0   33.333333333333336
-350.0   30.0   33.333333333333336
-350.0   60.0   33.333333333333336
-300.0   60.0   33.333333333333336
-350.0   60.0   16.666666666666668
-350.0   30.0   33.333333333333336
-300.0   60.0   33.333333333333336
-300.0   30.0   33.333333333333336
-300.0   30.0   16.666666666666668
-350.0   30.0   33.333333333333336
-300.0   60.0   33.333333333333336
-300.0   30.0   16.666666666666668
-350.0   60.0   16.666666666666668
-350.0   30.0   33.333333333333336
-300.0   30.0   33.333333333333336
-350.0   60.0   33.333333333333336
-350.0   30.0   50.0
-300.0   30.0   33.333333333333336
-300.0   60.0   33.333333333333336
-350.0   60.0   33.333333333333336
-300.0   60.0   50.0
-350.0   30.0   50.0
-350.0   60.0   50.0
-300.0   60.0   50.0
-350.0   60.0   33.333333333333336
-350.0   30.0   50.0
-300.0   60.0   50.0
-300.0   30.0   50.0
-300.0   30.0   33.333333333333336
-350.0   30.0   50.0
-300.0   60.0   50.0
-300.0   30.0   33.333333333333336
-350.0   60.0   33.333333333333336
-350.0   60.0   0.0
-300.0   60.0   0.0
-350.0   90.0   0.0
-350.0   60.0   16.666666666666668
-300.0   60.0   0.0
-300.0   90.0   0.0
-350.0   90.0   0.0
-300.0   90.0   16.666666666666668
-350.0   60.0   16.666666666666668
-350.0   90.0   16.666666666666668
-300.0   90.0   16.666666666666668
-350.0   90.0   0.0
-350.0   60.0   16.666666666666668
-300.0   90.0   16.666666666666668
-300.0   60.0   16.666666666666668
-300.0   60.0   0.0
-350.0   60.0   16.666666666666668
-300.0   90.0   16.666666666666668
-300.0   60.0   0.0
-350.0   90.0   0.0
-350.0   60.0   16.666666666666668
-300.0   60.0   16.666666666666668
-350.0   90.0   16.666666666666668
-350.0   60.0   33.333333333333336
-300.0   60.0   16.666666666666668
-300.0   90.0   16.666666666666668
-350.0   90.0   16.666666666666668
-300.0   90.0   33.333333333333336
-350.0   60.0   33.333333333333336
-350.0   90.0   33.333333333333336
-300.0   90.0   33.333333333333336
-350.0   90.0   16.666666666666668
-350.0   60.0   33.333333333333336
-300.0   90.0   33.333333333333336
-300.0   60.0   33.333333333333336
-300.0   60.0   16.666666666666668
-350.0   60.0   33.333333333333336
-300.0   90.0   33.333333333333336
-300.0   60.0   16.666666666666668
-350.0   90.0   16.666666666666668
-350.0   60.0   33.333333333333336
-300.0   60.0   33.333333333333336
-350.0   90.0   33.333333333333336
-350.0   60.0   50.0
-300.0   60.0   33.333333333333336
-300.0   90.0   33.333333333333336
-350.0   90.0   33.333333333333336
-300.0   90.0   50.0
-350.0   60.0   50.0
-350.0   90.0   50.0
-300.0   90.0   50.0
-350.0   90.0   33.333333333333336
-350.0   60.0   50.0
-300.0   90.0   50.0
-300.0   60.0   50.0
-300.0   60.0   33.333333333333336
-350.0   60.0   50.0
-300.0   90.0   50.0
-300.0   60.0   33.333333333333336
-350.0   90.0   33.333333333333336
-350.0   90.0   0.0
-300.0   90.0   0.0
-350.0   120.0   0.0
-350.0   90.0   16.666666666666668
-300.0   90.0   0.0
-300.0   120.0   0.0
-350.0   120.0   0.0
-300.0   120.0   16.666666666666668
-350.0   90.0   16.666666666666668
-350.0   120.0   16.666666666666668
-300.0   120.0   16.666666666666668
-350.0   120.0   0.0
-350.0   90.0   16.666666666666668
-300.0   120.0   16.666666666666668
-300.0   90.0   16.666666666666668
-300.0   90.0   0.0
-350.0   90.0   16.666666666666668
-300.0   120.0   16.666666666666668
-300.0   90.0   0.0
-350.0   120.0   0.0
-350.0   90.0   16.666666666666668
-300.0   90.0   16.666666666666668
-350.0   120.0   16.666666666666668
-350.0   90.0   33.333333333333336
-300.0   90.0   16.666666666666668
-300.0   120.0   16.666666666666668
-350.0   120.0   16.666666666666668
-300.0   120.0   33.333333333333336
-350.0   90.0   33.333333333333336
-350.0   120.0   33.333333333333336
-300.0   120.0   33.333333333333336
-350.0   120.0   16.666666666666668
-350.0   90.0   33.333333333333336
-300.0   120.0   33.333333333333336
-300.0   90.0   33.333333333333336
-300.0   90.0   16.666666666666668
-350.0   90.0   33.333333333333336
-300.0   120.0   33.333333333333336
-300.0   90.0   16.666666666666668
-350.0   120.0   16.666666666666668
-350.0   90.0   33.333333333333336
-300.0   90.0   33.333333333333336
-350.0   120.0   33.333333333333336
-350.0   90.0   50.0
-300.0   90.0   33.333333333333336
-300.0   120.0   33.333333333333336
-350.0   120.0   33.333333333333336
-300.0   120.0   50.0
-350.0   90.0   50.0
-350.0   120.0   50.0
-300.0   120.0   50.0
-350.0   120.0   33.333333333333336
-350.0   90.0   50.0
-300.0   120.0   50.0
-300.0   90.0   50.0
-300.0   90.0   33.333333333333336
-350.0   90.0   50.0
-300.0   120.0   50.0
-300.0   90.0   33.333333333333336
-350.0   120.0   33.333333333333336
-350.0   120.0   0.0
-300.0   120.0   0.0
-350.0   150.0   0.0
-350.0   120.0   16.666666666666668
-300.0   120.0   0.0
-300.0   150.0   0.0
-350.0   150.0   0.0
-300.0   150.0   16.666666666666668
-350.0   120.0   16.666666666666668
-350.0   150.0   16.666666666666668
-300.0   150.0   16.666666666666668
-350.0   150.0   0.0
-350.0   120.0   16.666666666666668
-300.0   150.0   16.666666666666668
-300.0   120.0   16.666666666666668
-300.0   120.0   0.0
-350.0   120.0   16.666666666666668
-300.0   150.0   16.666666666666668
-300.0   120.0   0.0
-350.0   150.0   0.0
-350.0   120.0   16.666666666666668
-300.0   120.0   16.666666666666668
-350.0   150.0   16.666666666666668
-350.0   120.0   33.333333333333336
-300.0   120.0   16.666666666666668
-300.0   150.0   16.666666666666668
-350.0   150.0   16.666666666666668
-300.0   150.0   33.333333333333336
-350.0   120.0   33.333333333333336
-350.0   150.0   33.333333333333336
-300.0   150.0   33.333333333333336
-350.0   150.0   16.666666666666668
-350.0   120.0   33.333333333333336
-300.0   150.0   33.333333333333336
-300.0   120.0   33.333333333333336
-300.0   120.0   16.666666666666668
-350.0   120.0   33.333333333333336
-300.0   150.0   33.333333333333336
-300.0   120.0   16.666666666666668
-350.0   150.0   16.666666666666668
-350.0   120.0   33.333333333333336
-300.0   120.0   33.333333333333336
-350.0   150.0   33.333333333333336
-350.0   120.0   50.0
-300.0   120.0   33.333333333333336
-300.0   150.0   33.333333333333336
-350.0   150.0   33.333333333333336
-300.0   150.0   50.0
-350.0   120.0   50.0
-350.0   150.0   50.0
-300.0   150.0   50.0
-350.0   150.0   33.333333333333336
-350.0   120.0   50.0
-300.0   150.0   50.0
-300.0   120.0   50.0
-300.0   120.0   33.333333333333336
-350.0   120.0   50.0
-300.0   150.0   50.0
-300.0   120.0   33.333333333333336
-350.0   150.0   33.333333333333336
-300.0   0.0   0.0
-250.0   0.0   0.0
-300.0   30.0   0.0
-300.0   0.0   16.666666666666668
-250.0   0.0   0.0
-250.0   30.0   0.0
-300.0   30.0   0.0
-250.0   30.0   16.666666666666668
-300.0   0.0   16.666666666666668
-300.0   30.0   16.666666666666668
-250.0   30.0   16.666666666666668
-300.0   30.0   0.0
-300.0   0.0   16.666666666666668
-250.0   30.0   16.666666666666668
-250.0   0.0   16.666666666666668
-250.0   0.0   0.0
-300.0   0.0   16.666666666666668
-250.0   30.0   16.666666666666668
-250.0   0.0   0.0
-300.0   30.0   0.0
-300.0   0.0   16.666666666666668
-250.0   0.0   16.666666666666668
-300.0   30.0   16.666666666666668
-300.0   0.0   33.333333333333336
-250.0   0.0   16.666666666666668
-250.0   30.0   16.666666666666668
-300.0   30.0   16.666666666666668
-250.0   30.0   33.333333333333336
-300.0   0.0   33.333333333333336
-300.0   30.0   33.333333333333336
-250.0   30.0   33.333333333333336
-300.0   30.0   16.666666666666668
-300.0   0.0   33.333333333333336
-250.0   30.0   33.333333333333336
-250.0   0.0   33.333333333333336
-250.0   0.0   16.666666666666668
-300.0   0.0   33.333333333333336
-250.0   30.0   33.333333333333336
-250.0   0.0   16.666666666666668
-300.0   30.0   16.666666666666668
-300.0   0.0   33.333333333333336
-250.0   0.0   33.333333333333336
-300.0   30.0   33.333333333333336
-300.0   0.0   50.0
-250.0   0.0   33.333333333333336
-250.0   30.0   33.333333333333336
-300.0   30.0   33.333333333333336
-250.0   30.0   50.0
-300.0   0.0   50.0
-300.0   30.0   50.0
-250.0   30.0   50.0
-300.0   30.0   33.333333333333336
-300.0   0.0   50.0
-250.0   30.0   50.0
-250.0   0.0   50.0
-250.0   0.0   33.333333333333336
-300.0   0.0   50.0
-250.0   30.0   50.0
-250.0   0.0   33.333333333333336
-300.0   30.0   33.333333333333336
-300.0   30.0   0.0
-250.0   30.0   0.0
-300.0   60.0   0.0
-300.0   30.0   16.666666666666668
-250.0   30.0   0.0
-250.0   60.0   0.0
-300.0   60.0   0.0
-250.0   60.0   16.666666666666668
-300.0   30.0   16.666666666666668
-300.0   60.0   16.666666666666668
-250.0   60.0   16.666666666666668
-300.0   60.0   0.0
-300.0   30.0   16.666666666666668
-250.0   60.0   16.666666666666668
-250.0   30.0   16.666666666666668
-250.0   30.0   0.0
-300.0   30.0   16.666666666666668
-250.0   60.0   16.666666666666668
-250.0   30.0   0.0
-300.0   60.0   0.0
-300.0   30.0   16.666666666666668
-250.0   30.0   16.666666666666668
-300.0   60.0   16.666666666666668
-300.0   30.0   33.333333333333336
-250.0   30.0   16.666666666666668
-250.0   60.0   16.666666666666668
-300.0   60.0   16.666666666666668
-250.0   60.0   33.333333333333336
-300.0   30.0   33.333333333333336
-300.0   60.0   33.333333333333336
-250.0   60.0   33.333333333333336
-300.0   60.0   16.666666666666668
-300.0   30.0   33.333333333333336
-250.0   60.0   33.333333333333336
-250.0   30.0   33.333333333333336
-250.0   30.0   16.666666666666668
-300.0   30.0   33.333333333333336
-250.0   60.0   33.333333333333336
-250.0   30.0   16.666666666666668
-300.0   60.0   16.666666666666668
-300.0   30.0   33.333333333333336
-250.0   30.0   33.333333333333336
-300.0   60.0   33.333333333333336
-300.0   30.0   50.0
-250.0   30.0   33.333333333333336
-250.0   60.0   33.333333333333336
-300.0   60.0   33.333333333333336
-250.0   60.0   50.0
-300.0   30.0   50.0
-300.0   60.0   50.0
-250.0   60.0   50.0
-300.0   60.0   33.333333333333336
-300.0   30.0   50.0
-250.0   60.0   50.0
-250.0   30.0   50.0
-250.0   30.0   33.333333333333336
-300.0   30.0   50.0
-250.0   60.0   50.0
-250.0   30.0   33.333333333333336
-300.0   60.0   33.333333333333336
-300.0   60.0   0.0
-250.0   60.0   0.0
-300.0   90.0   0.0
-300.0   60.0   16.666666666666668
-250.0   60.0   0.0
-250.0   90.0   0.0
-300.0   90.0   0.0
-250.0   90.0   16.666666666666668
-300.0   60.0   16.666666666666668
-300.0   90.0   16.666666666666668
-250.0   90.0   16.666666666666668
-300.0   90.0   0.0
-300.0   60.0   16.666666666666668
-250.0   90.0   16.666666666666668
-250.0   60.0   16.666666666666668
-250.0   60.0   0.0
-300.0   60.0   16.666666666666668
-250.0   90.0   16.666666666666668
-250.0   60.0   0.0
-300.0   90.0   0.0
-300.0   60.0   16.666666666666668
-250.0   60.0   16.666666666666668
-300.0   90.0   16.666666666666668
-300.0   60.0   33.333333333333336
-250.0   60.0   16.666666666666668
-250.0   90.0   16.666666666666668
-300.0   90.0   16.666666666666668
-250.0   90.0   33.333333333333336
-300.0   60.0   33.333333333333336
-300.0   90.0   33.333333333333336
-250.0   90.0   33.333333333333336
-300.0   90.0   16.666666666666668
-300.0   60.0   33.333333333333336
-250.0   90.0   33.333333333333336
-250.0   60.0   33.333333333333336
-250.0   60.0   16.666666666666668
-300.0   60.0   33.333333333333336
-250.0   90.0   33.333333333333336
-250.0   60.0   16.666666666666668
-300.0   90.0   16.666666666666668
-300.0   60.0   33.333333333333336
-250.0   60.0   33.333333333333336
-300.0   90.0   33.333333333333336
-300.0   60.0   50.0
-250.0   60.0   33.333333333333336
-250.0   90.0   33.333333333333336
-300.0   90.0   33.333333333333336
-250.0   90.0   50.0
-300.0   60.0   50.0
-300.0   90.0   50.0
-250.0   90.0   50.0
-300.0   90.0   33.333333333333336
-300.0   60.0   50.0
-250.0   90.0   50.0
-250.0   60.0   50.0
-250.0   60.0   33.333333333333336
-300.0   60.0   50.0
-250.0   90.0   50.0
-250.0   60.0   33.333333333333336
-300.0   90.0   33.333333333333336
-300.0   90.0   0.0
-250.0   90.0   0.0
-300.0   120.0   0.0
-300.0   90.0   16.666666666666668
-250.0   90.0   0.0
-250.0   120.0   0.0
-300.0   120.0   0.0
-250.0   120.0   16.666666666666668
-300.0   90.0   16.666666666666668
-300.0   120.0   16.666666666666668
-250.0   120.0   16.666666666666668
-300.0   120.0   0.0
-300.0   90.0   16.666666666666668
-250.0   120.0   16.666666666666668
-250.0   90.0   16.666666666666668
-250.0   90.0   0.0
-300.0   90.0   16.666666666666668
-250.0   120.0   16.666666666666668
-250.0   90.0   0.0
-300.0   120.0   0.0
-300.0   90.0   16.666666666666668
-250.0   90.0   16.666666666666668
-300.0   120.0   16.666666666666668
-300.0   90.0   33.333333333333336
-250.0   90.0   16.666666666666668
-250.0   120.0   16.666666666666668
-300.0   120.0   16.666666666666668
-250.0   120.0   33.333333333333336
-300.0   90.0   33.333333333333336
-300.0   120.0   33.333333333333336
-250.0   120.0   33.333333333333336
-300.0   120.0   16.666666666666668
-300.0   90.0   33.333333333333336
-250.0   120.0   33.333333333333336
-250.0   90.0   33.333333333333336
-250.0   90.0   16.666666666666668
-300.0   90.0   33.333333333333336
-250.0   120.0   33.333333333333336
-250.0   90.0   16.666666666666668
-300.0   120.0   16.666666666666668
-300.0   90.0   33.333333333333336
-250.0   90.0   33.333333333333336
-300.0   120.0   33.333333333333336
-300.0   90.0   50.0
-250.0   90.0   33.333333333333336
-250.0   120.0   33.333333333333336
-300.0   120.0   33.333333333333336
-250.0   120.0   50.0
-300.0   90.0   50.0
-300.0   120.0   50.0
-250.0   120.0   50.0
-300.0   120.0   33.333333333333336
-300.0   90.0   50.0
-250.0   120.0   50.0
-250.0   90.0   50.0
-250.0   90.0   33.333333333333336
-300.0   90.0   50.0
-250.0   120.0   50.0
-250.0   90.0   33.333333333333336
-300.0   120.0   33.333333333333336
-300.0   120.0   0.0
-250.0   120.0   0.0
-300.0   150.0   0.0
-300.0   120.0   16.666666666666668
-250.0   120.0   0.0
-250.0   150.0   0.0
-300.0   150.0   0.0
-250.0   150.0   16.666666666666668
-300.0   120.0   16.666666666666668
-300.0   150.0   16.666666666666668
-250.0   150.0   16.666666666666668
-300.0   150.0   0.0
-300.0   120.0   16.666666666666668
-250.0   150.0   16.666666666666668
-250.0   120.0   16.666666666666668
-250.0   120.0   0.0
-300.0   120.0   16.666666666666668
-250.0   150.0   16.666666666666668
-250.0   120.0   0.0
-300.0   150.0   0.0
-300.0   120.0   16.666666666666668
-250.0   120.0   16.666666666666668
-300.0   150.0   16.666666666666668
-300.0   120.0   33.333333333333336
-250.0   120.0   16.666666666666668
-250.0   150.0   16.666666666666668
-300.0   150.0   16.666666666666668
-250.0   150.0   33.333333333333336
-300.0   120.0   33.333333333333336
-300.0   150.0   33.333333333333336
-250.0   150.0   33.333333333333336
-300.0   150.0   16.666666666666668
-300.0   120.0   33.333333333333336
-250.0   150.0   33.333333333333336
-250.0   120.0   33.333333333333336
-250.0   120.0   16.666666666666668
-300.0   120.0   33.333333333333336
-250.0   150.0   33.333333333333336
-250.0   120.0   16.666666666666668
-300.0   150.0   16.666666666666668
-300.0   120.0   33.333333333333336
-250.0   120.0   33.333333333333336
-300.0   150.0   33.333333333333336
-300.0   120.0   50.0
-250.0   120.0   33.333333333333336
-250.0   150.0   33.333333333333336
-300.0   150.0   33.333333333333336
-250.0   150.0   50.0
-300.0   120.0   50.0
-300.0   150.0   50.0
-250.0   150.0   50.0
-300.0   150.0   33.333333333333336
-300.0   120.0   50.0
-250.0   150.0   50.0
-250.0   120.0   50.0
-250.0   120.0   33.333333333333336
-300.0   120.0   50.0
-250.0   150.0   50.0
-250.0   120.0   33.333333333333336
-300.0   150.0   33.333333333333336
-250.0   0.0   0.0
-200.0   0.0   0.0
-250.0   30.0   0.0
-250.0   0.0   16.666666666666668
-200.0   0.0   0.0
-200.0   30.0   0.0
-250.0   30.0   0.0
-200.0   30.0   16.666666666666668
-250.0   0.0   16.666666666666668
-250.0   30.0   16.666666666666668
-200.0   30.0   16.666666666666668
-250.0   30.0   0.0
-250.0   0.0   16.666666666666668
-200.0   30.0   16.666666666666668
-200.0   0.0   16.666666666666668
-200.0   0.0   0.0
-250.0   0.0   16.666666666666668
-200.0   30.0   16.666666666666668
-200.0   0.0   0.0
-250.0   30.0   0.0
-250.0   0.0   16.666666666666668
-200.0   0.0   16.666666666666668
-250.0   30.0   16.666666666666668
-250.0   0.0   33.333333333333336
-200.0   0.0   16.666666666666668
-200.0   30.0   16.666666666666668
-250.0   30.0   16.666666666666668
-200.0   30.0   33.333333333333336
-250.0   0.0   33.333333333333336
-250.0   30.0   33.333333333333336
-200.0   30.0   33.333333333333336
-250.0   30.0   16.666666666666668
-250.0   0.0   33.333333333333336
-200.0   30.0   33.333333333333336
-200.0   0.0   33.333333333333336
-200.0   0.0   16.666666666666668
-250.0   0.0   33.333333333333336
-200.0   30.0   33.333333333333336
-200.0   0.0   16.666666666666668
-250.0   30.0   16.666666666666668
-250.0   0.0   33.333333333333336
-200.0   0.0   33.333333333333336
-250.0   30.0   33.333333333333336
-250.0   0.0   50.0
-200.0   0.0   33.333333333333336
-200.0   30.0   33.333333333333336
-250.0   30.0   33.333333333333336
-200.0   30.0   50.0
-250.0   0.0   50.0
-250.0   30.0   50.0
-200.0   30.0   50.0
-250.0   30.0   33.333333333333336
-250.0   0.0   50.0
-200.0   30.0   50.0
-200.0   0.0   50.0
-200.0   0.0   33.333333333333336
-250.0   0.0   50.0
-200.0   30.0   50.0
-200.0   0.0   33.333333333333336
-250.0   30.0   33.333333333333336
-250.0   30.0   0.0
-200.0   30.0   0.0
-250.0   60.0   0.0
-250.0   30.0   16.666666666666668
-200.0   30.0   0.0
-200.0   60.0   0.0
-250.0   60.0   0.0
-200.0   60.0   16.666666666666668
-250.0   30.0   16.666666666666668
-250.0   60.0   16.666666666666668
-200.0   60.0   16.666666666666668
-250.0   60.0   0.0
-250.0   30.0   16.666666666666668
-200.0   60.0   16.666666666666668
-200.0   30.0   16.666666666666668
-200.0   30.0   0.0
-250.0   30.0   16.666666666666668
-200.0   60.0   16.666666666666668
-200.0   30.0   0.0
-250.0   60.0   0.0
-250.0   30.0   16.666666666666668
-200.0   30.0   16.666666666666668
-250.0   60.0   16.666666666666668
-250.0   30.0   33.333333333333336
-200.0   30.0   16.666666666666668
-200.0   60.0   16.666666666666668
-250.0   60.0   16.666666666666668
-200.0   60.0   33.333333333333336
-250.0   30.0   33.333333333333336
-250.0   60.0   33.333333333333336
-200.0   60.0   33.333333333333336
-250.0   60.0   16.666666666666668
-250.0   30.0   33.333333333333336
-200.0   60.0   33.333333333333336
-200.0   30.0   33.333333333333336
-200.0   30.0   16.666666666666668
-250.0   30.0   33.333333333333336
-200.0   60.0   33.333333333333336
-200.0   30.0   16.666666666666668
-250.0   60.0   16.666666666666668
-250.0   30.0   33.333333333333336
-200.0   30.0   33.333333333333336
-250.0   60.0   33.333333333333336
-250.0   30.0   50.0
-200.0   30.0   33.333333333333336
-200.0   60.0   33.333333333333336
-250.0   60.0   33.333333333333336
-200.0   60.0   50.0
-250.0   30.0   50.0
-250.0   60.0   50.0
-200.0   60.0   50.0
-250.0   60.0   33.333333333333336
-250.0   30.0   50.0
-200.0   60.0   50.0
-200.0   30.0   50.0
-200.0   30.0   33.333333333333336
-250.0   30.0   50.0
-200.0   60.0   50.0
-200.0   30.0   33.333333333333336
-250.0   60.0   33.333333333333336
-250.0   60.0   0.0
-200.0   60.0   0.0
-250.0   90.0   0.0
-250.0   60.0   16.666666666666668
-200.0   60.0   0.0
-200.0   90.0   0.0
-250.0   90.0   0.0
-200.0   90.0   16.666666666666668
-250.0   60.0   16.666666666666668
-250.0   90.0   16.666666666666668
-200.0   90.0   16.666666666666668
-250.0   90.0   0.0
-250.0   60.0   16.666666666666668
-200.0   90.0   16.666666666666668
-200.0   60.0   16.666666666666668
-200.0   60.0   0.0
-250.0   60.0   16.666666666666668
-200.0   90.0   16.666666666666668
-200.0   60.0   0.0
-250.0   90.0   0.0
-250.0   60.0   16.666666666666668
-200.0   60.0   16.666666666666668
-250.0   90.0   16.666666666666668
-250.0   60.0   33.333333333333336
-200.0   60.0   16.666666666666668
-200.0   90.0   16.666666666666668
-250.0   90.0   16.666666666666668
-200.0   90.0   33.333333333333336
-250.0   60.0   33.333333333333336
-250.0   90.0   33.333333333333336
-200.0   90.0   33.333333333333336
-250.0   90.0   16.666666666666668
-250.0   60.0   33.333333333333336
-200.0   90.0   33.333333333333336
-200.0   60.0   33.333333333333336
-200.0   60.0   16.666666666666668
-250.0   60.0   33.333333333333336
-200.0   90.0   33.333333333333336
-200.0   60.0   16.666666666666668
-250.0   90.0   16.666666666666668
-250.0   60.0   33.333333333333336
-200.0   60.0   33.333333333333336
-250.0   90.0   33.333333333333336
-250.0   60.0   50.0
-200.0   60.0   33.333333333333336
-200.0   90.0   33.333333333333336
-250.0   90.0   33.333333333333336
-200.0   90.0   50.0
-250.0   60.0   50.0
-250.0   90.0   50.0
-200.0   90.0   50.0
-250.0   90.0   33.333333333333336
-250.0   60.0   50.0
-200.0   90.0   50.0
-200.0   60.0   50.0
-200.0   60.0   33.333333333333336
-250.0   60.0   50.0
-200.0   90.0   50.0
-200.0   60.0   33.333333333333336
-250.0   90.0   33.333333333333336
-250.0   90.0   0.0
-200.0   90.0   0.0
-250.0   120.0   0.0
-250.0   90.0   16.666666666666668
-200.0   90.0   0.0
-200.0   120.0   0.0
-250.0   120.0   0.0
-200.0   120.0   16.666666666666668
-250.0   90.0   16.666666666666668
-250.0   120.0   16.666666666666668
-200.0   120.0   16.666666666666668
-250.0   120.0   0.0
-250.0   90.0   16.666666666666668
-200.0   120.0   16.666666666666668
-200.0   90.0   16.666666666666668
-200.0   90.0   0.0
-250.0   90.0   16.666666666666668
-200.0   120.0   16.666666666666668
-200.0   90.0   0.0
-250.0   120.0   0.0
-250.0   90.0   16.666666666666668
-200.0   90.0   16.666666666666668
-250.0   120.0   16.666666666666668
-250.0   90.0   33.333333333333336
-200.0   90.0   16.666666666666668
-200.0   120.0   16.666666666666668
-250.0   120.0   16.666666666666668
-200.0   120.0   33.333333333333336
-250.0   90.0   33.333333333333336
-250.0   120.0   33.333333333333336
-200.0   120.0   33.333333333333336
-250.0   120.0   16.666666666666668
-250.0   90.0   33.333333333333336
-200.0   120.0   33.333333333333336
-200.0   90.0   33.333333333333336
-200.0   90.0   16.666666666666668
-250.0   90.0   33.333333333333336
-200.0   120.0   33.333333333333336
-200.0   90.0   16.666666666666668
-250.0   120.0   16.666666666666668
-250.0   90.0   33.333333333333336
-200.0   90.0   33.333333333333336
-250.0   120.0   33.333333333333336
-250.0   90.0   50.0
-200.0   90.0   33.333333333333336
-200.0   120.0   33.333333333333336
-250.0   120.0   33.333333333333336
-200.0   120.0   50.0
-250.0   90.0   50.0
-250.0   120.0   50.0
-200.0   120.0   50.0
-250.0   120.0   33.333333333333336
-250.0   90.0   50.0
-200.0   120.0   50.0
-200.0   90.0   50.0
-200.0   90.0   33.333333333333336
-250.0   90.0   50.0
-200.0   120.0   50.0
-200.0   90.0   33.333333333333336
-250.0   120.0   33.333333333333336
-250.0   120.0   0.0
-200.0   120.0   0.0
-250.0   150.0   0.0
-250.0   120.0   16.666666666666668
-200.0   120.0   0.0
-200.0   150.0   0.0
-250.0   150.0   0.0
-200.0   150.0   16.666666666666668
-250.0   120.0   16.666666666666668
-250.0   150.0   16.666666666666668
-200.0   150.0   16.666666666666668
-250.0   150.0   0.0
-250.0   120.0   16.666666666666668
-200.0   150.0   16.666666666666668
-200.0   120.0   16.666666666666668
-200.0   120.0   0.0
-250.0   120.0   16.666666666666668
-200.0   150.0   16.666666666666668
-200.0   120.0   0.0
-250.0   150.0   0.0
-250.0   120.0   16.666666666666668
-200.0   120.0   16.666666666666668
-250.0   150.0   16.666666666666668
-250.0   120.0   33.333333333333336
-200.0   120.0   16.666666666666668
-200.0   150.0   16.666666666666668
-250.0   150.0   16.666666666666668
-200.0   150.0   33.333333333333336
-250.0   120.0   33.333333333333336
-250.0   150.0   33.333333333333336
-200.0   150.0   33.333333333333336
-250.0   150.0   16.666666666666668
-250.0   120.0   33.333333333333336
-200.0   150.0   33.333333333333336
-200.0   120.0   33.333333333333336
-200.0   120.0   16.666666666666668
-250.0   120.0   33.333333333333336
-200.0   150.0   33.333333333333336
-200.0   120.0   16.666666666666668
-250.0   150.0   16.666666666666668
-250.0   120.0   33.333333333333336
-200.0   120.0   33.333333333333336
-250.0   150.0   33.333333333333336
-250.0   120.0   50.0
-200.0   120.0   33.333333333333336
-200.0   150.0   33.333333333333336
-250.0   150.0   33.333333333333336
-200.0   150.0   50.0
-250.0   120.0   50.0
-250.0   150.0   50.0
-200.0   150.0   50.0
-250.0   150.0   33.333333333333336
-250.0   120.0   50.0
-200.0   150.0   50.0
-200.0   120.0   50.0
-200.0   120.0   33.333333333333336
-250.0   120.0   50.0
-200.0   150.0   50.0
-200.0   120.0   33.333333333333336
-250.0   150.0   33.333333333333336
-200.0   0.0   0.0
-150.0   0.0   0.0
-200.0   30.0   0.0
-200.0   0.0   16.666666666666668
-150.0   0.0   0.0
-150.0   30.0   0.0
-200.0   30.0   0.0
-150.0   30.0   16.666666666666668
-200.0   0.0   16.666666666666668
-200.0   30.0   16.666666666666668
-150.0   30.0   16.666666666666668
-200.0   30.0   0.0
-200.0   0.0   16.666666666666668
-150.0   30.0   16.666666666666668
-150.0   0.0   16.666666666666668
-150.0   0.0   0.0
-200.0   0.0   16.666666666666668
-150.0   30.0   16.666666666666668
-150.0   0.0   0.0
-200.0   30.0   0.0
-200.0   0.0   16.666666666666668
-150.0   0.0   16.666666666666668
-200.0   30.0   16.666666666666668
-200.0   0.0   33.333333333333336
-150.0   0.0   16.666666666666668
-150.0   30.0   16.666666666666668
-200.0   30.0   16.666666666666668
-150.0   30.0   33.333333333333336
-200.0   0.0   33.333333333333336
-200.0   30.0   33.333333333333336
-150.0   30.0   33.333333333333336
-200.0   30.0   16.666666666666668
-200.0   0.0   33.333333333333336
-150.0   30.0   33.333333333333336
-150.0   0.0   33.333333333333336
-150.0   0.0   16.666666666666668
-200.0   0.0   33.333333333333336
-150.0   30.0   33.333333333333336
-150.0   0.0   16.666666666666668
-200.0   30.0   16.666666666666668
-200.0   0.0   33.333333333333336
-150.0   0.0   33.333333333333336
-200.0   30.0   33.333333333333336
-200.0   0.0   50.0
-150.0   0.0   33.333333333333336
-150.0   30.0   33.333333333333336
-200.0   30.0   33.333333333333336
-150.0   30.0   50.0
-200.0   0.0   50.0
-200.0   30.0   50.0
-150.0   30.0   50.0
-200.0   30.0   33.333333333333336
-200.0   0.0   50.0
-150.0   30.0   50.0
-150.0   0.0   50.0
-150.0   0.0   33.333333333333336
-200.0   0.0   50.0
-150.0   30.0   50.0
-150.0   0.0   33.333333333333336
-200.0   30.0   33.333333333333336
-200.0   30.0   0.0
-150.0   30.0   0.0
-200.0   60.0   0.0
-200.0   30.0   16.666666666666668
-150.0   30.0   0.0
-150.0   60.0   0.0
-200.0   60.0   0.0
-150.0   60.0   16.666666666666668
-200.0   30.0   16.666666666666668
-200.0   60.0   16.666666666666668
-150.0   60.0   16.666666666666668
-200.0   60.0   0.0
-200.0   30.0   16.666666666666668
-150.0   60.0   16.666666666666668
-150.0   30.0   16.666666666666668
-150.0   30.0   0.0
-200.0   30.0   16.666666666666668
-150.0   60.0   16.666666666666668
-150.0   30.0   0.0
-200.0   60.0   0.0
-200.0   30.0   16.666666666666668
-150.0   30.0   16.666666666666668
-200.0   60.0   16.666666666666668
-200.0   30.0   33.333333333333336
-150.0   30.0   16.666666666666668
-150.0   60.0   16.666666666666668
-200.0   60.0   16.666666666666668
-150.0   60.0   33.333333333333336
-200.0   30.0   33.333333333333336
-200.0   60.0   33.333333333333336
-150.0   60.0   33.333333333333336
-200.0   60.0   16.666666666666668
-200.0   30.0   33.333333333333336
-150.0   60.0   33.333333333333336
-150.0   30.0   33.333333333333336
-150.0   30.0   16.666666666666668
-200.0   30.0   33.333333333333336
-150.0   60.0   33.333333333333336
-150.0   30.0   16.666666666666668
-200.0   60.0   16.666666666666668
-200.0   30.0   33.333333333333336
-150.0   30.0   33.333333333333336
-200.0   60.0   33.333333333333336
-200.0   30.0   50.0
-150.0   30.0   33.333333333333336
-150.0   60.0   33.333333333333336
-200.0   60.0   33.333333333333336
-150.0   60.0   50.0
-200.0   30.0   50.0
-200.0   60.0   50.0
-150.0   60.0   50.0
-200.0   60.0   33.333333333333336
-200.0   30.0   50.0
-150.0   60.0   50.0
-150.0   30.0   50.0
-150.0   30.0   33.333333333333336
-200.0   30.0   50.0
-150.0   60.0   50.0
-150.0   30.0   33.333333333333336
-200.0   60.0   33.333333333333336
-200.0   60.0   0.0
-150.0   60.0   0.0
-200.0   90.0   0.0
-200.0   60.0   16.666666666666668
-150.0   60.0   0.0
-150.0   90.0   0.0
-200.0   90.0   0.0
-150.0   90.0   16.666666666666668
-200.0   60.0   16.666666666666668
-200.0   90.0   16.666666666666668
-150.0   90.0   16.666666666666668
-200.0   90.0   0.0
-200.0   60.0   16.666666666666668
-150.0   90.0   16.666666666666668
-150.0   60.0   16.666666666666668
-150.0   60.0   0.0
-200.0   60.0   16.666666666666668
-150.0   90.0   16.666666666666668
-150.0   60.0   0.0
-200.0   90.0   0.0
-200.0   60.0   16.666666666666668
-150.0   60.0   16.666666666666668
-200.0   90.0   16.666666666666668
-200.0   60.0   33.333333333333336
-150.0   60.0   16.666666666666668
-150.0   90.0   16.666666666666668
-200.0   90.0   16.666666666666668
-150.0   90.0   33.333333333333336
-200.0   60.0   33.333333333333336
-200.0   90.0   33.333333333333336
-150.0   90.0   33.333333333333336
-200.0   90.0   16.666666666666668
-200.0   60.0   33.333333333333336
-150.0   90.0   33.333333333333336
-150.0   60.0   33.333333333333336
-150.0   60.0   16.666666666666668
-200.0   60.0   33.333333333333336
-150.0   90.0   33.333333333333336
-150.0   60.0   16.666666666666668
-200.0   90.0   16.666666666666668
-200.0   60.0   33.333333333333336
-150.0   60.0   33.333333333333336
-200.0   90.0   33.333333333333336
-200.0   60.0   50.0
-150.0   60.0   33.333333333333336
-150.0   90.0   33.333333333333336
-200.0   90.0   33.333333333333336
-150.0   90.0   50.0
-200.0   60.0   50.0
-200.0   90.0   50.0
-150.0   90.0   50.0
-200.0   90.0   33.333333333333336
-200.0   60.0   50.0
-150.0   90.0   50.0
-150.0   60.0   50.0
-150.0   60.0   33.333333333333336
-200.0   60.0   50.0
-150.0   90.0   50.0
-150.0   60.0   33.333333333333336
-200.0   90.0   33.333333333333336
-200.0   90.0   0.0
-150.0   90.0   0.0
-200.0   120.0   0.0
-200.0   90.0   16.666666666666668
-150.0   90.0   0.0
-150.0   120.0   0.0
-200.0   120.0   0.0
-150.0   120.0   16.666666666666668
-200.0   90.0   16.666666666666668
-200.0   120.0   16.666666666666668
-150.0   120.0   16.666666666666668
-200.0   120.0   0.0
-200.0   90.0   16.666666666666668
-150.0   120.0   16.666666666666668
-150.0   90.0   16.666666666666668
-150.0   90.0   0.0
-200.0   90.0   16.666666666666668
-150.0   120.0   16.666666666666668
-150.0   90.0   0.0
-200.0   120.0   0.0
-200.0   90.0   16.666666666666668
-150.0   90.0   16.666666666666668
-200.0   120.0   16.666666666666668
-200.0   90.0   33.333333333333336
-150.0   90.0   16.666666666666668
-150.0   120.0   16.666666666666668
-200.0   120.0   16.666666666666668
-150.0   120.0   33.333333333333336
-200.0   90.0   33.333333333333336
-200.0   120.0   33.333333333333336
-150.0   120.0   33.333333333333336
-200.0   120.0   16.666666666666668
-200.0   90.0   33.333333333333336
-150.0   120.0   33.333333333333336
-150.0   90.0   33.333333333333336
-150.0   90.0   16.666666666666668
-200.0   90.0   33.333333333333336
-150.0   120.0   33.333333333333336
-150.0   90.0   16.666666666666668
-200.0   120.0   16.666666666666668
-200.0   90.0   33.333333333333336
-150.0   90.0   33.333333333333336
-200.0   120.0   33.333333333333336
-200.0   90.0   50.0
-150.0   90.0   33.333333333333336
-150.0   120.0   33.333333333333336
-200.0   120.0   33.333333333333336
-150.0   120.0   50.0
-200.0   90.0   50.0
-200.0   120.0   50.0
-150.0   120.0   50.0
-200.0   120.0   33.333333333333336
-200.0   90.0   50.0
-150.0   120.0   50.0
-150.0   90.0   50.0
-150.0   90.0   33.333333333333336
-200.0   90.0   50.0
-150.0   120.0   50.0
-150.0   90.0   33.333333333333336
-200.0   120.0   33.333333333333336
-200.0   120.0   0.0
-150.0   120.0   0.0
-200.0   150.0   0.0
-200.0   120.0   16.666666666666668
-150.0   120.0   0.0
-150.0   150.0   0.0
-200.0   150.0   0.0
-150.0   150.0   16.666666666666668
-200.0   120.0   16.666666666666668
-200.0   150.0   16.666666666666668
-150.0   150.0   16.666666666666668
-200.0   150.0   0.0
-200.0   120.0   16.666666666666668
-150.0   150.0   16.666666666666668
-150.0   120.0   16.666666666666668
-150.0   120.0   0.0
-200.0   120.0   16.666666666666668
-150.0   150.0   16.666666666666668
-150.0   120.0   0.0
-200.0   150.0   0.0
-200.0   120.0   16.666666666666668
-150.0   120.0   16.666666666666668
-200.0   150.0   16.666666666666668
-200.0   120.0   33.333333333333336
-150.0   120.0   16.666666666666668
-150.0   150.0   16.666666666666668
-200.0   150.0   16.666666666666668
-150.0   150.0   33.333333333333336
-200.0   120.0   33.333333333333336
-200.0   150.0   33.333333333333336
-150.0   150.0   33.333333333333336
-200.0   150.0   16.666666666666668
-200.0   120.0   33.333333333333336
-150.0   150.0   33.333333333333336
-150.0   120.0   33.333333333333336
-150.0   120.0   16.666666666666668
-200.0   120.0   33.333333333333336
-150.0   150.0   33.333333333333336
-150.0   120.0   16.666666666666668
-200.0   150.0   16.666666666666668
-200.0   120.0   33.333333333333336
-150.0   120.0   33.333333333333336
-200.0   150.0   33.333333333333336
-200.0   120.0   50.0
-150.0   120.0   33.333333333333336
-150.0   150.0   33.333333333333336
-200.0   150.0   33.333333333333336
-150.0   150.0   50.0
-200.0   120.0   50.0
-200.0   150.0   50.0
-150.0   150.0   50.0
-200.0   150.0   33.333333333333336
-200.0   120.0   50.0
-150.0   150.0   50.0
-150.0   120.0   50.0
-150.0   120.0   33.333333333333336
-200.0   120.0   50.0
-150.0   150.0   50.0
-150.0   120.0   33.333333333333336
-200.0   150.0   33.333333333333336
-150.0   0.0   0.0
-100.0   0.0   0.0
-150.0   30.0   0.0
-150.0   0.0   16.666666666666668
-100.0   0.0   0.0
-100.0   30.0   0.0
-150.0   30.0   0.0
-100.0   30.0   16.666666666666668
-150.0   0.0   16.666666666666668
-150.0   30.0   16.666666666666668
-100.0   30.0   16.666666666666668
-150.0   30.0   0.0
-150.0   0.0   16.666666666666668
-100.0   30.0   16.666666666666668
-100.0   0.0   16.666666666666668
-100.0   0.0   0.0
-150.0   0.0   16.666666666666668
-100.0   30.0   16.666666666666668
-100.0   0.0   0.0
-150.0   30.0   0.0
-150.0   0.0   16.666666666666668
-100.0   0.0   16.666666666666668
-150.0   30.0   16.666666666666668
-150.0   0.0   33.333333333333336
-100.0   0.0   16.666666666666668
-100.0   30.0   16.666666666666668
-150.0   30.0   16.666666666666668
-100.0   30.0   33.333333333333336
-150.0   0.0   33.333333333333336
-150.0   30.0   33.333333333333336
-100.0   30.0   33.333333333333336
-150.0   30.0   16.666666666666668
-150.0   0.0   33.333333333333336
-100.0   30.0   33.333333333333336
-100.0   0.0   33.333333333333336
-100.0   0.0   16.666666666666668
-150.0   0.0   33.333333333333336
-100.0   30.0   33.333333333333336
-100.0   0.0   16.666666666666668
-150.0   30.0   16.666666666666668
-150.0   0.0   33.333333333333336
-100.0   0.0   33.333333333333336
-150.0   30.0   33.333333333333336
-150.0   0.0   50.0
-100.0   0.0   33.333333333333336
-100.0   30.0   33.333333333333336
-150.0   30.0   33.333333333333336
-100.0   30.0   50.0
-150.0   0.0   50.0
-150.0   30.0   50.0
-100.0   30.0   50.0
-150.0   30.0   33.333333333333336
-150.0   0.0   50.0
-100.0   30.0   50.0
-100.0   0.0   50.0
-100.0   0.0   33.333333333333336
-150.0   0.0   50.0
-100.0   30.0   50.0
-100.0   0.0   33.333333333333336
-150.0   30.0   33.333333333333336
-150.0   30.0   0.0
-100.0   30.0   0.0
-150.0   60.0   0.0
-150.0   30.0   16.666666666666668
-100.0   30.0   0.0
-100.0   60.0   0.0
-150.0   60.0   0.0
-100.0   60.0   16.666666666666668
-150.0   30.0   16.666666666666668
-150.0   60.0   16.666666666666668
-100.0   60.0   16.666666666666668
-150.0   60.0   0.0
-150.0   30.0   16.666666666666668
-100.0   60.0   16.666666666666668
-100.0   30.0   16.666666666666668
-100.0   30.0   0.0
-150.0   30.0   16.666666666666668
-100.0   60.0   16.666666666666668
-100.0   30.0   0.0
-150.0   60.0   0.0
-150.0   30.0   16.666666666666668
-100.0   30.0   16.666666666666668
-150.0   60.0   16.666666666666668
-150.0   30.0   33.333333333333336
-100.0   30.0   16.666666666666668
-100.0   60.0   16.666666666666668
-150.0   60.0   16.666666666666668
-100.0   60.0   33.333333333333336
-150.0   30.0   33.333333333333336
-150.0   60.0   33.333333333333336
-100.0   60.0   33.333333333333336
-150.0   60.0   16.666666666666668
-150.0   30.0   33.333333333333336
-100.0   60.0   33.333333333333336
-100.0   30.0   33.333333333333336
-100.0   30.0   16.666666666666668
-150.0   30.0   33.333333333333336
-100.0   60.0   33.333333333333336
-100.0   30.0   16.666666666666668
-150.0   60.0   16.666666666666668
-150.0   30.0   33.333333333333336
-100.0   30.0   33.333333333333336
-150.0   60.0   33.333333333333336
-150.0   30.0   50.0
-100.0   30.0   33.333333333333336
-100.0   60.0   33.333333333333336
-150.0   60.0   33.333333333333336
-100.0   60.0   50.0
-150.0   30.0   50.0
-150.0   60.0   50.0
-100.0   60.0   50.0
-150.0   60.0   33.333333333333336
-150.0   30.0   50.0
-100.0   60.0   50.0
-100.0   30.0   50.0
-100.0   30.0   33.333333333333336
-150.0   30.0   50.0
-100.0   60.0   50.0
-100.0   30.0   33.333333333333336
-150.0   60.0   33.333333333333336
-150.0   60.0   0.0
-100.0   60.0   0.0
-150.0   90.0   0.0
-150.0   60.0   16.666666666666668
-100.0   60.0   0.0
-100.0   90.0   0.0
-150.0   90.0   0.0
-100.0   90.0   16.666666666666668
-150.0   60.0   16.666666666666668
-150.0   90.0   16.666666666666668
-100.0   90.0   16.666666666666668
-150.0   90.0   0.0
-150.0   60.0   16.666666666666668
-100.0   90.0   16.666666666666668
-100.0   60.0   16.666666666666668
-100.0   60.0   0.0
-150.0   60.0   16.666666666666668
-100.0   90.0   16.666666666666668
-100.0   60.0   0.0
-150.0   90.0   0.0
-150.0   60.0   16.666666666666668
-100.0   60.0   16.666666666666668
-150.0   90.0   16.666666666666668
-150.0   60.0   33.333333333333336
-100.0   60.0   16.666666666666668
-100.0   90.0   16.666666666666668
-150.0   90.0   16.666666666666668
-100.0   90.0   33.333333333333336
-150.0   60.0   33.333333333333336
-150.0   90.0   33.333333333333336
-100.0   90.0   33.333333333333336
-150.0   90.0   16.666666666666668
-150.0   60.0   33.333333333333336
-100.0   90.0   33.333333333333336
-100.0   60.0   33.333333333333336
-100.0   60.0   16.666666666666668
-150.0   60.0   33.333333333333336
-100.0   90.0   33.333333333333336
-100.0   60.0   16.666666666666668
-150.0   90.0   16.666666666666668
-150.0   60.0   33.333333333333336
-100.0   60.0   33.333333333333336
-150.0   90.0   33.333333333333336
-150.0   60.0   50.0
-100.0   60.0   33.333333333333336
-100.0   90.0   33.333333333333336
-150.0   90.0   33.333333333333336
-100.0   90.0   50.0
-150.0   60.0   50.0
-150.0   90.0   50.0
-100.0   90.0   50.0
-150.0   90.0   33.333333333333336
-150.0   60.0   50.0
-100.0   90.0   50.0
-100.0   60.0   50.0
-100.0   60.0   33.333333333333336
-150.0   60.0   50.0
-100.0   90.0   50.0
-100.0   60.0   33.333333333333336
-150.0   90.0   33.333333333333336
-150.0   90.0   0.0
-100.0   90.0   0.0
-150.0   120.0   0.0
-150.0   90.0   16.666666666666668
-100.0   90.0   0.0
-100.0   120.0   0.0
-150.0   120.0   0.0
-100.0   120.0   16.666666666666668
-150.0   90.0   16.666666666666668
-150.0   120.0   16.666666666666668
-100.0   120.0   16.666666666666668
-150.0   120.0   0.0
-150.0   90.0   16.666666666666668
-100.0   120.0   16.666666666666668
-100.0   90.0   16.666666666666668
-100.0   90.0   0.0
-150.0   90.0   16.666666666666668
-100.0   120.0   16.666666666666668
-100.0   90.0   0.0
-150.0   120.0   0.0
-150.0   90.0   16.666666666666668
-100.0   90.0   16.666666666666668
-150.0   120.0   16.666666666666668
-150.0   90.0   33.333333333333336
-100.0   90.0   16.666666666666668
-100.0   120.0   16.666666666666668
-150.0   120.0   16.666666666666668
-100.0   120.0   33.333333333333336
-150.0   90.0   33.333333333333336
-150.0   120.0   33.333333333333336
-100.0   120.0   33.333333333333336
-150.0   120.0   16.666666666666668
-150.0   90.0   33.333333333333336
-100.0   120.0   33.333333333333336
-100.0   90.0   33.333333333333336
-100.0   90.0   16.666666666666668
-150.0   90.0   33.333333333333336
-100.0   120.0   33.333333333333336
-100.0   90.0   16.666666666666668
-150.0   120.0   16.666666666666668
-150.0   90.0   33.333333333333336
-100.0   90.0   33.333333333333336
-150.0   120.0   33.333333333333336
-150.0   90.0   50.0
-100.0   90.0   33.333333333333336
-100.0   120.0   33.333333333333336
-150.0   120.0   33.333333333333336
-100.0   120.0   50.0
-150.0   90.0   50.0
-150.0   120.0   50.0
-100.0   120.0   50.0
-150.0   120.0   33.333333333333336
-150.0   90.0   50.0
-100.0   120.0   50.0
-100.0   90.0   50.0
-100.0   90.0   33.333333333333336
-150.0   90.0   50.0
-100.0   120.0   50.0
-100.0   90.0   33.333333333333336
-150.0   120.0   33.333333333333336
-150.0   120.0   0.0
-100.0   120.0   0.0
-150.0   150.0   0.0
-150.0   120.0   16.666666666666668
-100.0   120.0   0.0
-100.0   150.0   0.0
-150.0   150.0   0.0
-100.0   150.0   16.666666666666668
-150.0   120.0   16.666666666666668
-150.0   150.0   16.666666666666668
-100.0   150.0   16.666666666666668
-150.0   150.0   0.0
-150.0   120.0   16.666666666666668
-100.0   150.0   16.666666666666668
-100.0   120.0   16.666666666666668
-100.0   120.0   0.0
-150.0   120.0   16.666666666666668
-100.0   150.0   16.666666666666668
-100.0   120.0   0.0
-150.0   150.0   0.0
-150.0   120.0   16.666666666666668
-100.0   120.0   16.666666666666668
-150.0   150.0   16.666666666666668
-150.0   120.0   33.333333333333336
-100.0   120.0   16.666666666666668
-100.0   150.0   16.666666666666668
-150.0   150.0   16.666666666666668
-100.0   150.0   33.333333333333336
-150.0   120.0   33.333333333333336
-150.0   150.0   33.333333333333336
-100.0   150.0   33.333333333333336
-150.0   150.0   16.666666666666668
-150.0   120.0   33.333333333333336
-100.0   150.0   33.333333333333336
-100.0   120.0   33.333333333333336
-100.0   120.0   16.666666666666668
-150.0   120.0   33.333333333333336
-100.0   150.0   33.333333333333336
-100.0   120.0   16.666666666666668
-150.0   150.0   16.666666666666668
-150.0   120.0   33.333333333333336
-100.0   120.0   33.333333333333336
-150.0   150.0   33.333333333333336
-150.0   120.0   50.0
-100.0   120.0   33.333333333333336
-100.0   150.0   33.333333333333336
-150.0   150.0   33.333333333333336
-100.0   150.0   50.0
-150.0   120.0   50.0
-150.0   150.0   50.0
-100.0   150.0   50.0
-150.0   150.0   33.333333333333336
-150.0   120.0   50.0
-100.0   150.0   50.0
-100.0   120.0   50.0
-100.0   120.0   33.333333333333336
-150.0   120.0   50.0
-100.0   150.0   50.0
-100.0   120.0   33.333333333333336
-150.0   150.0   33.333333333333336
-100.0   0.0   0.0
-50.0   0.0   0.0
-100.0   30.0   0.0
-100.0   0.0   16.666666666666668
-50.0   0.0   0.0
-50.0   30.0   0.0
-100.0   30.0   0.0
-50.0   30.0   16.666666666666668
-100.0   0.0   16.666666666666668
-100.0   30.0   16.666666666666668
-50.0   30.0   16.666666666666668
-100.0   30.0   0.0
-100.0   0.0   16.666666666666668
-50.0   30.0   16.666666666666668
-50.0   0.0   16.666666666666668
-50.0   0.0   0.0
-100.0   0.0   16.666666666666668
-50.0   30.0   16.666666666666668
-50.0   0.0   0.0
-100.0   30.0   0.0
-100.0   0.0   16.666666666666668
-50.0   0.0   16.666666666666668
-100.0   30.0   16.666666666666668
-100.0   0.0   33.333333333333336
-50.0   0.0   16.666666666666668
-50.0   30.0   16.666666666666668
-100.0   30.0   16.666666666666668
-50.0   30.0   33.333333333333336
-100.0   0.0   33.333333333333336
-100.0   30.0   33.333333333333336
-50.0   30.0   33.333333333333336
-100.0   30.0   16.666666666666668
-100.0   0.0   33.333333333333336
-50.0   30.0   33.333333333333336
-50.0   0.0   33.333333333333336
-50.0   0.0   16.666666666666668
-100.0   0.0   33.333333333333336
-50.0   30.0   33.333333333333336
-50.0   0.0   16.666666666666668
-100.0   30.0   16.666666666666668
-100.0   0.0   33.333333333333336
-50.0   0.0   33.333333333333336
-100.0   30.0   33.333333333333336
-100.0   0.0   50.0
-50.0   0.0   33.333333333333336
-50.0   30.0   33.333333333333336
-100.0   30.0   33.333333333333336
-50.0   30.0   50.0
-100.0   0.0   50.0
-100.0   30.0   50.0
-50.0   30.0   50.0
-100.0   30.0   33.333333333333336
-100.0   0.0   50.0
-50.0   30.0   50.0
-50.0   0.0   50.0
-50.0   0.0   33.333333333333336
-100.0   0.0   50.0
-50.0   30.0   50.0
-50.0   0.0   33.333333333333336
-100.0   30.0   33.333333333333336
-100.0   30.0   0.0
-50.0   30.0   0.0
-100.0   60.0   0.0
-100.0   30.0   16.666666666666668
-50.0   30.0   0.0
-50.0   60.0   0.0
-100.0   60.0   0.0
-50.0   60.0   16.666666666666668
-100.0   30.0   16.666666666666668
-100.0   60.0   16.666666666666668
-50.0   60.0   16.666666666666668
-100.0   60.0   0.0
-100.0   30.0   16.666666666666668
-50.0   60.0   16.666666666666668
-50.0   30.0   16.666666666666668
-50.0   30.0   0.0
-100.0   30.0   16.666666666666668
-50.0   60.0   16.666666666666668
-50.0   30.0   0.0
-100.0   60.0   0.0
-100.0   30.0   16.666666666666668
-50.0   30.0   16.666666666666668
-100.0   60.0   16.666666666666668
-100.0   30.0   33.333333333333336
-50.0   30.0   16.666666666666668
-50.0   60.0   16.666666666666668
-100.0   60.0   16.666666666666668
-50.0   60.0   33.333333333333336
-100.0   30.0   33.333333333333336
-100.0   60.0   33.333333333333336
-50.0   60.0   33.333333333333336
-100.0   60.0   16.666666666666668
-100.0   30.0   33.333333333333336
-50.0   60.0   33.333333333333336
-50.0   30.0   33.333333333333336
-50.0   30.0   16.666666666666668
-100.0   30.0   33.333333333333336
-50.0   60.0   33.333333333333336
-50.0   30.0   16.666666666666668
-100.0   60.0   16.666666666666668
-100.0   30.0   33.333333333333336
-50.0   30.0   33.333333333333336
-100.0   60.0   33.333333333333336
-100.0   30.0   50.0
-50.0   30.0   33.333333333333336
-50.0   60.0   33.333333333333336
-100.0   60.0   33.333333333333336
-50.0   60.0   50.0
-100.0   30.0   50.0
-100.0   60.0   50.0
-50.0   60.0   50.0
-100.0   60.0   33.333333333333336
-100.0   30.0   50.0
-50.0   60.0   50.0
-50.0   30.0   50.0
-50.0   30.0   33.333333333333336
-100.0   30.0   50.0
-50.0   60.0   50.0
-50.0   30.0   33.333333333333336
-100.0   60.0   33.333333333333336
-100.0   60.0   0.0
-50.0   60.0   0.0
-100.0   90.0   0.0
-100.0   60.0   16.666666666666668
-50.0   60.0   0.0
-50.0   90.0   0.0
-100.0   90.0   0.0
-50.0   90.0   16.666666666666668
-100.0   60.0   16.666666666666668
-100.0   90.0   16.666666666666668
-50.0   90.0   16.666666666666668
-100.0   90.0   0.0
-100.0   60.0   16.666666666666668
-50.0   90.0   16.666666666666668
-50.0   60.0   16.666666666666668
-50.0   60.0   0.0
-100.0   60.0   16.666666666666668
-50.0   90.0   16.666666666666668
-50.0   60.0   0.0
-100.0   90.0   0.0
-100.0   60.0   16.666666666666668
-50.0   60.0   16.666666666666668
-100.0   90.0   16.666666666666668
-100.0   60.0   33.333333333333336
-50.0   60.0   16.666666666666668
-50.0   90.0   16.666666666666668
-100.0   90.0   16.666666666666668
-50.0   90.0   33.333333333333336
-100.0   60.0   33.333333333333336
-100.0   90.0   33.333333333333336
-50.0   90.0   33.333333333333336
-100.0   90.0   16.666666666666668
-100.0   60.0   33.333333333333336
-50.0   90.0   33.333333333333336
-50.0   60.0   33.333333333333336
-50.0   60.0   16.666666666666668
-100.0   60.0   33.333333333333336
-50.0   90.0   33.333333333333336
-50.0   60.0   16.666666666666668
-100.0   90.0   16.666666666666668
-100.0   60.0   33.333333333333336
-50.0   60.0   33.333333333333336
-100.0   90.0   33.333333333333336
-100.0   60.0   50.0
-50.0   60.0   33.333333333333336
-50.0   90.0   33.333333333333336
-100.0   90.0   33.333333333333336
-50.0   90.0   50.0
-100.0   60.0   50.0
-100.0   90.0   50.0
-50.0   90.0   50.0
-100.0   90.0   33.333333333333336
-100.0   60.0   50.0
-50.0   90.0   50.0
-50.0   60.0   50.0
-50.0   60.0   33.333333333333336
-100.0   60.0   50.0
-50.0   90.0   50.0
-50.0   60.0   33.333333333333336
-100.0   90.0   33.333333333333336
-100.0   90.0   0.0
-50.0   90.0   0.0
-100.0   120.0   0.0
-100.0   90.0   16.666666666666668
-50.0   90.0   0.0
-50.0   120.0   0.0
-100.0   120.0   0.0
-50.0   120.0   16.666666666666668
-100.0   90.0   16.666666666666668
-100.0   120.0   16.666666666666668
-50.0   120.0   16.666666666666668
-100.0   120.0   0.0
-100.0   90.0   16.666666666666668
-50.0   120.0   16.666666666666668
-50.0   90.0   16.666666666666668
-50.0   90.0   0.0
-100.0   90.0   16.666666666666668
-50.0   120.0   16.666666666666668
-50.0   90.0   0.0
-100.0   120.0   0.0
-100.0   90.0   16.666666666666668
-50.0   90.0   16.666666666666668
-100.0   120.0   16.666666666666668
-100.0   90.0   33.333333333333336
-50.0   90.0   16.666666666666668
-50.0   120.0   16.666666666666668
-100.0   120.0   16.666666666666668
-50.0   120.0   33.333333333333336
-100.0   90.0   33.333333333333336
-100.0   120.0   33.333333333333336
-50.0   120.0   33.333333333333336
-100.0   120.0   16.666666666666668
-100.0   90.0   33.333333333333336
-50.0   120.0   33.333333333333336
-50.0   90.0   33.333333333333336
-50.0   90.0   16.666666666666668
-100.0   90.0   33.333333333333336
-50.0   120.0   33.333333333333336
-50.0   90.0   16.666666666666668
-100.0   120.0   16.666666666666668
-100.0   90.0   33.333333333333336
-50.0   90.0   33.333333333333336
-100.0   120.0   33.333333333333336
-100.0   90.0   50.0
-50.0   90.0   33.333333333333336
-50.0   120.0   33.333333333333336
-100.0   120.0   33.333333333333336
-50.0   120.0   50.0
-100.0   90.0   50.0
-100.0   120.0   50.0
-50.0   120.0   50.0
-100.0   120.0   33.333333333333336
-100.0   90.0   50.0
-50.0   120.0   50.0
-50.0   90.0   50.0
-50.0   90.0   33.333333333333336
-100.0   90.0   50.0
-50.0   120.0   50.0
-50.0   90.0   33.333333333333336
-100.0   120.0   33.333333333333336
-100.0   120.0   0.0
-50.0   120.0   0.0
-100.0   150.0   0.0
-100.0   120.0   16.666666666666668
-50.0   120.0   0.0
-50.0   150.0   0.0
-100.0   150.0   0.0
-50.0   150.0   16.666666666666668
-100.0   120.0   16.666666666666668
-100.0   150.0   16.666666666666668
-50.0   150.0   16.666666666666668
-100.0   150.0   0.0
-100.0   120.0   16.666666666666668
-50.0   150.0   16.666666666666668
-50.0   120.0   16.666666666666668
-50.0   120.0   0.0
-100.0   120.0   16.666666666666668
-50.0   150.0   16.666666666666668
-50.0   120.0   0.0
-100.0   150.0   0.0
-100.0   120.0   16.666666666666668
-50.0   120.0   16.666666666666668
-100.0   150.0   16.666666666666668
-100.0   120.0   33.333333333333336
-50.0   120.0   16.666666666666668
-50.0   150.0   16.666666666666668
-100.0   150.0   16.666666666666668
-50.0   150.0   33.333333333333336
-100.0   120.0   33.333333333333336
-100.0   150.0   33.333333333333336
-50.0   150.0   33.333333333333336
-100.0   150.0   16.666666666666668
-100.0   120.0   33.333333333333336
-50.0   150.0   33.333333333333336
-50.0   120.0   33.333333333333336
-50.0   120.0   16.666666666666668
-100.0   120.0   33.333333333333336
-50.0   150.0   33.333333333333336
-50.0   120.0   16.666666666666668
-100.0   150.0   16.666666666666668
-100.0   120.0   33.333333333333336
-50.0   120.0   33.333333333333336
-100.0   150.0   33.333333333333336
-100.0   120.0   50.0
-50.0   120.0   33.333333333333336
-50.0   150.0   33.333333333333336
-100.0   150.0   33.333333333333336
-50.0   150.0   50.0
-100.0   120.0   50.0
-100.0   150.0   50.0
-50.0   150.0   50.0
-100.0   150.0   33.333333333333336
-100.0   120.0   50.0
-50.0   150.0   50.0
-50.0   120.0   50.0
-50.0   120.0   33.333333333333336
-100.0   120.0   50.0
-50.0   150.0   50.0
-50.0   120.0   33.333333333333336
-100.0   150.0   33.333333333333336
-50.0   0.0   0.0
0.0   0.0   0.0
-50.0   30.0   0.0
-50.0   0.0   16.666666666666668
0.0   0.0   0.0
0.0   30.0   0.0
-50.0   30.0   0.0
0.0   30.0   16.666666666666668
-50.0   0.0   16.666666666666668
-50.0   30.0   16.666666666666668
0.0   30.0   16.666666666666668
-50.0   30.0   0.0
-50.0   0.0   16.666666666666668
0.0   30.0   16.666666666666668
0.0   0.0   16.666666666666668
0.0   0.0   0.0
-50.0   0.0   16.666666666666668
0.0   30.0   16.666666666666668
0.0   0.0   0.0
-50.0   30.0   0.0
-50.0   0.0   16.666666666666668
0.0   0.0   16.666666666666668
-50.0   30.0   16.666666666666668
-50.0   0.0   33.333333333333336
0.0   0.0   16.666666666666668
0.0   30.0   16.666666666666668
-50.0   30.0   16.666666666666668
0.0   30.0   33.333333333333336
-50.0   0.0   33.333333333333336
-50.0   30.0   33.333333333333336
0.0   30.0   33.333333333333336
-50.0   30.0   16.666666666666668
-50.0   0.0   33.333333333333336
0.0   30.0   33.333333333333336
0.0   0.0   33.333333333333336
0.0   0.0   16.666666666666668
-50.0   0.0   33.333333333333336
0.0   30.0   33.333333333333336
0.0   0.0   16.666666666666668
-50.0   30.0   16.666666666666668
-50.0   0.0   33.333333333333336
0.0   0.0   33.333333333333336
-50.0   30.0   33.333333333333336
-50.0   0.0   50.0
0.0   0.0   33.333333333333336
0.0   30.0   33.333333333333336
-50.0   30.0   33.333333333333336
0.0   30.0   50.0
-50.0   0.0   50.0
-50.0   30.0   50.0
0.0   30.0   50.0
-50.0   30.0   33.333333333333336
-50.0   0.0   50.0
0.0   30.0   50.0
0.0   0.0   50.0
0.0   0.0   33.333333333333336
-50.0   0.0   50.0
0.0   30.0   50.0
0.0   0.0   33.333333333333336
-50.0   30.0   33.333333333333336
-50.0   30.0   0.0
0.0   30.0   0.0
-50.0   60.0   0.0
-50.0   30.0   16.666666666666668
0.0   30.0   0.0
0.0   60.0   0.0
-50.0   60.0   0.0
0.0   60.0   16.666666666666668
-50.0   30.0   16.666666666666668
-50.0   60.0   16.666666666666668
0.0   60.0   16.666666666666668
-50.0   60.0   0.0
-50.0   30.0   16.666666666666668
0.0   60.0   16.666666666666668
0.0   30.0   16.666666666666668
0.0   30.0   0.0
-50.0   30.0   16.666666666666668
0.0   60.0   16.666666666666668
0.0   30.0   0.0
-50.0   60.0   0.0
-50.0   30.0   16.666666666666668
0.0   30.0   16.666666666666668
-50.0   60.0   16.666666666666668
-50.0   30.0   33.333333333333336
0.0   30.0   16.666666666666668
0.0   60.0   16.666666666666668
-50.0   60.0   16.666666666666668
0.0   60.0   33.333333333333336
-50.0   30.0   33.333333333333336
-50.0   60.0   33.333333333333336
0.0   60.0   33.333333333333336
-50.0   60.0   16.666666666666668
-50.0   30.0   33.333333333333336
0.0   60.0   33.333333333333336
0.0   30.0   33.333333333333336
0.0   30.0   16.666666666666668
-50.0   30.0   33.333333333333336
0.0   60.0   33.333333333333336
0.0   30.0   16.666666666666668
-50.0   60.0   16.666666666666668
-50.0   30.0   33.333333333333336
0.0   30.0   33.333333333333336
-50.0   60.0   33.333333333333336
-50.0   30.0   50.0
0.0   30.0   33.333333333333336
0.0   60.0   33.333333333333336
-50.0   60.0   33.333333333333336
0.0   60.0   50.0
-50.0   30.0   50.0
-50.0   60.0   50.0
0.0   60.0   50.0
-50.0   60.0   33.333333333333336
-50.0   30.0   50.0
0.0   60.0   50.0
0.0   30.0   50.0
0.0   30.0   33.333333333333336
-50.0   30.0   50.0
0.0   60.0   50.0
0.0   30.0   33.333333333333336
-50.0   60.0   33.333333333333336
-50.0   60.0   0.0
0.0   60.0   0.0
-50.0   90.0   0.0
-50.0   60.0   16.666666666666668
0.0   60.0   0.0
0.0   90.0   0.0
-50.0   90.0   0.0
0.0   90.0   16.666666666666668
-50.0   60.0   16.666666666666668
-50.0   90.0   16.666666666666668
0.0   90.0   16.666666666666668
-50.0   90.0   0.0
-50.0   60.0   16.666666666666668
0.0   90.0   16.666666666666668
0.0   60.0   16.666666666666668
0.0   60.0   0.0
-50.0   60.0   16.666666666666668
0.0   90.0   16.666666666666668
0.0   60.0   0.0
-50.0   90.0   0.0
-50.0   60.0   16.666666666666668
0.0   60.0   16.666666666666668
-50.0   90.0   16.666666666666668
-50.0   60.0   33.333333333333336
0.0   60.0   16.666666666666668
0.0   90.0   16.666666666666668
-50.0   90.0   16.666666666666668
0.0   90.0   33.333333333333336
-50.0   60.0   33.333333333333336
-50.0   90.0   33.333333333333336
0.0   90.0   33.333333333333336
-50.0   90.0   16.666666666666668
-50.0   60.0   33.333333333333336
0.0   90.0   33.333333333333336
0.0   60.0   33.333333333333336
0.0   60.0   16.666666666666668
-50.0   60.0   33.333333333333336
0.0   90.0   33.333333333333336
0.0   60.0   16.666666666666668
-50.0   90.0   16.666666666666668
-50.0   60.0   33.333333333333336
0.0   60.0   33.333333333333336
-50.0   90.0   33.333333333333336
-50.0   60.0   50.0
0.0   60.0   33.333333333333336
0.0   90.0   33.333333333333336
-50.0   90.0   33.333333333333336
0.0   90.0   50.0
-50.0   60.0   50.0
-50.0   90.0   50.0
0.0   90.0   50.0
-50.0   90.0   33.333333333333336
-50.0   60.0   50.0
0.0   90.0   50.0
0.0   60.0   50.0
0.0   60.0   33.333333333333336
-50.0   60.0   50.0
0.0   90.0   50.0
0.0   60.0   33.333333333333336
-50.0   90.0   33.333333333333336
-50.0   90.0   0.0
0.0   90.0   0.0
-50.0   120.0   0.0
-50.0   90.0   16.666666666666668
0.0   90.0   0.0
0.0   120.0   0.0
-50.0   120.0   0.0
0.0   120.0   16.666666666666668
-50.0   90.0   16.666666666666668
-50.0   120.0   16.666666666666668
0.0   120.0   16.666666666666668
-50.0   120.0   0.0
-50.0   90.0   16.666666666666668
0.0   120.0   16.666666666666668
0.0   90.0   16.666666666666668
0.0   90.0   0.0
-50.0   90.0   16.666666666666668
0.0   120.0   16.666666666666668
0.0   90.0   0.0
-50.0   120.0   0.0
-50.0   90.0   16.666666666666668
0.0   90.0   16.666666666666668
-50.0   120.0   16.666666666666668
-50.0   90.0   33.333333333333336
0.0   90.0   16.666666666666668
0.0   120.0   16.666666666666668
-50.0   120.0   16.666666666666668
0.0   120.0   33.333333333333336
-50.0   90.0   33.333333333333336
-50.0   120.0   33.333333333333336
0.0   120.0   33.333333333333336
-50.0   120.0   16.666666666666668
-50.0   90.0   33.333333333333336
0.0   120.0   33.333333333333336
0.0   90.0   33.333333333333336
0.0   90.0   16.666666666666668
-50.0   90.0   33.333333333333336
0.0   120.0   33.333333333333336
0.0   90.0   16.666666666666668
-50.0   120.0   16.666666666666668
-50.0   90.0   33.333333333333336
0.0   90.0   33.333333333333336
-50.0   120.0   33.333333333333336
-50.0   90.0   50.0
0.0   90.0   33.333333333333336
0.0   120.0   33.333333333333336
-50.0   120.0   33.333333333333336
0.0   120.0   50.0
-50.0   90.0   50.0
-50.0   120.0   50.0
0.0   120.0   50.0
-50.0   120.0   33.333333333333336
-50.0   90.0   50.0
0.0   120.0   50.0
0.0   90.0   50.0
0.0   90.0   33.333333333333336
-50.0   90.0   50.0
0.0   120.0   50.0
0.0   90.0   33.333333333333336
-50.0   120.0   33.333333333333336
-50.0   120.0   0.0
0.0   120.0   0.0
-50.0   150.0   0.0
-50.0   120.0   16.666666666666668
0.0   120.0   0.0
0.0   150.0   0.0
-50.0   150.0   0.0
0.0   150.0   16.666666666666668
-50.0   120.0   16.666666666666668
-50.0   150.0   16.666666666666668
0.0   150.0   16.666666666666668
-50.0   150.0   0.0
-50.0   120.0   16.666666666666668
0.0   150.0   16.666666666666668
0.0   120.0   16.666666666666668
0.0   120.0   0.0
-50.0   120.0   16.666666666666668
0.0   150.0   16.666666666666668
0.0   120.0   0.0
-50.0   150.0   0.0
-50.0   120.0   16.666666666666668
0.0   120.0   16.666666666666668
-50.0   150.0   16.666666666666668
-50.0   120.0   33.333333333333336
0.0   120.0   16.666666666666668
0.0   150.0   16.666666666666668
-50.0   150.0   16.666666666666668
0.0   150.0   33.333333333333336
-50.0   120.0   33.333333333333336
-50.0   150.0   33.333333333333336
0.0   150.0   33.333333333333336
-50.0   150.0   16.666666666666668
-50.0   120.0   33.333333333333336
0.0   150.0   33.333333333333336
0.0   120.0   33.333333333333336
0.0   120.0   16.666666666666668
-50.0   120.0   33.333333333333336
0.0   150.0   33.333333333333336
0.0   120.0   16.666666666666668
-50.0   150.0   16.666666666666668
-50.0   120.0   33.333333333333336
0.0   120.0   33.333333333333336
-50.0   150.0   33.333333333333336
-50.0   120.0   50.0
0.0   120.0   33.333333333333336
0.0   150.0   33.333333333333336
-50.0   150.0   33.333333333333336
0.0   150.0   50.0
-50.0   120.0   50.0
-50.0   150.0   50.0
0.0   150.0   50.0
-50.0   150.0   33.333333333333336
-50.0   120.0   50.0
0.0   150.0   50.0
0.0   120.0   50.0
0.0   120.0   33.333333333333336
-50.0   120.0   50.0
0.0   150.0   50.0
0.0   120.0   33.333333333333336
-50.0   150.0   33.333333333333336
0.0   0.0   0.0
50.0   0.0   0.0
0.0   30.0   0.0
0.0   0.0   16.666666666666668
50.0   0.0   0.0
50.0   30.0   0.0
0.0   30.0   0.0
50.0   30.0   16.666666666666668
0.0   0.0   16.666666666666668
0.0   30.0   16.666666666666668
50.0   30.0   16.666666666666668
0.0   30.0   0.0
0.0   0.0   16.666666666666668
50.0   30.0   16.666666666666668
50.0   0.0   16.666666666666668
50.0   0.0   0.0
0.0   0.0   16.666666666666668
50.0   30.0   16.666666666666668
50.0   0.0   0.0
0.0   30.0   0.0
0.0   0.0   16.666666666666668
50.0   0.0   16.666666666666668
0.0   30.0   16.666666666666668
0.0   0.0   33.333333333333336
50.0   0.0   16.666666666666668
50.0   30.0   16.666666666666668
0.0   30.0   16.666666666666668
50.0   30.0   33.333333333333336
0.0   0.0   33.333333333333336
0.0   30.0   33.333333333333336
50.0   30.0   33.333333333333336
0.0   30.0   16.666666666666668
0.0   0.0   33.333333333333336
50.0   30.0   33.333333333333336
50.0   0.0   33.333333333333336
50.0   0.0   16.666666666666668
0.0   0.0   33.333333333333336
50.0   30.0   33.333333333333336
50.0   0.0   16.666666666666668
0.0   30.0   16.666666666666668
0.0   0.0   33.333333333333336
50.0   0.0   33.333333333333336
0.0   30.0   33.333333333333336
0.0   0.0   50.0
50.0   0.0   33.333333333333336
50.0   30.0   33.333333333333336
0.0   30.0   33.333333333333336
50.0   30.0   50.0
0.0   0.0   50.0
0.0   30.0   50.0
50.0   30.0   50.0
0.0   30.0   33.333333333333336
0.0   0.0   50.0
50.0   30.0   50.0
50.0   0.0   50.0
50.0   0.0   33.333333333333336
0.0   0.0   50.0
50.0   30.0   50.0
50.0   0.0   33.333333333333336
0.0   30.0   33.333333333333336
0.0   30.0   0.0
50.0   30.0   0.0
0.0   60.0   0.0
0.0   30.0   16.666666666666668
50.0   30.0   0.0
50.0   60.0   0.0
0.0   60.0   0.0
50.0   60.0   16.666666666666668
0.0   30.0   16.666666666666668
0.0   60.0   16.666666666666668
50.0   60.0   16.666666666666668
0.0   60.0   0.0
0.0   30.0   16.666666666666668
50.0   60.0   16.666666666666668
50.0   30.0   16.666666666666668
50.0   30.0   0.0
0.0   30.0   16.666666666666668
50.0   60.0   16.666666666666668
50.0   30.0   0.0
0.0   60.0   0.0
0.0   30.0   16.666666666666668
50.0   30.0   16.666666666666668
0.0   60.0   16.666666666666668
0.0   30.0   33.333333333333336
50.0   30.0   16.666666666666668
50.0   60.0   16.666666666666668
0.0   60.0   16.666666666666668
50.0   60.0   33.333333333333336
0.0   30.0   33.333333333333336
0.0   60.0   33.333333333333336
50.0   60.0   33.333333333333336
0.0   60.0   16.666666666666668
0.0   30.0   33.333333333333336
50.0   60.0   33.333333333333336
50.0   30.0   33.333333333333336
50.0   30.0   16.666666666666668
0.0   30.0   33.333333333333336
50.0   60.0   33.333333333333336
50.0   30.0   16.666666666666668
0.0   60.0   16.666666666666668
0.0   30.0   33.333333333333336
50.0   30.0   33.333333333333336
0.0   60.0   33.333333333333336
0.0   30.0   50.0
50.0   30.0   33.333333333333336
50.0   60.0   33.333333333333336
0.0   60.0   33.333333333333336
50.0   60.0   50.0
0.0   30.0   50.0
0.0   60.0   50.0
50.0   60.0   50.0
0.0   60.0   33.333333333333336
0.0   30.0   50.0
50.0   60.0   50.0
50.0   30.0   50.0
50.0   30.0   33.333333333333336
0.0   30.0   50.0
50.0   60.0   50.0
50.0   30.0   33.333333333333336
0.0   60.0   33.333333333333336
0.0   60.0   0.0
50.0   60.0   0.0
0.0   90.0   0.0
0.0   60.0   16.666666666666668
50.0   60.0   0.0
50.0   90.0   0.0
0.0   90.0   0.0
50.0   90.0   16.666666666666668
0.0   60.0   16.666666666666668
0.0   90.0   16.666666666666668
50.0   90.0   16.666666666666668
0.0   90.0   0.0
0.0   60.0   16.666666666666668
50.0   90.0   16.666666666666668
50.0   60.0   16.666666666666668
50.0   60.0   0.0
0.0   60.0   16.666666666666668
50.0   90.0   16.666666666666668
50.0   60.0   0.0
0.0   90.0   0.0
0.0   60.0   16.666666666666668
50.0   60.0   16.666666666666668
0.0   90.0   16.666666666666668
0.0   60.0   33.333333333333336
50.0   60.0   16.666666666666668
50.0   90.0   16.666666666666668
0.0   90.0   16.666666666666668
50.0   90.0   33.333333333333336
0.0   60.0   33.333333333333336
0.0   90.0   33.333333333333336
50.0   90.0   33.333333333333336
0.0   90.0   16.666666666666668
0.0   60.0   33.333333333333336
50.0   90.0   33.333333333333336
50.0   60.0   33.333333333333336
50.0   60.0   16.666666666666668
0.0   60.0   33.333333333333336
50.0   90.0   33.333333333333336
50.0   60.0   16.666666666666668
0.0   90.0   16.666666666666668
0.0   60.0   33.333333333333336
50.0   60.0   33.333333333333336
0.0   90.0   33.333333333333336
0.0   60.0   50.0
50.0   60.0   33.333333333333336
50.0   90.0   33.333333333333336
0.0   90.0   33.333333333333336
50.0   90.0   50.0
0.0   60.0   50.0
0.0   90.0   50.0
50.0   90.0   50.0
0.0   90.0   33.333333333333336
0.0   60.0   50.0
50.0   90.0   50.0
50.0   60.0   50.0
50.0   60.0   33.333333333333336
0.0   60.0   50.0
50.0   90.0   50.0
50.0   60.0   33.333333333333336
0.0   90.0   33.333333333333336
0.0   90.0   0.0
50.0   90.0   0.0
0.0   120.0   0.0
0.0   90.0   16.666666666666668
50.0   90.0   0.0
50.0   120.0   0.0
0.0   120.0   0.0
50.0   120.0   16.666666666666668
0.0   90.0   16.666666666666668
0.0   120.0   16.666666666666668
50.0   120.0   16.666666666666668
0.0   120.0   0.0
0.0   90.0   16.666666666666668
50.0   120.0   16.666666666666668
50.0   90.0   16.666666666666668
50.0   90.0   0.0
0.0   90.0   16.666666666666668
50.0   120.0   16.666666666666668
50.0   90.0   0.0
0.0   120.0   0.0
0.0   90.0   16.666666666666668
50.0   90.0   16.666666666666668
0.0   120.0   16.666666666666668
0.0   90.0   33.333333333333336
50.0   90.0   16.666666666666668
50.0   120.0   16.666666666666668
0.0   120.0   16.666666666666668
50.0   120.0   33.333333333333336
0.0   90.0   33.333333333333336
0.0   120.0   33.333333333333336
50.0   120.0   33.333333333333336
0.0   120.0   16.666666666666668
0.0   90.0   33.333333333333336
50.0   120.0   33.333333333333336
50.0   90.0   33.333333333333336
50.0   90.0   16.666666666666668
0.0   90.0   33.333333333333336
50.0   120.0   33.333333333333336
50.0   90.0   16.666666666666668
0.0   120.0   16.666666666666668
0.0   90.0   33.333333333333336
50.0   90.0   33.333333333333336
0.0   120.0   33.333333333333336
0.0   90.0   50.0
50.0   90.0   33.333333333333336
50.0   120.0   33.333333333333336
0.0   120.0   33.333333333333336
50.0   120.0   50.0
0.0   90.0   50.0
0.0   120.0   50.0
50.0   120.0   50.0
0.0   120.0   33.333333333333336
0.0   90.0   50.0
50.0   120.0   50.0
50.0   90.0   50.0
50.0   90.0   33.333333333333336
0.0   90.0   50.0
50.0   120.0   50.0
50.0   90.0   33.333333333333336
0.0   120.0   33.333333333333336
0.0   120.0   0.0
50.0   120.0   0.0
0.0   150.0   0.0
0.0   120.0   16.666666666666668
50.0   120.0   0.0
50.0   150.0   0.0
0.0   150.0   0.0
50.0   150.0   16.666666666666668
0.0   120.0   16.666666666666668
0.0   150.0   16.666666666666668
50.0   150.0   16.666666666666668
0.0   150.0   0.0
0.0   120.0   16.666666666666668
50.0   150.0   16.666666666666668
50.0   120.0   16.666666666666668
50.0   120.0   0.0
0.0   120.0   16.666666666666668
50.0   150.0   16.666666666666668
50.0   120.0   0.0
0.0   150.0   0.0
0.0   120.0   16.666666666666668
50.0   120.0   16.666666666666668
0.0   150.0   16.666666666666668
0.0   120.0   33.333333333333336
50.0   120.0   16.666666666666668
50.0   150.0   16.666666666666668
0.0   150.0   16.666666666666668
50.0   150.0   33.333333333333336
0.0   120.0   33.333333333333336
0.0   150.0   33.333333333333336
50.0   150.0   33.333333333333336
0.0   150.0   16.666666666666668
0.0   120.0   33.333333333333336
50.0   150.0   33.333333333333336
50.0   120.0   33.333333333333336
50.0   120.0   16.666666666666668
0.0   120.0   33.333333333333336
50.0   150.0   33.333333333333336
50.0   120.0   16.666666666666668
0.0   150.0   16.666666666666668
0.0   120.0   33.333333333333336
50.0   120.0   33.333333333333336
0.0   150.0   33.333333333333336
0.0   120.0   50.0
50.0   120.0   33.333333333333336
50.0   150.0   33.333333333333336
0.0   150.0   33.333333333333336
50.0   150.0   50.0
0.0   120.0   50.0
0.0   150.0   50.0
50.0   150.0   50.0
0.0   150.0   33.333333333333336
0.0   120.0   50.0
50.0   150.0   50.0
50.0   120.0   50.0
50.0   120.0   33.333333333333336
0.0   120.0   50.0
50.0   150.0   50.0
50.0   120.0   33.333333333333336
0.0   150.0   33.333333333333336
50.0   0.0   0.0
100.0   0.0   0.0
50.0   30.0   0.0
50.0   0.0   16.666666666666668
100.0   0.0   0.0
100.0   30.0   0.0
50.0   30.0   0.0
100.0   30.0   16.666666666666668
50.0   0.0   16.666666666666668
50.0   30.0   16.666666666666668
100.0   30.0   16.666666666666668
50.0   30.0   0.0
50.0   0.0   16.666666666666668
100.0   30.0   16.666666666666668
100.0   0.0   16.666666666666668
100.0   0.0   0.0
50.0   0.0   16.666666666666668
100.0   30.0   16.666666666666668
100.0   0.0   0.0
50.0   30.0   0.0
50.0   0.0   16.666666666666668
100.0   0.0   16.666666666666668
50.0   30.0   16.666666666666668
50.0   0.0   33.333333333333336
100.0   0.0   16.666666666666668
100.0   30.0   16.666666666666668
50.0   30.0   16.666666666666668
100.0   30.0   33.333333333333336
50.0   0.0   33.333333333333336
50.0   30.0   33.333333333333336
100.0   30.0   33.333333333333336
50.0   30.0   16.666666666666668
50.0   0.0   33.333333333333336
100.0   30.0   33.333333333333336
100.0   0.0   33.333333333333336
100.0   0.0   16.666666666666668
50.0   0.0   33.333333333333336
100.0   30.0   33.333333333333336
100.0   0.0   16.666666666666668
50.0   30.0   16.666666666666668
50.0   0.0   33.333333333333336
100.0   0.0   33.333333333333336
50.0   30.0   33.333333333333336
50.0   0.0   50.0
100.0   0.0   33.333333333333336
100.0   30.0   33.333333333333336
50.0   30.0   33.333333333333336
100.0   30.0   50.0
50.0   0.0   50.0
50.0   30.0   50.0
100.0   30.0   50.0
50.0   30.0   33.333333333333336
50.0   0.0   50.0
100.0   30.0   50.0
100.0   0.0   50.0
100.0   0.0   33.333333333333336
50.0   0.0   50.0
100.0   30.0   50.0
100.0   0.0   33.333333333333336
50.0   30.0   33.333333333333336
50.0   30.0   0.0
100.0   30.0   0.0
50.0   60.0   0.0
50.0   30.0   16.666666666666668
100.0   30.0   0.0
100.0   60.0   0.0
50.0   60.0   0.0
100.0   60.0   16.666666666666668
50.0   30.0   16.666666666666668
50.0   60.0   16.666666666666668
100.0   60.0   16.666666666666668
50.0   60.0   0.0
50.0   30.0   16.666666666666668
100.0   60.0   16.666666666666668
100.0   30.0   16.666666666666668
100.0   30.0   0.0
50.0   30.0   16.666666666666668
100.0   60.0   16.666666666666668
100.0   30.0   0.0
50.0   60.0   0.0
50.0   30.0   16.666666666666668
100.0   30.0   16.666666666666668
50.0   60.0   16.666666666666668
50.0   30.0   33.333333333333336
100.0   30.0   16.666666666666668
100.0   60.0   16.666666666666668
50.0   60.0   16.666666666666668
100.0   60.0   33.333333333333336
50.0   30.0   33.333333333333336
50.0   60.0   33.333333333333336
100.0   60.0   33.333333333333336
50.0   60.0   16.666666666666668
50.0   30.0   33.333333333333336
100.0   60.0   33.333333333333336
100.0   30.0   33.333333333333336
100.0   30.0   16.666666666666668
50.0   30.0   33.333333333333336
100.0   60.0   33.333333333333336
100.0   30.0   16.666666666666668
50.0   60.0   16.666666666666668
50.0   30.0   33.333333333333336
100.0   30.0   33.333333333333336
50.0   60.0   33.333333333333336
50.0   30.0   50.0
100.0   30.0   33.333333333333336
100.0   60.0   33.333333333333336
50.0   60.0   33.333333333333336
100.0   60.0   50.0
50.0   30.0   50.0
50.0   60.0   50.0
100.0   60.0   50.0
50.0   60.0   33.333333333333336
50.0   30.0   50.0
100.0   60.0   50.0
100.0   30.0   50.0
100.0   30.0   33.333333333333336
50.0   30.0   50.0
100.0   60.0   50.0
100.0   30.0   33.333333333333336
50.0   60.0   33.333333333333336
50.0   60.0   0.0
100.0   60.0   0.0
50.0   90.0   0.0
50.0   60.0   16.666666666666668
100.0   60.0   0.0
100.0   90.0   0.0
50.0   90.0   0.0
100.0   90.0   16.666666666666668
50.0   60.0   16.666666666666668
50.0   90.0   16.666666666666668
100.0   90.0   16.666666666666668
50.0   90.0   0.0
50.0   60.0   16.666666666666668
100.0   90.0   16.666666666666668
100.0   60.0   16.666666666666668
100.0   60.0   0.0
50.0   60.0   16.666666666666668
100.0   90.0   16.666666666666668
100.0   60.0   0.0
50.0   90.0   0.0
50.0   60.0   16.666666666666668
100.0   60.0   16.666666666666668
50.0   90.0   16.666666666666668
50.0   60.0   33.333333333333336
100.0   60.0   16.666666666666668
100.0   90.0   16.666666666666668
50.0   90.0   16.666666666666668
100.0   90.0   33.333333333333336
50.0   60.0   33.333333333333336
50.0   90.0   33.333333333333336
100.0   90.0   33.333333333333336
50.0   90.0   16.666666666666668
50.0   60.0   33.333333333333336
100.0   90.0   33.333333333333336
100.0   60.0   33.333333333333336
100.0   60.0   16.666666666666668
50.0   60.0   33.333333333333336
100.0   90.0   33.333333333333336
100.0   60.0   16.666666666666668
50.0   90.0   16.666666666666668
50.0   60.0   33.333333333333336
100.0   60.0   33.333333333333336
50.0   90.0   33.333333333333336
50.0   60.0   50.0
100.0   60.0   33.333333333333336
100.0   90.0   33.333333333333336
50.0   90.0   33.333333333333336
100.0   90.0   50.0
50.0   60.0   50.0
50.0   90.0   50.0
100.0   90.0   50.0
50.0   90.0   33.333333333333336
50.0   60.0   50.0
100.0   90.0   50.0
100.0   60.0   50.0
100.0   60.0   33.333333333333336
50.0   60.0   50.0
100.0   90.0   50.0
100.0   60.0   33.333333333333336
50.0   90.0   33.333333333333336
50.0   90.0   0.0
100.0   90.0   0.0
50.0   120.0   0.0
50.0   90.0   16.666666666666668
100.0   90.0   0.0
100.0   120.0   0.0
50.0   120.0   0.0
100.0   120.0   16.666666666666668
50.0   90.0   16.666666666666668
50.0   120.0   16.666666666666668
100.0   120.0   16.666666666666668
50.0   120.0   0.0
50.0   90.0   16.666666666666668
100.0   120.0   16.666666666666668
100.0   90.0   16.666666666666668
100.0   90.0   0.0
50.0   90.0   16.666666666666668
100.0   120.0   16.666666666666668
100.0   90.0   0.0
50.0   120.0   0.0
50.0   90.0   16.666666666666668
100.0   90.0   16.666666666666668
50.0   120.0   16.666666666666668
50.0   90.0   33.333333333333336
100.0   90.0   16.666666666666668
100.0   120.0   16.666666666666668
50.0   120.0   16.666666666666668
100.0   120.0   33.333333333333336
50.0   90.0   33.333333333333336
50.0   120.0   33.333333333333336
100.0   120.0   33.333333333333336
50.0   120.0   16.666666666666668
50.0   90.0   33.333333333333336
100.0   120.0   33.333333333333336
100.0   90.0   33.333333333333336
100.0   90.0   16.666666666666668
50.0   90.0   33.333333333333336
100.0   120.0   33.333333333333336
100.0   90.0   16.666666666666668
50.0   120.0   16.666666666666668
50.0   90.0   33.333333333333336
100.0   90.0   33.333333333333336
50.0   120.0   33.333333333333336
50.0   90.0   50.0
100.0   90.0   33.333333333333336
100.0   120.0   33.333333333333336
50.0   120.0   33.333333333333336
100.0   120.0   50.0
50.0   90.0   50.0
50.0   120.0   50.0
100.0   120.0   50.0
50.0   120.0   33.333333333333336
50.0   90.0   50.0
100.0   120.0   50.0
100.0   90.0   50.0
100.0   90.0   33.333333333333336
50.0   90.0   50.0
100.0   120.0   50.0
100.0   90.0   33.333333333333336
50.0   120.0   33.333333333333336
50.0   120.0   0.0
100.0   120.0   0.0
50.0   150.0   0.0
50.0   120.0   16.666666666666668
100.0   120.0   0.0
100.0   150.0   0.0
50.0   150.0   0.0
100.0   150.0   16.666666666666668
50.0   120.0   16.666666666666668
50.0   150.0   16.666666666666668
100.0   150.0   16.666666666666668
50.0   150.0   0.0
50.0   120.0   16.666666666666668
100.0   150.0   16.666666666666668
100.0   120.0   16.666666666666668
100.0   120.0   0.0
50.0   120.0   16.666666666666668
100.0   150.0   16.666666666666668
100.0   120.0   0.0
50.0   150.0   0.0
50.0   120.0   16.666666666666668
100.0   120.0   16.666666666666668
50.0   150.0   16.666666666666668
50.0   120.0   33.333333333333336
100.0   120.0   16.666666666666668
100.0   150.0   16.666666666666668
50.0   150.0   16.666666666666668
100.0   150.0   33.333333333333336
50.0   120.0   33.333333333333336
50.0   150.0   33.333333333333336
100.0   150.0   33.333333333333336
50.0   150.0   16.666666666666668
50.0   120.0   33.333333333333336
100.0   150.0   33.333333333333336
100.0   120.0   33.333333333333336
100.0   120.0   16.666666666666668
50.0   120.0   33.333333333333336
100.0   150.0   33.333333333333336
100.0   120.0   16.666666666666668
50.0   150.0   16.666666666666668
50.0   120.0   33.333333333333336
100.0   120.0   33.333333333333336
50.0   150.0   33.333333333333336
50.0   120.0   50.0
100.0   120.0   33.333333333333336
100.0   150.0   33.333333333333336
50.0   150.0   33.333333333333336
100.0   150.0   50.0
50.0   120.0   50.0
50.0   150.0   50.0
100.0   150.0   50.0
50.0   150.0   33.333333333333336
50.0   120.0   50.0
100.0   150.0   50.0
100.0   120.0   50.0
100.0   120.0   33.333333333333336
50.0   120.0   50.0
100.0   150.0   50.0
100.0   120.0   33.333333333333336
50.0   150.0   33.333333333333336
100.0   0.0   0.0
150.0   0.0   0.0
100.0   30.0   0.0
100.0   0.0   16.666666666666668
150.0   0.0   0.0
150.0   30.0   0.0
100.0   30.0   0.0
150.0   30.0   16.666666666666668
100.0   0.0   16.666666666666668
100.0   30.0   16.666666666666668
150.0   30.0   16.666666666666668
100.0   30.0   0.0
100.0   0.0   16.666666666666668
150.0   30.0   16.666666666666668
150.0   0.0   16.666666666666668
150.0   0.0   0.0
100.0   0.0   16.666666666666668
150.0   30.0   16.666666666666668
150.0   0.0   0.0
100.0   30.0   0.0
100.0   0.0   16.666666666666668
150.0   0.0   16.666666666666668
100.0   30.0   16.666666666666668
100.0   0.0   33.333333333333336
150.0   0.0   16.666666666666668
150.0   30.0   16.666666666666668
100.0   30.0   16.666666666666668
150.0   30.0   33.333333333333336
100.0   0.0   33.333333333333336
100.0   30.0   33.333333333333336
150.0   30.0   33.333333333333336
100.0   30.0   16.666666666666668
100.0   0.0   33.333333333333336
150.0   30.0   33.333333333333336
150.0   0.0   33.333333333333336
150.0   0.0   16.666666666666668
100.0   0.0   33.333333333333336
150.0   30.0   33.333333333333336
150.0   0.0   16.666666666666668
100.0   30.0   16.666666666666668
100.0   0.0   33.333333333333336
150.0   0.0   33.333333333333336
100.0   30.0   33.333333333333336
100.0   0.0   50.0
150.0   0.0   33.333333333333336
150.0   30.0   33.333333333333336
100.0   30.0   33.333333333333336
150.0   30.0   50.0
100.0   0.0   50.0
100.0   30.0   50.0
150.0   30.0   50.0
100.0   30.0   33.333333333333336
100.0   0.0   50.0
150.0   30.0   50.0
150.0   0.0   50.0
150.0   0.0   33.333333333333336
100.0   0.0   50.0
150.0   30.0   50.0
150.0   0.0   33.333333333333336
100.0   30.0   33.333333333333336
100.0   30.0   0.0
150.0   30.0   0.0
100.0   60.0   0.0
100.0   30.0   16.666666666666668
150.0   30.0   0.0
150.0   60.0   0.0
100.0   60.0   0.0
150.0   60.0   16.666666666666668
100.0   30.0   16.666666666666668
100.0   60.0   16.666666666666668
150.0   60.0   16.666666666666668
100.0   60.0   0.0
100.0   30.0   16.666666666666668
150.0   60.0   16.666666666666668
150.0   30.0   16.666666666666668
150.0   30.0   0.0
100.0   30.0   16.666666666666668
150.0   60.0   16.666666666666668
150.0   30.0   0.0
100.0   60.0   0.0
100.0   30.0   16.666666666666668
150.0   30.0   16.666666666666668
100.0   60.0   16.666666666666668
100.0   30.0   33.333333333333336
150.0   30.0   16.666666666666668
150.0   60.0   16.666666666666668
100.0   60.0   16.666666666666668
150.0   60.0   33.333333333333336
100.0   30.0   33.333333333333336
100.0   60.0   33.333333333333336
150.0   60.0   33.333333333333336
100.0   60.0   16.666666666666668
100.0   30.0   33.333333333333336
150.0   60.0   33.333333333333336
150.0   30.0   33.333333333333336
150.0   30.0   16.666666666666668
100.0   30.0   33.333333333333336
150.0   60.0   33.333333333333336
150.0   30.0   16.666666666666668
100.0   60.0   16.666666666666668
100.0   30.0   33.333333333333336
150.0   30.0   33.333333333333336
100.0   60.0   33.333333333333336
100.0   30.0   50.0
150.0   30.0   33.333333333333336
150.0   60.0   33.333333333333336
100.0   60.0   33.333333333333336
150.0   60.0   50.0
100.0   30.0   50.0
100.0   60.0   50.0
150.0   60.0   50.0
100.0   60.0   33.333333333333336
100.0   30.0   50.0
150.0   60.0   50.0
150.0   30.0   50.0
150.0   30.0   33.333333333333336
100.0   30.0   50.0
150.0   60.0   50.0
150.0   30.0   33.333333333333336
100.0   60.0   33.333333333333336
100.0   60.0   0.0
150.0   60.0   0.0
100.0   90.0   0.0
100.0   60.0   16.666666666666668
150.0   60.0   0.0
150.0   90.0   0.0
100.0   90.0   0.0
150.0   90.0   16.666666666666668
100.0   60.0   16.666666666666668
100.0   90.0   16.666666666666668
150.0   90.0   16.666666666666668
100.0   90.0   0.0
100.0   60.0   16.666666666666668
150.0   90.0   16.666666666666668
150.0   60.0   16.666666666666668
150.0   60.0   0.0
100.0   60.0   16.666666666666668
150.0   90.0   16.666666666666668
150.0   60.0   0.0
100.0   90.0   0.0
100.0   60.0   16.666666666666668
150.0   60.0   16.666666666666668
100.0   90.0   16.666666666666668
100.0   60.0   33.333333333333336
150.0   60.0   16.666666666666668
150.0   90.0   16.666666666666668
100.0   90.0   16.666666666666668
150.0   90.0   33.333333333333336
100.0   60.0   33.333333333333336
100.0   90.0   33.333333333333336
150.0   90.0   33.333333333333336
100.0   90.0   16.666666666666668
100.0   60.0   33.333333333333336
150.0   90.0   33.333333333333336
150.0   60.0   33.333333333333336
150.0   60.0   16.666666666666668
100.0   60.0   33.333333333333336
150.0   90.0   33.333333333333336
150.0   60.0   16.666666666666668
100.0   90.0   16.666666666666668
100.0   60.0   33.333333333333336
150.0   60.0   33.333333333333336
100.0   90.0   33.333333333333336
100.0   60.0   50.0
150.0   60.0   33.333333333333336
150.0   90.0   33.333333333333336
100.0   90.0   33.333333333333336
150.0   90.0   50.0
100.0   60.0   50.0
100.0   90.0   50.0
150.0   90.0   50.0
100.0   90.0   33.333333333333336
100.0   60.0   50.0
150.0   90.0   50.0
150.0   60.0   50.0
150.0   60.0   33.333333333333336
100.0   60.0   50.0
150.0   90.0   50.0
150.0   60.0   33.333333333333336
100.0   90.0   33.333333333333336
100.0   90.0   0.0
150.0   90.0   0.0
100.0   120.0   0.0
100.0   90.0   16.666666666666668
150.0   90.0   0.0
150.0   120.0   0.0
100.0   120.0   0.0
150.0   120.0   16.666666666666668
100.0   90.0   16.666666666666668
100.0   120.0   16.666666666666668
150.0   120.0   16.666666666666668
100.0   120.0   0.0
100.0   90.0   16.666666666666668
150.0   120.0   16.666666666666668
150.0   90.0   16.666666666666668
150.0   90.0   0.0
100.0   90.0   16.666666666666668
150.0   120.0   16.666666666666668
150.0   90.0   0.0
100.0   120.0   0.0
100.0   90.0   16.666666666666668
150.0   90.0   16.666666666666668
100.0   120.0   16.666666666666668
100.0   90.0   33.333333333333336
150.0   90.0   16.666666666666668
150.0   120.0   16.666666666666668
100.0   120.0   16.666666666666668
150.0   120.0   33.333333333333336
100.0   90.0   33.333333333333336
100.0   120.0   33.333333333333336
150.0   120.0   33.333333333333336
100.0   120.0   16.666666666666668
100.0   90.0   33.333333333333336
150.0   120.0   33.333333333333336
150.0   90.0   33.333333333333336
150.0   90.0   16.666666666666668
100.0   90.0   33.333333333333336
150.0   120.0   33.333333333333336
150.0   90.0   16.666666666666668
100.0   120.0   16.666666666666668
100.0   90.0   33.333333333333336
150.0   90.0   33.333333333333336
100.0   120.0   33.333333333333336
100.0   90.0   50.0
150.0   90.0   33.333333333333336
150.0   120.0   33.333333333333336
100.0   120.0   33.333333333333336
150.0   120.0   50.0
100.0   90.0   50.0
100.0   120.0   50.0
150.0   120.0   50.0
100.0   120.0   33.333333333333336
100.0   90.0   50.0
150.0   120.0   50.0
150.0   90.0   50.0
150.0   90.0   33.333333333333336
100.0   90.0   50.0
150.0   120.0   50.0
150.0   90.0   33.333333333333336
100.0   120.0   33.333333333333336
100.0   120.0   0.0
150.0   120.0   0.0
100.0   150.0   0.0
100.0   120.0   16.666666666666668
150.0   120.0   0.0
150.0   150.0   0.0
100.0   150.0   0.0
150.0   150.0   16.666666666666668
100.0   120.0   16.666666666666668
100.0   150.0   16.666666666666668
150.0   150.0   16.666666666666668
100.0   150.0   0.0
100.0   120.0   16.666666666666668
150.0   150.0   16.666666666666668
150.0   120.0   16.666666666666668
150.0   120.0   0.0
100.0   120.0   16.666666666666668
150.0   150.0   16.666666666666668
150.0   120.0   0.0
100.0   150.0   0.0
100.0   120.0   16.666666666666668
150.0   120.0   16.666666666666668
100.0   150.0   16.666666666666668
100.0   120.0   33.333333333333336
150.0   120.0   16.666666666666668
150.0   150.0   16.666666666666668
100.0   150.0   16.666666666666668
150.0   150.0   33.333333333333336
100.0   120.0   33.333333333333336
100.0   150.0   33.333333333333336
150.0   150.0   33.333333333333336
100.0   150.0   16.666666666666668
100.0   120.0   33.333333333333336
150.0   150.0   33.333333333333336
150.0   120.0   33.333333333333336
150.0   120.0   16.666666666666668
100.0   120.0   33.333333333333336
150.0   150.0   33.333333333333336
150.0   120.0   16.666666666666668
100.0   150.0   16.666666666666668
100.0   120.0   33.333333333333336
150.0   120.0   33.333333333333336
100.0   150.0   33.333333333333336
100.0   120.0   50.0
150.0   120.0   33.333333333333336
150.0   150.0   33.333333333333336
100.0   150.0   33.333333333333336
150.0   150.0   50.0
100.0   120.0   50.0
100.0   150.0   50.0
150.0   150.0   50.0
100.0   150.0   33.333333333333336
100.0   120.0   50.0
150.0   150.0   50.0
150.0   120.0   50.0
150.0   120.0   33.333333333333336
100.0   120.0   50.0
150.0   150.0   50.0
150.0   120.0   33.333333333333336
100.0   150.0   33.333333333333336
150.0   0.0   0.0
200.0   0.0   0.0
150.0   30.0   0.0
150.0   0.0   16.666666666666668
200.0   0.0   0.0
200.0   30.0   0.0
150.0   30.0   0.0
200.0   30.0   16.666666666666668
150.0   0.0   16.666666666666668
150.0   30.0   16.666666666666668
200.0   30.0   16.666666666666668
150.0   30.0   0.0
150.0   0.0   16.666666666666668
200.0   30.0   16.666666666666668
200.0   0.0   16.666666666666668
200.0   0.0   0.0
150.0   0.0   16.666666666666668
200.0   30.0   16.666666666666668
200.0   0.0   0.0
150.0   30.0   0.0
150.0   0.0   16.666666666666668
200.0   0.0   16.666666666666668
150.0   30.0   16.666666666666668
150.0   0.0   33.333333333333336
200.0   0.0   16.666666666666668
200.0   30.0   16.666666666666668
150.0   30.0   16.666666666666668
200.0   30.0   33.333333333333336
150.0   0.0   33.333333333333336
150.0   30.0   33.333333333333336
200.0   30.0   33.333333333333336
150.0   30.0   16.666666666666668
150.0   0.0   33.333333333333336
200.0   30.0   33.333333333333336
200.0   0.0   33.333333333333336
200.0   0.0   16.666666666666668
150.0   0.0   33.333333333333336
200.0   30.0   33.333333333333336
200.0   0.0   16.666666666666668
150.0   30.0   16.666666666666668
150.0   0.0   33.333333333333336
200.0   0.0   33.333333333333336
150.0   30.0   33.333333333333336
150.0   0.0   50.0
200.0   0.0   33.333333333333336
200.0   30.0   33.333333333333336
150.0   30.0   33.333333333333336
200.0   30.0   50.0
150.0   0.0   50.0
150.0   30.0   50.0
200.0   30.0   50.0
150.0   30.0   33.333333333333336
150.0   0.0   50.0
200.0   30.0   50.0
200.0   0.0   50.0
200.0   0.0   33.333333333333336
150.0   0.0   50.0
200.0   30.0   50.0
200.0   0.0   33.333333333333336
150.0   30.0   33.333333333333336
150.0   30.0   0.0
200.0   30.0   0.0
150.0   60.0   0.0
150.0   30.0   16.666666666666668
200.0   30.0   0.0
200.0   60.0   0.0
150.0   60.0   0.0
200.0   60.0   16.666666666666668
150.0   30.0   16.666666666666668
150.0   60.0   16.666666666666668
200.0   60.0   16.666666666666668
150.0   60.0   0.0
150.0   30.0   16.666666666666668
200.0   60.0   16.666666666666668
200.0   30.0   16.666666666666668
200.0   30.0   0.0
150.0   30.0   16.666666666666668
200.0   60.0   16.666666666666668
200.0   30.0   0.0
150.0   60.0   0.0
150.0   30.0   16.666666666666668
200.0   30.0   16.666666666666668
150.0   60.0   16.666666666666668
150.0   30.0   33.333333333333336
200.0   30.0   16.666666666666668
200.0   60.0   16.666666666666668
150.0   60.0   16.666666666666668
200.0   60.0   33.333333333333336
150.0   30.0   33.333333333333336
150.0   60.0   33.333333333333336
200.0   60.0   33.333333333333336
150.0   60.0   16.666666666666668
150.0   30.0   33.333333333333336
200.0   60.0   33.333333333333336
200.0   30.0   33.333333333333336
200.0   30.0   16.666666666666668
150.0   30.0   33.333333333333336
200.0   60.0   33.333333333333336
200.0   30.0   16.666666666666668
150.0   60.0   16.666666666666668
150.0   30.0   33.333333333333336
200.0   30.0   33.333333333333336
150.0   60.0   33.333333333333336
150.0   30.0   50.0
200.0   30.0   33.333333333333336
200.0   60.0   33.333333333333336
150.0   60.0   33.333333333333336
200.0   60.0   50.0
150.0   30.0   50.0
150.0   60.0   50.0
200.0   60.0   50.0
150.0   60.0   33.333333333333336
150.0   30.0   50.0
200.0   60.0   50.0
200.0   30.0   50.0
200.0   30.0   33.333333333333336
150.0   30.0   50.0
200.0   60.0   50.0
200.0   30.0   33.333333333333336
150.0   60.0   33.333333333333336
150.0   60.0   0.0
200.0   60.0   0.0
150.0   90.0   0.0
150.0   60.0   16.666666666666668
200.0   60.0   0.0
200.0   90.0   0.0
150.0   90.0   0.0
200.0   90.0   16.666666666666668
150.0   60.0   16.666666666666668
150.0   90.0   16.666666666666668
200.0   90.0   16.666666666666668
150.0   90.0   0.0
150.0   60.0   16.666666666666668
200.0   90.0   16.666666666666668
200.0   60.0   16.666666666666668
200.0   60.0   0.0
150.0   60.0   16.666666666666668
200.0   90.0   16.666666666666668
200.0   60.0   0.0
150.0   90.0   0.0
150.0   60.0   16.666666666666668
200.0   60.0   16.666666666666668
150.0   90.0   16.666666666666668
150.0   60.0   33.333333333333336
200.0   60.0   16.666666666666668
200.0   90.0   16.666666666666668
150.0   90.0   16.666666666666668
200.0   90.0   33.333333333333336
150.0   60.0   33.333333333333336
150.0   90.0   33.333333333333336
200.0   90.0   33.333333333333336
150.0   90.0   16.666666666666668
150.0   60.0   33.333333333333336
200.0   90.0   33.333333333333336
200.0   60.0   33.333333333333336
200.0   60.0   16.666666666666668
150.0   60.0   33.333333333333336
200.0   90.0   33.333333333333336
200.0   60.0   16.666666666666668
150.0   90.0   16.666666666666668
150.0   60.0   33.333333333333336
200.0   60.0   33.333333333333336
150.0   90.0   33.333333333333336
150.0   60.0   50.0
200.0   60.0   33.333333333333336
200.0   90.0   33.333333333333336
150.0   90.0   33.333333333333336
200.0   90.0   50.0
150.0   60.0   50.0
150.0   90.0   50.0
200.0   90.0   50.0
150.0   90.0   33.333333333333336
150.0   60.0   50.0
200.0   90.0   50.0
200.0   60.0   50.0
200.0   60.0   33.333333333333336
150.0   60.0   50.0
200.0   90.0   50.0
200.0   60.0   33.333333333333336
150.0   90.0   33.333333333333336
150.0   90.0   0.0
200.0   90.0   0.0
150.0   120.0   0.0
150.0   90.0   16.666666666666668
200.0   90.0   0.0
200.0   120.0   0.0
150.0   120.0   0.0
200.0   120.0   16.666666666666668
150.0   90.0   16.666666666666668
150.0   120.0   16.666666666666668
200.0   120.0   16.666666666666668
150.0   120.0   0.0
150.0   90.0   16.666666666666668
200.0   120.0   16.666666666666668
200.0   90.0   16.666666666666668
200.0   90.0   0.0
150.0   90.0   16.666666666666668
200.0   120.0   16.666666666666668
200.0   90.0   0.0
150.0   120.0   0.0
150.0   90.0   16.666666666666668
200.0   90.0   16.666666666666668
150.0   120.0   16.666666666666668
150.0   90.0   33.333333333333336
200.0   90.0   16.666666666666668
200.0   120.0   16.666666666666668
150.0   120.0   16.666666666666668
200.0   120.0   33.333333333333336
150.0   90.0   33.333333333333336
150.0   120.0   33.333333333333336
200.0   120.0   33.333333333333336
150.0   120.0   16.666666666666668
150.0   90.0   33.333333333333336
200.0   120.0   33.333333333333336
200.0   90.0   33.333333333333336
200.0   90.0   16.666666666666668
150.0   90.0   33.333333333333336
200.0   120.0   33.333333333333336
200.0   90.0   16.666666666666668
150.0   120.0   16.666666666666668
150.0   90.0   33.333333333333336
200.0   90.0   33.333333333333336
150.0   120.0   33.333333333333336
150.0   90.0   50.0
200.0   90.0   33.333333333333336
200.0   120.0   33.333333333333336
150.0   120.0   33.333333333333336
200.0   120.0   50.0
150.0   90.0   50.0
150.0   120.0   50.0
200.0   120.0   50.0
150.0   120.0   33.333333333333336
150.0   90.0   50.0
200.0   120.0   50.0
200.0   90.0   50.0
200.0   90.0   33.333333333333336
150.0   90.0   50.0
200.0   120.0   50.0
200.0   90.0   33.333333333333336
150.0   120.0   33.333333333333336
150.0   120.0   0.0
200.0   120.0   0.0
150.0   150.0   0.0
150.0   120.0   16.666666666666668
200.0   120.0   0.0
200.0   150.0   0.0
150.0   150.0   0.0
200.0   150.0   16.666666666666668
150.0   120.0   16.666666666666668
150.0   150.0   16.666666666666668
200.0   150.0   16.666666666666668
150.0   150.0   0.0
150.0   120.0   16.666666666666668
200.0   150.0   16.666666666666668
200.0   120.0   16.666666666666668
200.0   120.0   0.0
150.0   120.0   16.666666666666668
200.0   150.0   16.666666666666668
200.0   120.0   0.0
150.0   150.0   0.0
150.0   120.0   16.666666666666668
200.0   120.0   16.666666666666668
150.0   150.0   16.666666666666668
150.0   120.0   33.333333333333336
200.0   120.0   16.666666666666668
200.0   150.0   16.666666666666668
150.0   150.0   16.666666666666668
200.0   150.0   33.333333333333336
150.0   120.0   33.333333333333336
150.0   150.0   33.333333333333336
200.0   150.0   33.333333333333336
150.0   150.0   16.666666666666668
150.0   120.0   33.333333333333336
200.0   150.0   33.333333333333336
200.0   120.0   33.333333333333336
200.0   120.0   16.666666666666668
150.0   120.0   33.333333333333336
200.0   150.0   33.333333333333336
200.0   120.0   16.666666666666668
150.0   150.0   16.666666666666668
150.0   120.0   33.333333333333336
200.0   120.0   33.333333333333336
150.0   150.0   33.333333333333336
150.0   120.0   50.0
200.0   120.0   33.333333333333336
200.0   150.0   33.333333333333336
150.0   150.0   33.333333333333336
200.0   150.0   50.0
150.0   120.0   50.0
150.0   150.0   50.0
200.0   150.0   50.0
150.0   150.0   33.333333333333336
150.0   120.0   50.0
200.0   150.0   50.0
200.0   120.0   50.0
200.0   120.0   33.333333333333336
150.0   120.0   50.0
200.0   150.0   50.0
200.0   120.0   33.333333333333336
150.0   150.0   33.333333333333336
200.0   0.0   0.0
250.0   0.0   0.0
200.0   30.0   0.0
200.0   0.0   16.666666666666668
250.0   0.0   0.0
250.0   30.0   0.0
200.0   30.0   0.0
250.0   30.0   16.666666666666668
200.0   0.0   16.666666666666668
200.0   30.0   16.666666666666668
250.0   30.0   16.666666666666668
200.0   30.0   0.0
200.0   0.0   16.666666666666668
250.0   30.0   16.666666666666668
250.0   0.0   16.666666666666668
250.0   0.0   0.0
200.0   0.0   16.666666666666668
250.0   30.0   16.666666666666668
250.0   0.0   0.0
200.0   30.0   0.0
200.0   0.0   16.666666666666668
250.0   0.0   16.666666666666668
200.0   30.0   16.666666666666668
200.0   0.0   33.333333333333336
250.0   0.0   16.666666666666668
250.0   30.0   16.666666666666668
200.0   30.0   16.666666666666668
250.0   30.0   33.333333333333336
200.0   0.0   33.333333333333336
200.0   30.0   33.333333333333336
250.0   30.0   33.333333333333336
200.0   30.0   16.666666666666668
200.0   0.0   33.333333333333336
250.0   30.0   33.333333333333336
250.0   0.0   33.333333333333336
250.0   0.0   16.666666666666668
200.0   0.0   33.333333333333336
250.0   30.0   33.333333333333336
250.0   0.0   16.666666666666668
200.0   30.0   16.666666666666668
200.0   0.0   33.333333333333336
250.0   0.0   33.333333333333336
200.0   30.0   33.333333333333336
200.0   0.0   50.0
250.0   0.0   33.333333333333336
250.0   30.0   33.333333333333336
200.0   30.0   33.333333333333336
250.0   30.0   50.0
200.0   0.0   50.0
200.0   30.0   50.0
250.0   30.0   50.0
200.0   30.0   33.333333333333336
200.0   0.0   50.0
250.0   30.0   50.0
250.0   0.0   50.0
250.0   0.0   33.333333333333336
200.0   0.0   50.0
250.0   30.0   50.0
250.0   0.0   33.333333333333336
200.0   30.0   33.333333333333336
200.0   30.0   0.0
250.0   30.0   0.0
200.0   60.0   0.0
200.0   30.0   16.666666666666668
250.0   30.0   0.0
250.0   60.0   0.0
200.0   60.0   0.0
250.0   60.0   16.666666666666668
200.0   30.0   16.666666666666668
200.0   60.0   16.666666666666668
250.0   60.0   16.666666666666668
200.0   60.0   0.0
200.0   30.0   16.666666666666668
250.0   60.0   16.666666666666668
250.0   30.0   16.666666666666668
250.0   30.0   0.0
200.0   30.0   16.666666666666668
250.0   60.0   16.666666666666668
250.0   30.0   0.0
200.0   60.0   0.0
200.0   30.0   16.666666666666668
250.0   30.0   16.666666666666668
200.0   60.0   16.666666666666668
200.0   30.0   33.333333333333336
250.0   30.0   16.666666666666668
250.0   60.0   16.666666666666668
200.0   60.0   16.666666666666668
250.0   60.0   33.333333333333336
200.0   30.0   33.333333333333336
200.0   60.0   33.333333333333336
250.0   60.0   33.333333333333336
200.0   60.0   16.666666666666668
200.0   30.0   33.333333333333336
250.0   60.0   33.333333333333336
250.0   30.0   33.333333333333336
250.0   30.0   16.666666666666668
200.0   30.0   33.333333333333336
250.0   60.0   33.333333333333336
250.0   30.0   16.666666666666668
200.0   60.0   16.666666666666668
200.0   30.0   33.333333333333336
250.0   30.0   33.333333333333336
200.0   60.0   33.333333333333336
200.0   30.0   50.0
250.0   30.0   33.333333333333336
250.0   60.0   33.333333333333336
200.0   60.0   33.333333333333336
250.0   60.0   50.0
200.0   30.0   50.0
200.0   60.0   50.0
250.0   60.0   50.0
200.0   60.0   33.333333333333336
200.0   30.0   50.0
250.0   60.0   50.0
250.0   30.0   50.0
250.0   30.0   33.333333333333336
200.0   30.0   50.0
250.0   60.0   50.0
250.0   30.0   33.333333333333336
200.0   60.0   33.333333333333336
200.0   60.0   0.0
250.0   60.0   0.0
200.0   90.0   0.0
200.0   60.0   16.666666666666668
250.0   60.0   0.0
250.0   90.0   0.0
200.0   90.0   0.0
250.0   90.0   16.666666666666668
200.0   60.0   16.666666666666668
200.0   90.0   16.666666666666668
250.0   90.0   16.666666666666668
200.0   90.0   0.0
200.0   60.0   16.666666666666668
250.0   90.0   16.666666666666668
250.0   60.0   16.666666666666668
250.0   60.0   0.0
200.0   60.0   16.666666666666668
250.0   90.0   16.666666666666668
250.0   60.0   0.0
200.0   90.0   0.0
200.0   60.0   16.666666666666668
250.0   60.0   16.666666666666668
200.0   90.0   16.666666666666668
200.0   60.0   33.333333333333336
250.0   60.0   16.666666666666668
250.0   90.0   16.666666666666668
200.0   90.0   16.666666666666668
250.0   90.0   33.333333333333336
200.0   60.0   33.333333333333336
200.0   90.0   33.333333333333336
250.0   90.0   33.333333333333336
200.0   90.0   16.666666666666668
200.0   60.0   33.333333333333336
250.0   90.0   33.333333333333336
250.0   60.0   33.333333333333336
250.0   60.0   16.666666666666668
200.0   60.0   33.333333333333336
250.0   90.0   33.333333333333336
250.0   60.0   16.666666666666668
200.0   90.0   16.666666666666668
200.0   60.0   33.333333333333336
250.0   60.0   33.333333333333336
200.0   90.0   33.333333333333336
200.0   60.0   50.0
250.0   60.0   33.333333333333336
250.0   90.0   33.333333333333336
200.0   90.0   33.333333333333336
250.0   90.0   50.0
200.0   60.0   50.0
200.0   90.0   50.0
250.0   90.0   50.0
200.0   90.0   33.333333333333336
200.0   60.0   50.0
250.0   90.0   50.0
250.0   60.0   50.0
250.0   60.0   33.333333333333336
200.0   60.0   50.0
250.0   90.0   50.0
250.0   60.0   33.333333333333336
200.0   90.0   33.333333333333336
200.0   90.0   0.0
250.0   90.0   0.0
200.0   120.0   0.0
200.0   90.0   16.666666666666668
250.0   90.0   0.0
250.0   120.0   0.0
200.0   120.0   0.0
250.0   120.0   16.666666666666668
200.0   90.0   16.666666666666668
200.0   120.0   16.666666666666668
250.0   120.0   16.666666666666668
200.0   120.0   0.0
200.0   90.0   16.666666666666668
250.0   120.0   16.666666666666668
250.0   90.0   16.666666666666668
250.0   90.0   0.0
200.0   90.0   16.666666666666668
250.0   120.0   16.666666666666668
250.0   90.0   0.0
200.0   120.0   0.0
200.0   90.0   16.666666666666668
250.0   90.0   16.666666666666668
200.0   120.0   16.666666666666668
200.0   90.0   33.333333333333336
250.0   90.0   16.666666666666668
250.0   120.0   16.666666666666668
200.0   120.0   16.666666666666668
250.0   120.0   33.333333333333336
200.0   90.0   33.333333333333336
200.0   120.0   33.333333333333336
250.0   120.0   33.333333333333336
200.0   120.0   16.666666666666668
200.0   90.0   33.333333333333336
250.0   120.0   33.333333333333336
250.0   90.0   33.333333333333336
250.0   90.0   16.666666666666668
200.0   90.0   33.333333333333336
250.0   120.0   33.333333333333336
250.0   90.0   16.666666666666668
200.0   120.0   16.666666666666668
200.0   90.0   33.333333333333336
250.0   90.0   33.333333333333336
200.0   120.0   33.333333333333336
200.0   90.0   50.0
250.0   90.0   33.333333333333336
250.0   120.0   33.333333333333336
200.0   120.0   33.333333333333336
250.0   120.0   50.0
200.0   90.0   50.0
200.0   120.0   50.0
250.0   120.0   50.0
200.0   120.0   33.333333333333336
200.0   90.0   50.0
250.0   120.0   50.0
250.0   90.0   50.0
250.0   90.0   33.333333333333336
200.0   90.0   50.0
250.0   120.0   50.0
250.0   90.0   33.333333333333336
200.0   120.0   33.333333333333336
200.0   120.0   0.0
250.0   120.0   0.0
200.0   150.0   0.0
200.0   120.0   16.666666666666668
250.0   120.0   0.0
250.0   150.0   0.0
200.0   150.0   0.0
250.0   150.0   16.666666666666668
200.0   120.0   16.666666666666668
200.0   150.0   16.666666666666668
250.0   150.0   16.666666666666668
200.0   150.0   0.0
200.0   120.0   16.666666666666668
250.0   150.0   16.666666666666668
250.0   120.0   16.666666666666668
250.0   120.0   0.0
200.0   120.0   16.666666666666668
250.0   150.0   16.666666666666668
250.0   120.0   0.0
200.0   150.0   0.0
200.0   120.0   16.666666666666668
250.0   120.0   16.666666666666668
200.0   150.0   16.666666666666668
200.0   120.0   33.333333333333336
250.0   120.0   16.666666666666668
250.0   150.0   16.666666666666668
200.0   150.0   16.666666666666668
250.0   150.0   33.333333333333336
200.0   120.0   33.333333333333336
200.0   150.0   33.333333333333336
250.0   150.0   33.333333333333336
200.0   150.0   16.666666666666668
200.0   120.0   33.333333333333336
250.0   150.0   33.333333333333336
250.0   120.0   33.333333333333336
250.0   120.0   16.666666666666668
200.0   120.0   33.333333333333336
250.0   150.0   33.333333333333336
250.0   120.0   16.666666666666668
200.0   150.0   16.666666666666668
200.0   120.0   33.333333333333336
250.0   120.0   33.333333333333336
200.0   150.0   33.333333333333336
200.0   120.0   50.0
250.0   120.0   33.333333333333336
250.0   150.0   33.333333333333336
200.0   150.0   33.333333333333336
250.0   150.0   50.0
200.0   120.0   50.0
200.0   150.0   50.0
250.0   150.0   50.0
200.0   150.0   33.333333333333336
200.0   120.0   50.0
250.0   150.0   50.0
250.0   120.0   50.0
250.0   120.0   33.333333333333336
200.0   120.0   50.0
250.0   150.0   50.0
250.0   120.0   33.333333333333336
200.0   150.0   33.333333333333336
250.0   0.0   0.0
300.0   0.0   0.0
250.0   30.0   0.0
250.0   0.0   16.666666666666668
300.0   0.0   0.0
300.0   30.0   0.0
250.0   30.0   0.0
300.0   30.0   16.666666666666668
250.0   0.0   16.666666666666668
250.0   30.0   16.666666666666668
300.0   30.0   16.666666666666668
250.0   30.0   0.0
250.0   0.0   16.666666666666668
300.0   30.0   16.666666666666668
300.0   0.0   16.666666666666668
300.0   0.0   0.0
250.0   0.0   16.666666666666668
300.0   30.0   16.666666666666668
300.0   0.0   0.0
250.0   30.0   0.0
250.0   0.0   16.666666666666668
300.0   0.0   16.666666666666668
250.0   30.0   16.666666666666668
250.0   0.0   33.333333333333336
300.0   0.0   16.666666666666668
300.0   30.0   16.666666666666668
250.0   30.0   16.666666666666668
300.0   30.0   33.333333333333336
250.0   0.0   33.333333333333336
250.0   30.0   33.333333333333336
300.0   30.0   33.333333333333336
250.0   30.0   16.666666666666668
250.0   0.0   33.333333333333336
300.0   30.0   33.333333333333336
300.0   0.0   33.333333333333336
300.0   0.0   16.666666666666668
250.0   0.0   33.333333333333336
300.0   30.0   33.333333333333336
300.0   0.0   16.666666666666668
250.0   30.0   16.666666666666668
250.0   0.0   33.333333333333336
300.0   0.0   33.333333333333336
250.0   30.0   33.333333333333336
250.0   0.0   50.0
300.0   0.0   33.333333333333336
300.0   30.0   33.333333333333336
250.0   30.0   33.333333333333336
300.0   30.0   50.0
250.0   0.0   50.0
250.0   30.0   50.0
300.0   30.0   50.0
250.0   30.0   33.333333333333336
250.0   0.0   50.0
300.0   30.0   50.0
300.0   0.0   50.0
300.0   0.0   33.333333333333336
250.0   0.0   50.0
300.0   30.0   50.0
300.0   0.0   33.333333333333336
250.0   30.0   33.333333333333336
250.0   30.0   0.0
300.0   30.0   0.0
250.0   60.0   0.0
250.0   30.0   16.666666666666668
300.0   30.0   0.0
300.0   60.0   0.0
250.0   60.0   0.0
300.0   60.0   16.666666666666668
250.0   30.0   16.666666666666668
250.0   60.0   16.666666666666668
300.0   60.0   16.666666666666668
250.0   60.0   0.0
250.0   30.0   16.666666666666668
300.0   60.0   16.666666666666668
300.0   30.0   16.666666666666668
300.0   30.0   0.0
250.0   30.0   16.666666666666668
300.0   60.0   16.666666666666668
300.0   30.0   0.0
250.0   60.0   0.0
250.0   30.0   16.666666666666668
300.0   30.0   16.666666666666668
250.0   60.0   16.666666666666668
250.0   30.0   33.333333333333336
300.0   30.0   16.666666666666668
300.0   60.0   16.666666666666668
250.0   60.0   16.666666666666668
300.0   60.0   33.333333333333336
250.0   30.0   33.333333333333336
250.0   60.0   33.333333333333336
300.0   60.0   33.333333333333336
250.0   60.0   16.666666666666668
250.0   30.0   33.333333333333336
300.0   60.0   33.333333333333336
300.0   30.0   33.333333333333336
300.0   30.0   16.666666666666668
250.0   30.0   33.333333333333336
300.0   60.0   33.333333333333336
300.0   30.0   16.666666666666668
250.0   60.0   16.666666666666668
250.0   30.0   33.333333333333336
300.0   30.0   33.333333333333336
250.0   60.0   33.333333333333336
250.0   30.0   50.0
300.0   30.0   33.333333333333336
300.0   60.0   33.333333333333336
250.0   60.0   33.333333333333336
300.0   60.0   50.0
250.0   30.0   50.0
250.0   60.0   50.0
300.0   60.0   50.0
250.0   60.0   33.333333333333336
250.0   30.0   50.0
300.0   60.0   50.0
300.0   30.0   50.0
300.0   30.0   33.333333333333336
250.0   30.0   50.0
300.0   60.0   50.0
300.0   30.0   33.333333333333336
250.0   60.0   33.333333333333336
250.0   60.0   0.0
300.0   60.0   0.0
250.0   90.0   0.0
250.0   60.0   16.666666666666668
300.0   60.0   0.0
300.0   90.0   0.0
250.0   90.0   0.0
300.0   90.0   16.666666666666668
250.0   60.0   16.666666666666668
250.0   90.0   16.666666666666668
300.0   90.0   16.666666666666668
250.0   90.0   0.0
250.0   60.0   16.666666666666668
300.0   90.0   16.666666666666668
300.0   60.0   16.666666666666668
300.0   60.0   0.0
250.0   60.0   16.666666666666668
300.0   90.0   16.666666666666668
300.0   60.0   0.0
250.0   90.0   0.0
250.0   60.0   16.666666666666668
300.0   60.0   16.666666666666668
250.0   90.0   16.666666666666668
250.0   60.0   33.333333333333336
300.0   60.0   16.666666666666668
300.0   90.0   16.666666666666668
250.0   90.0   16.666666666666668
300.0   90.0   33.333333333333336
250.0   60.0   33.333333333333336
250.0   90.0   33.333333333333336
300.0   90.0   33.333333333333336
250.0   90.0   16.666666666666668
250.0   60.0   33.333333333333336
300.0   90.0   33.333333333333336
300.0   60.0   33.333333333333336
300.0   60.0   16.666666666666668
250.0   60.0   33.333333333333336
300.0   90.0   33.333333333333336
300.0   60.0   16.666666666666668
250.0   90.0   16.666666666666668
250.0   60.0   33.333333333333336
300.0   60.0   33.333333333333336
250.0   90.0   33.333333333333336
250.0   60.0   50.0
300.0   60.0   33.333333333333336
300.0   90.0   33.333333333333336
250.0   90.0   33.333333333333336
300.0   90.0   50.0
250.0   60.0   50.0
250.0   90.0   50.0
300.0   90.0   50.0
250.0   90.0   33.333333333333336
250.0   60.0   50.0
300.0   90.0   50.0
300.0   60.0   50.0
300.0   60.0   33.333333333333336
250.0   60.0   50.0
300.0   90.0   50.0
300.0   60.0   33.333333333333336
250.0   90.0   33.333333333333336
250.0   90.0   0.0
300.0   90.0   0.0
250.0   120.0   0.0
250.0   90.0   16.666666666666668
300.0   90.0   0.0
300.0   120.0   0.0
250.0   120.0   0.0
300.0   120.0   16.666666666666668
250.0   90.0   16.666666666666668
250.0   120.0   16.666666666666668
300.0   120.0   16.666666666666668
250.0   120.0   0.0
250.0   90.0   16.666666666666668
300.0   120.0   16.666666666666668
300.0   90.0   16.666666666666668
300.0   90.0   0.0
250.0   90.0   16.666666666666668
300.0   120.0   16.666666666666668
300.0   90.0   0.0
250.0   120.0   0.0
250.0   90.0   16.666666666666668
300.0   90.0   16.666666666666668
250.0   120.0   16.666666666666668
250.0   90.0   33.333333333333336
300.0   90.0   16.666666666666668
300.0   120.0   16.666666666666668
250.0   120.0   16.666666666666668
300.0   120.0   33.333333333333336
250.0   90.0   33.333333333333336
250.0   120.0   33.333333333333336
300.0   120.0   33.333333333333336
250.0   120.0   16.666666666666668
250.0   90.0   33.333333333333336
300.0   120.0   33.333333333333336
300.0   90.0   33.333333333333336
300.0   90.0   16.666666666666668
250.0   90.0   33.333333333333336
300.0   120.0   33.333333333333336
300.0   90.0   16.666666666666668
250.0   120.0   16.666666666666668
250.0   90.0   33.333333333333336
300.0   90.0   33.333333333333336
250.0   120.0   33.333333333333336
250.0   90.0   50.0
300.0   90.0   33.333333333333336
300.0   120.0   33.333333333333336
250.0   120.0   33.333333333333336
300.0   120.0   50.0
250.0   90.0   50.0
250.0   120.0   50.0
300.0   120.0   50.0
250.0   120.0   33.333333333333336
250.0   90.0   50.0
300.0   120.0   50.0
300.0   90.0   50.0
300.0   90.0   33.333333333333336
250.0   90.0   50.0
300.0   120.0   50.0
300.0   90.0   33.333333333333336
250.0   120.0   33.333333333333336
250.0   120.0   0.0
300.0   120.0   0.0
250.0   150.0   0.0
250.0   120.0   16.666666666666668
300.0   120.0   0.0
300.0   150.0   0.0
250.0   150.0   0.0
300.0   150.0   16.666666666666668
250.0   120.0   16.666666666666668
250.0   150.0   16.666666666666668
300.0   150.0   16.666666666666668
250.0   150.0   0.0
250.0   120.0   16.666666666666668
300.0   150.0   16.666666666666668
300.0   120.0   16.666666666666668
300.0   120.0   0.0
250.0   120.0   16.666666666666668
300.0   150.0   16.666666666666668
300.0   120.0   0.0
250.0   150.0   0.0
250.0   120.0   16.666666666666668
300.0   120.0   16.666666666666668
250.0   150.0   16.666666666666668
250.0   120.0   33.333333333333336
300.0   120.0   16.666666666666668
300.0   150.0   16.666666666666668
250.0   150.0   16.666666666666668
300.0   150.0   33.333333333333336
250.0   120.0   33.333333333333336
250.0   150.0   33.333333333333336
300.0   150.0   33.333333333333336
250.0   150.0   16.666666666666668
250.0   120.0   33.333333333333336
300.0   150.0   33.333333333333336
300.0   120.0   33.333333333333336
300.0   120.0   16.666666666666668
250.0   120.0   33.333333333333336
300.0   150.0   33.333333333333336
300.0   120.0   16.666666666666668
250.0   150.0   16.666666666666668
250.0   120.0   33.333333333333336
300.0   120.0   33.333333333333336
250.0   150.0   33.333333333333336
250.0   120.0   50.0
300.0   120.0   33.333333333333336
300.0   150.0   33.333333333333336
250.0   150.0   33.333333333333336
300.0   150.0   50.0
250.0   120.0   50.0
250.0   150.0   50.0
300.0   150.0   50.0
250.0   150.0   33.333333333333336
250.0   120.0   50.0
300.0   150.0   50.0
300.0   120.0   50.0
300.0   120.0   33.333333333333336
250.0   120.0   50.0
300.0   150.0   50.0
300.0   120.0   33.333333333333336
250.0   150.0   33.333333333333336
300.0   0.0   0.0
350.0   0.0   0.0
300.0   30.0   0.0
300.0   0.0   16.666666666666668
350.0   0.0   0.0
350.0   30.0   0.0
300.0   30.0   0.0
350.0   30.0   16.666666666666668
300.0   0.0   16.666666666666668
300.0   30.0   16.666666666666668
350.0   30.0   16.666666666666668
300.0   30.0   0.0
300.0   0.0   16.666666666666668
350.0   30.0   16.666666666666668
350.0   0.0   16.666666666666668
350.0   0.0   0.0
300.0   0.0   16.666666666666668
350.0   30.0   16.666666666666668
350.0   0.0   0.0
300.0   30.0   0.0
300.0   0.0   16.666666666666668
350.0   0.0   16.666666666666668
300.0   30.0   16.666666666666668
300.0   0.0   33.333333333333336
350.0   0.0   16.666666666666668
350.0   30.0   16.666666666666668
300.0   30.0   16.666666666666668
350.0   30.0   33.333333333333336
300.0   0.0   33.333333333333336
300.0   30.0   33.333333333333336
350.0   30.0   33.333333333333336
300.0   30.0   16.666666666666668
300.0   0.0   33.333333333333336
350.0   30.0   33.333333333333336
350.0   0.0   33.333333333333336
350.0   0.0   16.666666666666668
300.0   0.0   33.333333333333336
350.0   30.0   33.333333333333336
350.0   0.0   16.666666666666668
300.0   30.0   16.666666666666668
300.0   0.0   33.333333333333336
350.0   0.0   33.333333333333336
300.0   30.0   33.333333333333336
300.0   0.0   50.0
350.0   0.0   33.333333333333336
350.0   30.0   33.333333333333336
300.0   30.0   33.333333333333336
350.0   30.0   50.0
300.0   0.0   50.0
300.0   30.0   50.0
350.0   30.0   50.0
300.0   30.0   33.333333333333336
300.0   0.0   50.0
350.0   30.0   50.0
350.0   0.0   50.0
350.0   0.0   33.333333333333336
300.0   0.0   50.0
350.0   30.0   50.0
350.0   0.0   33.333333333333336
300.0   30.0   33.333333333333336
300.0   30.0   0.0
350.0   30.0   0.0
300.0   60.0   0.0
300.0   30.0   16.666666666666668
350.0   30.0   0.0
350.0   60.0   0.0
300.0   60.0   0.0
350.0   60.0   16.666666666666668
300.0   30.0   16.666666666666668
300.0   60.0   16.666666666666668
350.0   60.0   16.666666666666668
300.0   60.0   0.0
300.0   30.0   16.666666666666668
350.0   60.0   16.666666666666668
350.0   30.0   16.666666666666668
350.0   30.0   0.0
300.0   30.0   16.666666666666668
350.0   60.0   16.666666666666668
350.0   30.0   0.0
300.0   60.0   0.0
300.0   30.0   16.666666666666668
350.0   30.0   16.666666666666668
300.0   60.0   16.666666666666668
300.0   30.0   33.333333333333336
350.0   30.0   16.666666666666668
350.0   60.0   16.666666666666668
300.0   60.0   16.666666666666668
350.0   60.0   33.333333333333336
300.0   30.0   33.333333333333336
300.0   60.0   33.333333333333336
350.0   60.0   33.333333333333336
300.0   60.0   16.666666666666668
300.0   30.0   33.333333333333336
350.0   60.0   33.333333333333336
350.0   30.0   33.333333333333336
350.0   30.0   16.666666666666668
300.0   30.0   33.333333333333336
350.0   60.0   33.333333333333336
350.0   30.0   16.666666666666668
300.0   60.0   16.666666666666668
300.0   30.0   33.333333333333336
350.0   30.0   33.333333333333336
300.0   60.0   33.333333333333336
300.0   30.0   50.0
350.0   30.0   33.333333333333336
350.0   60.0   33.333333333333336
300.0   60.0   33.333333333333336
350.0   60.0   50.0
300.0   30.0   50.0
300.0   60.0   50.0
350.0   60.0   50.0
300.0   60.0   33.333333333333336
300.0   30.0   50.0
350.0   60.0   50.0
350.0   30.0   50.0
350.0   30.0   33.333333333333336
300.0   30.0   50.0
350.0   60.0   50.0
350.0   30.0   33.333333333333336
300.0   60.0   33.333333333333336
300.0   60.0   0.0
350.0   60.0   0.0
300.0   90.0   0.0
300.0   60.0   16.666666666666668
350.0   60.0   0.0
350.0   90.0   0.0
300.0   90.0   0.0
350.0   90.0   16.666666666666668
300.0   60.0   16.666666666666668
300.0   90.0   16.666666666666668
350.0   90.0   16.666666666666668
300.0   90.0   0.0
300.0   60.0   16.666666666666668
350.0   90.0   16.666666666666668
350.0   60.0   16.666666666666668
350.0   60.0   0.0
300.0   60.0   16.666666666666668
350.0   90.0   16.666666666666668
350.0   60.0   0.0
300.0   90.0   0.0
300.0   60.0   16.666666666666668
350.0   60.0   16.666666666666668
300.0   90.0   16.666666666666668
300.0   60.0   33.333333333333336
350.0   60.0   16.666666666666668
350.0   90.0   16.666666666666668
300.0   90.0   16.666666666666668
350.0   90.0   33.333333333333336
300.0   60.0   33.333333333333336
300.0   90.0   33.333333333333336
350.0   90.0   33.333333333333336
300.0   90.0   16.666666666666668
300.0   60.0   33.333333333333336
350.0   90.0   33.333333333333336
350.0   60.0   33.333333333333336
350.0   60.0   16.666666666666668
300.0   60.0   33.333333333333336
350.0   90.0   33.333333333333336
350.0   60.0   16.666666666666668
300.0   90.0   16.666666666666668
300.0   60.0   33.333333333333336
350.0   60.0   33.333333333333336
300.0   90.0   33.333333333333336
300.0   60.0   50.0
350.0   60.0   33.333333333333336
350.0   90.0   33.333333333333336
300.0   90.0   33.333333333333336
350.0   90.0   50.0
300.0   60.0   50.0
300.0   90.0   50.0
350.0   90.0   50.0
300.0   90.0   33.333333333333336
300.0   60.0   50.0
350.0   90.0   50.0
350.0   60.0   50.0
350.0   60.0   33.333333333333336
300.0   60.0   50.0
350.0   90.0   50.0
350.0   60.0   33.333333333333336
300.0   90.0   33.333333333333336
300.0   90.0   0.0
350.0   90.0   0.0
300.0   120.0   0.0
300.0   90.0   16.666666666666668
350.0   90.0   0.0
350.0   120.0   0.0
300.0   120.0   0.0
350.0   120.0   16.666666666666668
300.0   90.0   16.666666666666668
300.0   120.0   16.666666666666668
350.0   120.0   16.666666666666668
300.0   120.0   0.0
300.0   90.0   16.666666666666668
350.0   120.0   16.666666666666668
350.0   90.0   16.666666666666668
350.0   90.0   0.0
300.0   90.0   16.666666666666668
350.0   120.0   16.666666666666668
350.0   90.0   0.0
300.0   120.0   0.0
300.0   90.0   16.666666666666668
350.0   90.0   16.666666666666668
300.0   120.0   16.666666666666668
300.0   90.0   33.333333333333336
350.0   90.0   16.666666666666668
350.0   120.0   16.666666666666668
300.0   120.0   16.666666666666668
350.0   120.0   33.333333333333336
300.0   90.0   33.333333333333336
300.0   120.0   33.333333333333336
350.0   120.0   33.333333333333336
300.0   120.0   16.666666666666668
300.0   90.0   33.333333333333336
350.0   120.0   33.333333333333336
350.0   90.0   33.333333333333336
350.0   90.0   16.666666666666668
300.0   90.0   33.333333333333336
350.0   120.0   33.333333333333336
350.0   90.0   16.666666666666668
300.0   120.0   16.666666666666668
300.0   90.0   33.333333333333336
350.0   90.0   33.333333333333336
300.0   120.0   33.333333333333336
300.0   90.0   50.0
350.0   90.0   33.333333333333336
350.0   120.0   33.333333333333336
300.0   120.0   33.333333333333336
350.0   120.0   50.0
300.0   90.0   50.0
300.0   120.0   50.0
350.0   120.0   50.0
300.0   120.0   33.333333333333336
300.0   90.0   50.0
350.0   120.0   50.0
350.0   90.0   50.0
350.0   90.0   33.333333333333336
300.0   90.0   50.0
350.0   120.0   50.0
350.0   90.0   33.333333333333336
300.0   120.0   33.333333333333336
300.0   120.0   0.0
350.0   120.0   0.0
300.0   150.0   0.0
300.0   120.0   16.666666666666668
350.0   120.0   0.0
350.0   150.0   0.0
300.0   150.0   0.0
350.0   150.0   16.666666666666668
300.0   120.0   16.666666666666668
300.0   150.0   16.666666666666668
350.0   150.0   16.666666666666668
300.0   150.0   0.0
300.0   120.0   16.666666666666668
350.0   150.0   16.666666666666668
350.0   120.0   16.666666666666668
350.0   120.0   0.0
300.0   120.0   16.666666666666668
350.0   150.0   16.666666666666668
350.0   120.0   0.0
300.0   150.0   0.0
300.0   120.0   16.666666666666668
350.0   120.0   16.666666666666668
300.0   150.0   16.666666666666668
300.0   120.0   33.333333333333336
350.0   120.0   16.666666666666668
350.0   150.0   16.666666666666668
300.0   150.0   16.666666666666668
350.0   150.0   33.333333333333336
300.0   120.0   33.333333333333336
300.0   150.0   33.333333333333336
350.0   150.0   33.333333333333336
300.0   150.0   16.666666666666668
300.0   120.0   33.333333333333336
350.0   150.0   33.333333333333336
350.0   120.0   33.333333333333336
350.0   120.0   16.666666666666668
300.0   120.0   33.333333333333336
350.0   150.0   33.333333333333336
350.0   120.0   16.666666666666668
300.0   150.0   16.666666666666668
300.0   120.0   33.333333333333336
350.0   120.0   33.333333333333336
300.0   150.0   33.333333333333336
300.0   120.0   50.0
350.0   120.0   33.333333333333336
350.0   150.0   33.333333333333336
300.0   150.0   33.333333333333336
350.0   150.0   50.0
300.0   120.0   50.0
300.0   150.0   50.0
350.0   150.0   50.0
300.0   150.0   33.333333333333336
300.0   120.0   50.0
350.0   150.0   50.0
350.0   120.0   50.0
350.0   120.0   33.333333333333336
300.0   120.0   50.0
350.0   150.0   50.0
350.0   120.0   33.333333333333336
300.0   150.0   33.333333333333336
350.0   0.0   0.0
400.0   0.0   0.0
350.0   30.0   0.0
350.0   0.0   16.666666666666668
400.0   0.0   0.0
400.0   30.0   0.0
350.0   30.0   0.0
400.0   30.0   16.666666666666668
350.0   0.0   16.666666666666668
350.0   30.0   16.666666666666668
400.0   30.0   16.666666666666668
350.0   30.0   0.0
350.0   0.0   16.666666666666668
400.0   30.0   16.666666666666668
400.0   0.0   16.666666666666668
400.0   0.0   0.0
350.0   0.0   16.666666666666668
400.0   30.0   16.666666666666668
400.0   0.0   0.0
350.0   30.0   0.0
350.0   0.0   16.666666666666668
400.0   0.0   16.666666666666668
350.0   30.0   16.666666666666668
350.0   0.0   33.333333333333336
400.0   0.0   16.666666666666668
400.0   30.0   16.666666666666668
350.0   30.0   16.666666666666668
400.0   30.0   33.333333333333336
350.0   0.0   33.333333333333336
350.0   30.0   33.333333333333336
400.0   30.0   33.333333333333336
350.0   30.0   16.666666666666668
350.0   0.0   33.333333333333336
400.0   30.0   33.333333333333336
400.0   0.0   33.333333333333336
400.0   0.0   16.666666666666668
350.0   0.0   33.333333333333336
400.0   30.0   33.333333333333336
400.0   0.0   16.666666666666668
350.0   30.0   16.666666666666668
350.0   0.0   33.333333333333336
400.0   0.0   33.333333333333336
350.0   30.0   33.333333333333336
350.0   0.0   50.0
400.0   0.0   33.333333333333336
400.0   30.0   33.333333333333336
350.0   30.0   33.333333333333336
400.0   30.0   50.0
350.0   0.0   50.0
350.0   30.0   50.0
400.0   30.0   50.0
350.0   30.0   33.333333333333336
350.0   0.0   50.0
400.0   30.0   50.0
400.0   0.0   50.0
400.0   0.0   33.333333333333336
350.0   0.0   50.0
400.0   30.0   50.0
400.0   0.0   33.333333333333336
350.0   30.0   33.333333333333336
350.0   30.0   0.0
400.0   30.0   0.0
350.0   60.0   0.0
350.0   30.0   16.666666666666668
400.0   30.0   0.0
400.0   60.0   0.0
350.0   60.0   0.0
400.0   60.0   16.666666666666668
350.0   30.0   16.666666666666668
350.0   60.0   16.666666666666668
400.0   60.0   16.666666666666668
350.0   60.0   0.0
350.0   30.0   16.666666666666668
400.0   60.0   16.666666666666668
400.0   30.0   16.666666666666668
400.0   30.0   0.0
350.0   30.0   16.666666666666668
400.0   60.0   16.666666666666668
400.0   30.0   0.0
350.0   60.0   0.0
350.0   30.0   16.666666666666668
400.0   30.0   16.666666666666668
350.0   60.0   16.666666666666668
350.0   30.0   33.333333333333336
400.0   30.0   16.666666666666668
400.0   60.0   16.666666666666668
350.0   60.0   16.666666666666668
400.0   60.0   33.333333333333336
350.0   30.0   33.333333333333336
350.0   60.0   33.333333333333336
400.0   60.0   33.333333333333336
350.0   60.0   16.666666666666668
350.0   30.0   33.333333333333336
400.0   60.0   33.333333333333336
400.0   30.0   33.333333333333336
400.0   30.0   16.666666666666668
350.0   30.0   33.333333333333336
400.0   60.0   33.333333333333336
400.0   30.0   16.666666666666668
350.0   60.0   16.666666666666668
350.0   30.0   33.333333333333336
400.0   30.0   33.333333333333336
350.0   60.0   33.333333333333336
350.0   30.0   50.0
400.0   30.0   33.333333333333336
400.0   60.0   33.333333333333336
350.0   60.0   33.333333333333336
400.0   60.0   50.0
350.0   30.0   50.0
350.0   60.0   50.0
400.0   60.0   50.0
350.0   60.0   33.333333333333336
350.0   30.0   50.0
400.0   60.0   50.0
400.0   30.0   50.0
400.0   30.0   33.333333333333336
350.0   30.0   50.0
400.0   60.0   50.0
400.0   30.0   33.333333333333336
350.0   60.0   33.333333333333336
350.0   60.0   0.0
400.0   60.0   0.0
350.0   90.0   0.0
350.0   60.0   16.666666666666668
400.0   60.0   0.0
400.0   90.0   0.0
350.0   90.0   0.0
400.0   90.0   16.666666666666668
350.0   60.0   16.666666666666668
350.0   90.0   16.666666666666668
400.0   90.0   16.666666666666668
350.0   90.0   0.0
350.0   60.0   16.666666666666668
400.0   90.0   16.666666666666668
400.0   60.0   16.666666666666668
400.0   60.0   0.0
350.0   60.0   16.666666666666668
400.0   90.0   16.666666666666668
400.0   60.0   0.0
350.0   90.0   0.0
350.0   60.0   16.666666666666668
400.0   60.0   16.666666666666668
350.0   90.0   16.666666666666668
350.0   60.0   33.333333333333336
400.0   60.0   16.666666666666668
400.0   90.0   16.666666666666668
350.0   90.0   16.666666666666668
400.0   90.0   33.333333333333336
350.0   60.0   33.333333333333336
350.0   90.0   33.333333333333336
400.0   90.0   33.333333333333336
350.0   90.0   16.666666666666668
350.0   60.0   33.333333333333336
400.0   90.0   33.333333333333336
400.0   60.0   33.333333333333336
400.0   60.0   16.666666666666668
350.0   60.0   33.333333333333336
400.0   90.0   33.333333333333336
400.0   60.0   16.666666666666668
350.0   90.0   16.666666666666668
350.0   60.0   33.333333333333336
400.0   60.0   33.333333333333336
350.0   90.0   33.333333333333336
350.0   60.0   50.0
400.0   60.0   33.333333333333336
400.0   90.0   33.333333333333336
350.0   90.0   33.333333333333336
400.0   90.0   50.0
350.0   60.0   50.0
350.0   90.0   50.0
400.0   90.0   50.0
350.0   90.0   33.333333333333336
350.0   60.0   50.0
400.0   90.0   50.0
400.0   60.0   50.0
400.0   60.0   33.333333333333336
350.0   60.0   50.0
400.0   90.0   50.0
400.0   60.0   33.333333333333336
350.0   90.0   33.333333333333336
350.0   90.0   0.0
400.0   90.0   0.0
350.0   120.0   0.0
350.0   90.0   16.666666666666668
400.0   90.0   0.0
400.0   120.0   0.0
350.0   120.0   0.0
400.0   120.0   16.666666666666668
350.0   90.0   16.666666666666668
350.0   120.0   16.666666666666668
400.0   120.0   16.666666666666668
350.0   120.0   0.0
350.0   90.0   16.666666666666668
400.0   120.0   16.666666666666668
400.0   90.0   16.666666666666668
400.0   90.0   0.0
350.0   90.0   16.666666666666668
400.0   120.0   16.666666666666668
400.0   90.0   0.0
350.0   120.0   0.0
350.0   90.0   16.666666666666668
400.0   90.0   16.666666666666668
350.0   120.0   16.666666666666668
350.0   90.0   33.333333333333336
400.0   90.0   16.666666666666668
400.0   120.0   16.666666666666668
350.0   120.0   16.666666666666668
400.0   120.0   33.333333333333336
350.0   90.0   33.333333333333336
350.0   120.0   33.333333333333336
400.0   120.0   33.333333333333336
350.0   120.0   16.666666666666668
350.0   90.0   33.333333333333336
400.0   120.0   33.333333333333336
400.0   90.0   33.333333333333336
400.0   90.0   16.666666666666668
350.0   90.0   33.333333333333336
400.0   120.0   33.333333333333336
400.0   90.0   16.666666666666668
350.0   120.0   16.666666666666668
350.0   90.0   33.333333333333336
400.0   90.0   33.333333333333336
350.0   120.0   33.333333333333336
350.0   90.0   50.0
400.0   90.0   33.333333333333336
400.0   120.0   33.333333333333336
350.0   120.0   33.333333333333336
400.0   120.0   50.0
350.0   90.0   50.0
350.0   120.0   50.0
400.0   120.0   50.0
350.0   120.0   33.333333333333336
350.0   90.0   50.0
400.0   120.0   50.0
400.0   90.0   50.0
400.0   90.0   33.333333333333336
350.0   90.0   50.0
400.0   120.0   50.0
400.0   90.0   33.333333333333336
350.0   120.0   33.333333333333336
350.0   120.0   0.0
400.0   120.0   0.0
350.0   150.0   0.0
350.0   120.0   16.666666666666668
400.0   120.0   0.0
400.0   150.0   0.0
350.0   150.0   0.0
400.0   150.0   16.666666666666668
350.0   120.0   16.666666666666668
350.0   150.0   16.666666666666668
400.0   150.0   16.666666666666668
350.0   150.0   0.0
350.0   120.0   16.666666666666668
400.0   150.0   16.666666666666668
400.0   120.0   16.666666666666668
400.0   120.0   0.0
350.0   120.0   16.666666666666668
400.0   150.0   16.666666666666668
400.0   120.0   0.0
350.0   150.0   0.0
350.0   120.0   16.666666666666668
400.0   120.0   16.666666666666668
350.0   150.0   16.666666666666668
350.0   120.0   33.333333333333336
400.0   120.0   16.666666666666668
400.0   150.0   16.666666666666668
350.0   150.0   16.666666666666668
400.0   150.0   33.333333333333336
350.0   120.0   33.333333333333336
350.0   150.0   33.333333333333336
400.0   150.0   33.333333333333336
350.0   150.0   16.666666666666668
350.0   120.0   33.333333333333336
400.0   150.0   33.333333333333336
400.0   120.0   33.333333333333336
400.0   120.0   16.666666666666668
350.0   120.0   33.333333333333336
400.0   150.0   33.333333333333336
400.0   120.0   16.666666666666668
350.0   150.0   16.666666666666668
350.0   120.0   33.333333333333336
400.0   120.0   33.333333333333336
350.0   150.0   33.333333333333336
350.0   120.0   50.0
400.0   120.0   33.333333333333336
400.0   150.0   33.333333333333336
350.0   150.0   33.333333333333336
400.0   150.0   50.0
350.0   120.0   50.0
350.0   150.0   50.0
400.0   150.0   50.0
350.0   150.0   33.333333333333336
350.0   120.0   50.0
400.0   150.0   50.0
400.0   120.0   50.0
400.0   120.0   33.333333333333336
350.0   120.0   50.0
400.0   150.0   50.0
400.0   120.0   33.333333333333336
350.0   150.0   33.333333333333336
400.0   0.0   0.0
450.0   0.0   0.0
400.0   30.0   0.0
400.0   0.0   16.666666666666668
450.0   0.0   0.0
450.0   30.0   0.0
400.0   30.0   0.0
450.0   30.0   16.666666666666668
400.0   0.0   16.666666666666668
400.0   30.0   16.666666666666668
450.0   30.0   16.666666666666668
400.0   30.0   0.0
400.0   0.0   16.666666666666668
450.0   30.0   16.666666666666668
450.0   0.0   16.666666666666668
450.0   0.0   0.0
400.0   0.0   16.666666666666668
450.0   30.0   16.666666666666668
450.0   0.0   0.0
400.0   30.0   0.0
400.0   0.0   16.666666666666668
450.0   0.0   16.666666666666668
400.0   30.0   16.666666666666668
400.0   0.0   33.333333333333336
450.0   0.0   16.666666666666668
450.0   30.0   16.666666666666668
400.0   30.0   16.666666666666668
450.0   30.0   33.333333333333336
400.0   0.0   33.333333333333336
400.0   30.0   33.333333333333336
450.0   30.0   33.333333333333336
400.0   30.0   16.666666666666668
400.0   0.0   33.333333333333336
450.0   30.0   33.333333333333336
450.0   0.0   33.333333333333336
450.0   0.0   16.666666666666668
400.0   0.0   33.333333333333336
450.0   30.0   33.333333333333336
450.0   0.0   16.666666666666668
400.0   30.0   16.666666666666668
400.0   0.0   33.333333333333336
450.0   0.0   33.333333333333336
400.0   30.0   33.333333333333336
400.0   0.0   50.0
450.0   0.0   33.333333333333336
450.0   30.0   33.333333333333336
400.0   30.0   33.333333333333336
450.0   30.0   50.0
400.0   0.0   50.0
400.0   30.0   50.0
450.0   30.0   50.0
400.0   30.0   33.333333333333336
400.0   0.0   50.0
450.0   30.0   50.0
450.0   0.0   50.0
450.0   0.0   33.333333333333336
400.0   0.0   50.0
450.0   30.0   50.0
450.0   0.0   33.333333333333336
400.0   30.0   33.333333333333336
400.0   30.0   0.0
450.0   30.0   0.0
400.0   60.0   0.0
400.0   30.0   16.666666666666668
450.0   30.0   0.0
450.0   60.0   0.0
400.0   60.0   0.0
450.0   60.0   16.666666666666668
400.0   30.0   16.666666666666668
400.0   60.0   16.666666666666668
450.0   60.0   16.666666666666668
400.0   60.0   0.0
400.0   30.0   16.666666666666668
450.0   60.0   16.666666666666668
450.0   30.0   16.666666666666668
450.0   30.0   0.0
400.0   30.0   16.666666666666668
450.0   60.0   16.666666666666668
450.0   30.0   0.0
400.0   60.0   0.0
400.0   30.0   16.666666666666668
450.0   30.0   16.666666666666668
400.0   60.0   16.666666666666668
400.0   30.0   33.333333333333336
450.0   30.0   16.666666666666668
450.0   60.0   16.666666666666668
400.0   60.0   16.666666666666668
450.0   60.0   33.333333333333336
400.0   30.0   33.333333333333336
400.0   60.0   33.333333333333336
450.0   60.0   33.333333333333336
400.0   60.0   16.666666666666668
400.0   30.0   33.333333333333336
450.0   60.0   33.333333333333336
450.0   30.0   33.333333333333336
450.0   30.0   16.666666666666668
400.0   30.0   33.333333333333336
450.0   60.0   33.333333333333336
450.0   30.0   16.666666666666668
400.0   60.0   16.666666666666668
400.0   30.0   33.333333333333336
450.0   30.0   33.333333333333336
400.0   60.0   33.333333333333336
400.0   30.0   50.0
450.0   30.0   33.333333333333336
450.0   60.0   33.333333333333336
400.0   60.0   33.333333333333336
450.0   60.0   50.0
400.0   30.0   50.0
400.0   60.0   50.0
450.0   60.0   50.0
400.0   60.0   33.333333333333336
400.0   30.0   50.0
450.0   60.0   50.0
450.0   30.0   50.0
450.0   30.0   33.333333333333336
400.0   30.0   50.0
450.0   60.0   50.0
450.0   30.0   33.333333333333336
400.0   60.0   33.333333333333336
400.0   60.0   0.0
450.0   60.0   0.0
400.0   90.0   0.0
400.0   60.0   16.666666666666668
450.0   60.0   0.0
450.0   90.0   0.0
400.0   90.0   0.0
450.0   90.0   16.666666666666668
400.0   60.0   16.666666666666668
400.0   90.0   16.666666666666668
450.0   90.0   16.666666666666668
400.0   90.0   0.0
400.0   60.0   16.666666666666668
450.0   90.0   16.666666666666668
450.0   60.0   16.666666666666668
450.0   60.0   0.0
400.0   60.0   16.666666666666668
450.0   90.0   16.666666666666668
450.0   60.0   0.0
400.0   90.0   0.0
400.0   60.0   16.666666666666668
450.0   60.0   16.666666666666668
400.0   90.0   16.666666666666668
400.0   60.0   33.333333333333336
450.0   60.0   16.666666666666668
450.0   90.0   16.666666666666668
400.0   90.0   16.666666666666668
450.0   90.0   33.333333333333336
400.0   60.0   33.333333333333336
400.0   90.0   33.333333333333336
450.0   90.0   33.333333333333336
400.0   90.0   16.666666666666668
400.0   60.0   33.333333333333336
450.0   90.0   33.333333333333336
450.0   60.0   33.333333333333336
450.0   60.0   16.666666666666668
400.0   60.0   33.333333333333336
450.0   90.0   33.333333333333336
450.0   60.0   16.666666666666668
400.0   90.0   16.666666666666668
400.0   60.0   33.333333333333336
450.0   60.0   33.333333333333336
400.0   90.0   33.333333333333336
400.0   60.0   50.0
450.0   60.0   33.333333333333336
450.0   90.0   33.333333333333336
400.0   90.0   33.333333333333336
450.0   90.0   50.0
400.0   60.0   50.0
400.0   90.0   50.0
450.0   90.0   50.0
400.0   90.0   33.333333333333336
400.0   60.0   50.0
450.0   90.0   50.0
450.0   60.0   50.0
450.0   60.0   33.333333333333336
400.0   60.0   50.0
450.0   90.0   50.0
450.0   60.0   33.333333333333336
400.0   90.0   33.333333333333336
400.0   90.0   0.0
450.0   90.0   0.0
400.0   120.0   0.0
400.0   90.0   16.666666666666668
450.0   90.0   0.0
450.0   120.0   0.0
400.0   120.0   0.0
450.0   120.0   16.666666666666668
400.0   90.0   16.666666666666668
400.0   120.0   16.666666666666668
450.0   120.0   16.666666666666668
400.0   120.0   0.0
400.0   90.0   16.666666666666668
450.0   120.0   16.666666666666668
450.0   90.0   16.666666666666668
450.0   90.0   0.0
400.0   90.0   16.666666666666668
450.0   120.0   16.666666666666668
450.0   90.0   0.0
400.0   120.0   0.0
400.0   90.0   16.666666666666668
450.0   90.0   16.666666666666668
400.0   120.0   16.666666666666668
400.0   90.0   33.333333333333336
450.0   90.0   16.666666666666668
450.0   120.0   16.666666666666668
400.0   120.0   16.666666666666668
450.0   120.0   33.333333333333336
400.0   90.0   33.333333333333336
400.0   120.0   33.333333333333336
450.0   120.0   33.333333333333336
400.0   120.0   16.666666666666668
400.0   90.0   33.333333333333336
450.0   120.0   33.333333333333336
450.0   90.0   33.333333333333336
450.0   90.0   16.666666666666668
400.0   90.0   33.333333333333336
450.0   120.0   33.333333333333336
450.0   90.0   16.666666666666668
400.0   120.0   16.666666666666668
400.0   90.0   33.333333333333336
450.0   90.0   33.333333333333336
400.0   120.0   33.333333333333336
400.0   90.0   50.0
450.0   90.0   33.333333333333336
450.0   120.0   33.333333333333336
400.0   120.0   33.333333333333336
450.0   120.0   50.0
400.0   90.0   50.0
400.0   120.0   50.0
450.0   120.0   50.0
400.0   120.0   33.333333333333336
400.0   90.0   50.0
450.0   120.0   50.0
450.0   90.0   50.0
450.0   90.0   33.333333333333336
400.0   90.0   50.0
450.0   120.0   50.0
450.0   90.0   33.333333333333336
400.0   120.0   33.333333333333336
400.0   120.0   0.0
450.0   120.0   0.0
400.0   150.0   0.0
400.0   120.0   16.666666666666668
450.0   120.0   0.0
450.0   150.0   0.0
400.0   150.0   0.0
450.0   150.0   16.666666666666668
400.0   120.0   16.666666666666668
400.0   150.0   16.666666666666668
450.0   150.0   16.666666666666668
400.0   150.0   0.0
400.0   120.0   16.666666666666668
450.0   150.0   16.666666666666668
450.0   120.0   16.666666666666668
450.0   120.0   0.0
400.0   120.0   16.666666666666668
450.0   150.0   16.666666666666668
450.0   120.0   0.0
400.0   150.0   0.0
400.0   120.0   16.666666666666668
450.0   120.0   16.666666666666668
400.0   150.0   16.666666666666668
400.0   120.0   33.333333333333336
450.0   120.0   16.666666666666668
450.0   150.0   16.666666666666668
400.0   150.0   16.666666666666668
450.0   150.0   33.333333333333336
400.0   120.0   33.333333333333336
400.0   150.0   33.333333333333336
450.0   150.0   33.333333333333336
400.0   150.0   16.666666666666668
400.0   120.0   33.333333333333336
450.0   150.0   33.333333333333336
450.0   120.0   33.333333333333336
450.0   120.0   16.666666666666668
400.0   120.0   33.333333333333336
450.0   150.0   33.333333333333336
450.0   120.0   16.666666666666668
400.0   150.0   16.666666666666668
400.0   120.0   33.333333333333336
450.0   120.0   33.333333333333336
400.0   150.0   33.333333333333336
400.0   120.0   50.0
450.0   120.0   33.333333333333336
450.0   150.0   33.333333333333336
400.0   150.0   33.333333333333336
450.0   150.0   50.0
400.0   120.0   50.0
400.0   150.0   50.0
450.0   150.0   50.0
400.0   150.0   33.333333333333336
400.0   120.0   50.0
450.0   150.0   50.0
450.0   120.0   50.0
450.0   120.0   33.333333333333336
400.0   120.0   50.0
450.0   150.0   50.0
450.0   120.0   33.333333333333336
400.0   150.0   33.333333333333336
450.0   0.0   0.0
500.0   0.0   0.0
450.0   30.0   0.0
450.0   0.0   16.666666666666668
500.0   0.0   0.0
500.0   30.0   0.0
450.0   30.0   0.0
500.0   30.0   16.666666666666668
450.0   0.0   16.666666666666668
450.0   30.0   16.666666666666668
500.0   30.0   16.666666666666668
450.0   30.0   0.0
450.0   0.0   16.666666666666668
500.0   30.0   16.666666666666668
500.0   0.0   16.666666666666668
500.0   0.0   0.0
450.0   0.0   16.666666666666668
500.0   30.0   16.666666666666668
500.0   0.0   0.0
450.0   30.0   0.0
450.0   0.0   16.666666666666668
500.0   0.0   16.666666666666668
450.0   30.0   16.666666666666668
450.0   0.0   33.333333333333336
500.0   0.0   16.666666666666668
500.0   30.0   16.666666666666668
450.0   30.0   16.666666666666668
500.0   30.0   33.333333333333336
450.0   0.0   33.333333333333336
450.0   30.0   33.333333333333336
500.0   30.0   33.333333333333336
450.0   30.0   16.666666666666668
450.0   0.0   33.333333333333336
500.0   30.0   33.333333333333336
500.0   0.0   33.333333333333336
500.0   0.0   16.666666666666668
450.0   0.0   33.333333333333336
500.0   30.0   33.333333333333336
500.0   0.0   16.666666666666668
450.0   30.0   16.666666666666668
450.0   0.0   33.333333333333336
500.0   0.0   33.333333333333336
450.0   30.0   33.333333333333336
450.0   0.0   50.0
500.0   0.0   33.333333333333336
500.0   30.0   33.333333333333336
450.0   30.0   33.333333333333336
500.0   30.0   50.0
450.0   0.0   50.0
450.0   30.0   50.0
500.0   30.0   50.0
450.0   30.0   33.333333333333336
450.0   0.0   50.0
500.0   30.0   50.0
500.0   0.0   50.0
500.0   0.0   33.333333333333336
450.0   0.0   50.0
500.0   30.0   50.0
500.0   0.0   33.333333333333336
450.0   30.0   33.333333333333336
450.0   30.0   0.0
500.0   30.0   0.0
450.0   60.0   0.0
450.0   30.0   16.666666666666668
500.0   30.0   0.0
500.0   60.0   0.0
450.0   60.0   0.0
500.0   60.0   16.666666666666668
450.0   30.0   16.666666666666668
450.0   60.0   16.666666666666668
500.0   60.0   16.666666666666668
450.0   60.0   0.0
450.0   30.0   16.666666666666668
500.0   60.0   16.666666666666668
500.0   30.0   16.666666666666668
500.0   30.0   0.0
450.0   30.0   16.666666666666668
500.0   60.0   16.666666666666668
500.0   30.0   0.0
450.0   60.0   0.0
450.0   30.0   16.666666666666668
500.0   30.0   16.666666666666668
450.0   60.0   16.666666666666668
450.0   30.0   33.333333333333336
500.0   30.0   16.666666666666668
500.0   60.0   16.666666666666668
450.0   60.0   16.666666666666668
500.0   60.0   33.333333333333336
450.0   30.0   33.333333333333336
450.0   60.0   33.333333333333336
500.0   60.0   33.333333333333336
450.0   60.0   16.666666666666668
450.0   30.0   33.333333333333336
500.0   60.0   33.333333333333336
500.0   30.0   33.333333333333336
500.0   30.0   16.666666666666668
450.0   30.0   33.333333333333336
500.0   60.0   33.333333333333336
500.0   30.0   16.666666666666668
450.0   60.0   16.666666666666668
450.0   30.0   33.333333333333336
500.0   30.0   33.333333333333336
450.0   60.0   33.333333333333336
450.0   30.0   50.0
500.0   30.0   33.333333333333336
500.0   60.0   33.333333333333336
450.0   60.0   33.333333333333336
500.0   60.0   50.0
450.0   30.0   50.0
450.0   60.0   50.0
500.0   60.0   50.0
450.0   60.0   33.333333333333336
450.0   30.0   50.0
500.0   60.0   50.0
500.0   30.0   50.0
500.0   30.0   33.333333333333336
450.0   30.0   50.0
500.0   60.0   50.0
500.0   30.0   33.333333333333336
450.0   60.0   33.333333333333336
450.0   60.0   0.0
500.0   60.0   0.0
450.0   90.0   0.0
450.0   60.0   16.666666666666668
500.0   60.0   0.0
500.0   90.0   0.0
450.0   90.0   0.0
500.0   90.0   16.666666666666668
450.0   60.0   16.666666666666668
450.0   90.0   16.666666666666668
500.0   90.0   16.666666666666668
450.0   90.0   0.0
450.0   60.0   16.666666666666668
500.0   90.0   16.666666666666668
500.0   60.0   16.666666666666668
500.0   60.0   0.0
450.0   60.0   16.666666666666668
500.0   90.0   16.666666666666668
500.0   60.0   0.0
450.0   90.0   0.0
450.0   60.0   16.666666666666668
500.0   60.0   16.666666666666668
450.0   90.0   16.666666666666668
450.0   60.0   33.333333333333336
500.0   60.0   16.666666666666668
500.0   90.0   16.666666666666668
450.0   90.0   16.666666666666668
500.0   90.0   33.333333333333336
450.0   60.0   33.333333333333336
450.0   90.0   33.333333333333336
500.0   90.0   33.333333333333336
450.0   90.0   16.666666666666668
450.0   60.0   33.333333333333336
500.0   90.0   33.333333333333336
500.0   60.0   33.333333333333336
500.0   60.0   16.666666666666668
450.0   60.0   33.333333333333336
500.0   90.0   33.333333333333336
500.0   60.0   16.666666666666668
450.0   90.0   16.666666666666668
450.0   60.0   33.333333333333336
500.0   60.0   33.333333333333336
450.0   90.0   33.333333333333336
450.0   60.0   50.0
500.0   60.0   33.333333333333336
500.0   90.0   33.333333333333336
450.0   90.0   33.333333333333336
500.0   90.0   50.0
450.0   60.0   50.0
450.0   90.0   50.0
500.0   90.0   50.0
450.0   90.0   33.333333333333336
450.0   60.0   50.0
500.0   90.0   50.0
500.0   60.0   50.0
500.0   60.0   33.333333333333336
450.0   60.0   50.0
500.0   90.0   50.0
500.0   60.0   33.333333333333336
450.0   90.0   33.333333333333336
450.0   90.0   0.0
500.0   90.0   0.0
450.0   120.0   0.0
450.0   90.0   16.666666666666668
500.0   90.0   0.0
500.0   120.0   0.0
450.0   120.0   0.0
500.0   120.0   16.666666666666668
450.0   90.0   16.666666666666668
450.0   120.0   16.666666666666668
500.0   120.0   16.666666666666668
450.0   120.0   0.0
450.0   90.0   16.666666666666668
500.0   120.0   16.666666666666668
500.0   90.0   16.666666666666668
500.0   90.0   0.0
450.0   90.0   16.666666666666668
500.0   120.0   16.666666666666668
500.0   90.0   0.0
450.0   120.0   0.0
450.0   90.0   16.666666666666668
500.0   90.0   16.666666666666668
450.0   120.0   16.666666666666668
450.0   90.0   33.333333333333336
500.0   90.0   16.666666666666668
500.0   120.0   16.666666666666668
450.0   120.0   16.666666666666668
500.0   120.0   33.333333333333336
450.0   90.0   33.333333333333336
450.0   120.0   33.333333333333336
500.0   120.0   33.333333333333336
450.0   120.0   16.666666666666668
450.0   90.0   33.333333333333336
500.0   120.0   33.333333333333336
500.0   90.0   33.333333333333336
500.0   90.0   16.666666666666668
450.0   90.0   33.333333333333336
500.0   120.0   33.333333333333336
500.0   90.0   16.666666666666668
450.0   120.0   16.666666666666668
450.0   90.0   33.333333333333336
500.0   90.0   33.333333333333336
450.0   120.0   33.333333333333336
450.0   90.0   50.0
500.0   90.0   33.333333333333336
500.0   120.0   33.333333333333336
450.0   120.0   33.333333333333336
500.0   120.0   50.0
450.0   90.0   50.0
450.0   120.0   50.0
500.0   120.0   50.0
450.0   120.0   33.333333333333336
450.0   90.0   50.0
500.0   120.0   50.0
500.0   90.0   50.0
500.0   90.0   33.333333333333336
450.0   90.0   50.0
500.0   120.0   50.0
500.0   90.0   33.333333333333336
450.0   120.0   33.333333333333336
450.0   120.0   0.0
500.0   120.0   0.0
450.0   150.0   0.0
450.0   120.0   16.666666666666668
500.0   120.0   0.0
500.0   150.0   0.0
450.0   150.0   0.0
500.0   150.0   16.666666666666668
450.0   120.0   16.666666666666668
450.0   150.0   16.666666666666668
500.0   150.0   16.666666666666668
450.0   150.0   0.0
450.0   120.0   16.666666666666668
500.0   150.0   16.666666666666668
500.0   120.0   16.666666666666668
500.0   120.0   0.0
450.0   120.0   16.666666666666668
500.0   150.0   16.666666666666668
500.0   120.0   0.0
450.0   150.0   0.0
450.0   120.0   16.666666666666668
500.0   120.0   16.666666666666668
450.0   150.0   16.666666666666668
450.0   120.0   33.333333333333336
500.0   120.0   16.666666666666668
500.0   150.0   16.666666666666668
450.0   150.0   16.666666666666668
500.0   150.0   33.333333333333336
450.0   120.0   33.333333333333336
450.0   150.0   33.333333333333336
500.0   150.0   33.333333333333336
450.0   150.0   16.666666666666668
450.0   120.0   33.333333333333336
500.0   150.0   33.333333333333336
500.0   120.0   33.333333333333336
500.0   120.0   16.666666666666668
450.0   120.0   33.333333333333336
500.0   150.0   33.333333333333336
500.0   120.0   16.666666666666668
450.0   150.0   16.666666666666668
450.0   120.0   33.333333333333336
500.0   120.0   33.333333333333336
450.0   150.0   33.333333333333336
450.0   120.0   50.0
500.0   120.0   33.333333333333336
500.0   150.0   33.333333333333336
450.0   150.0   33.333333333333336
500.0   150.0   50.0
450.0   120.0   50.0
450.0   150.0   50.0
500.0   150.0   50.0
450.0   150.0   33.333333333333336
450.0   120.0   50.0
500.0   150.0   50.0
500.0   120.0   50.0
500.0   120.0   33.333333333333336
450.0   120.0   50.0
500.0   150.0   50.0
500.0   120.0   33.333333333333336
450.0   150.0   33.333333333333336
             </DataArray>   
          </Points>  
          <Cells>  
             <DataArray type="Int32" Name="connectivity" format="ascii">   
0   1   2   3
4   5   6   7
8   9   10   11
12   13   14   15
16   17   18   19
20   21   22   23
24   25   26   27
28   29   30   31
32   33   34   35
36   37   38   39
40   41   42   43
44   45   46   47
48   49   50   51
52   53   54   55
56   57   58   59
60   61   62   63
64   65   66   67
68   69   70   71
72   73   74   75
76   77   78   79
80   81   82   83
84   85   86   87
88   89   90   91
92   93   94   95
96   97   98   99
100   101   102   103
104   105   106   107
108   109   110   111
112   113   114   115
116   117   118   119
120   121   122   123
124   125   126   127
128   129   130   131
132   133   134   135
136   137   138   139
140   141   142   143
144   145   146   147
148   149   150   151
152   153   154   155
156   157   158   159
160   161   162   163
164   165   166   167
168   169   170   171
172   173   174   175
176   177   178   179
180   181   182   183
184   185   186   187
188   189   190   191
192   193   194   195
196   197   198   199
200   201   202   203
204   205   206   207
208   209   210   211
212   213   214   215
216   217   218   219
220   221   222   223
224   225   226   227
228   229   230   231
232   233   234   235
236   237   238   239
240   241   242   243
244   245   246   247
248   249   250   251
252   253   254   255
256   257   258   259
260   261   262   263
264   265   266   267
268   269   270   271
272   273   274   275
276   277   278   279
280   281   282   283
284   285   286   287
288   289   290   291
292   293   294   295
296   297   298   299
300   301   302   303
304   305   306   307
308   309   310   311
312   313   314   315
316   317   318   319
320   321   322   323
324   325   326   327
328   329   330   331
332   333   334   335
336   337   338   339
340   341   342   343
344   345   346   347
348   349   350   351
352   353   354   355
356   357   358   359
360   361   362   363
364   365   366   367
368   369   370   371
372   373   374   375
376   377   378   379
380   381   382   383
384   385   386   387
388   389   390   391
392   393   394   395
396   397   398   399
400   401   402   403
404   405   406   407
408   409   410   411
412   413   414   415
416   417   418   419
420   421   422   423
424   425   426   427
428   429   430   431
432   433   434   435
436   437   438   439
440   441   442   443
444   445   446   447
448   449   450   451
452   453   454   455
456   457   458   459
460   461   462   463
464   465   466   467
468   469   470   471
472   473   474   475
476   477   478   479
480   481   482   483
484   485   486   487
488   489   490   491
492   493   494   495
496   497   498   499
500   501   502   503
504   505   506   507
508   509   510   511
512   513   514   515
516   517   518   519
520   521   522   523
524   525   526   527
528   529   530   531
532   533   534   535
536   537   538   539
540   541   542   543
544   545   546   547
548   549   550   551
552   553   554   555
556   557   558   559
560   561   562   563
564   565   566   567
568   569   570   571
572   573   574   575
576   577   578   579
580   581   582   583
584   585   586   587
588   589   590   591
592   593   594   595
596   597   598   599
600   601   602   603
604   605   606   607
608   609   610   611
612   613   614   615
616   617   618   619
620   621   622   623
624   625   626   627
628   629   630   631
632   633   634   635
636   637   638   639
640   641   642   643
644   645   646   647
648   649   650   651
652   653   654   655
656   657   658   659
660   661   662   663
664   665   666   667
668   669   670   671
672   673   674   675
676   677   678   679
680   681   682   683
684   685   686   687
688   689   690   691
692   693   694   695
696   697   698   699
700   701   702   703
704   705   706   707
708   709   710   711
712   713   714   715
716   717   718   719
720   721   722   723
724   725   726   727
728   729   730   731
732   733   734   735
736   737   738   739
740   741   742   743
744   745   746   747
748   749   750   751
752   753   754   755
756   757   758   759
760   761   762   763
764   765   766   767
768   769   770   771
772   773   774   775
776   777   778   779
780   781   782   783
784   785   786   787
788   789   790   791
792   793   794   795
796   797   798   799
800   801   802   803
804   805   806   807
808   809   810   811
812   813   814   815
816   817   818   819
820   821   822   823
824   825   826   827
828   829   830   831
832   833   834   835
836   837   838   839
840   841   842   843
844   845   846   847
848   849   850   851
852   853   854   855
856   857   858   859
860   861   862   863
864   865   866   867
868   869   870   871
872   873   874   875
876   877   878   879
880   881   882   883
884   885   886   887
888   889   890   891
892   893   894   895
896   897   898   899
900   901   902   903
904   905   906   907
908   909   910   911
912   913   914   915
916   917   918   919
920   921   922   923
924   925   926   927
928   929   930   931
932   933   934   935
936   937   938   939
940   941   942   943
944   945   946   947
948   949   950   951
952   953   954   955
956   957   958   959
960   961   962   963
964   965   966   967
968   969   970   971
972   973   974   975
976   977   978   979
980   981   982   983
984   985   986   987
988   989   990   991
992   993   994   995
996   997   998   999
1000   1001   1002   1003
1004   1005   1006   1007
1008   1009   1010   1011
1012   1013   1014   1015
1016   1017   1018   1019
1020   1021   1022   1023
1024   1025   1026   1027
1028   1029   1030   1031
1032   1033   1034   1035
1036   1037   1038   1039
1040   1041   1042   1043
1044   1045   1046   1047
1048   1049   1050   1051
1052   1053   1054   1055
1056   1057   1058   1059
1060   1061   1062   1063
1064   1065   1066   1067
1068   1069   1070   1071
1072   1073   1074   1075
1076   1077   1078   1079
1080   1081   1082   1083
1084   1085   1086   1087
1088   1089   1090   1091
1092   1093   1094   1095
1096   1097   1098   1099
1100   1101   1102   1103
1104   1105   1106   1107
1108   1109   1110   1111
1112   1113   1114   1115
1116   1117   1118   1119
1120   1121   1122   1123
1124   1125   1126   1127
1128   1129   1130   1131
1132   1133   1134   1135
1136   1137   1138   1139
1140   1141   1142   1143
1144   1145   1146   1147
1148   1149   1150   1151
1152   1153   1154   1155
1156   1157   1158   1159
1160   1161   1162   1163
1164   1165   1166   1167
1168   1169   1170   1171
1172   1173   1174   1175
1176   1177   1178   1179
1180   1181   1182   1183
1184   1185   1186   1187
1188   1189   1190   1191
1192   1193   1194   1195
1196   1197   1198   1199
1200   1201   1202   1203
1204   1205   1206   1207
1208   1209   1210   1211
1212   1213   1214   1215
1216   1217   1218   1219
1220   1221   1222   1223
1224   1225   1226   1227
1228   1229   1230   1231
1232   1233   1234   1235
1236   1237   1238   1239
1240   1241   1242   1243
1244   1245   1246   1247
1248   1249   1250   1251
1252   1253   1254   1255
1256   1257   1258   1259
1260   1261   1262   1263
1264   1265   1266   1267
1268   1269   1270   1271
1272   1273   1274   1275
1276   1277   1278   1279
1280   1281   1282   1283
1284   1285   1286   1287
1288   1289   1290   1291
1292   1293   1294   1295
1296   1297   1298   1299
1300   1301   1302   1303
1304   1305   1306   1307
1308   1309   1310   1311
1312   1313   1314   1315
1316   1317   1318   1319
1320   1321   1322   1323
1324   1325   1326   1327
1328   1329   1330   1331
1332   1333   1334   1335
1336   1337   1338   1339
1340   1341   1342   1343
1344   1345   1346   1347
1348   1349   1350   1351
1352   1353   1354   1355
1356   1357   1358   1359
1360   1361   1362   1363
1364   1365   1366   1367
1368   1369   1370   1371
1372   1373   1374   1375
1376   1377   1378   1379
1380   1381   1382   1383
1384   1385   1386   1387
1388   1389   1390   1391
1392   1393   1394   1395
1396   1397   1398   1399
1400   1401   1402   1403
1404   1405   1406   1407
1408   1409   1410   1411
1412   1413   1414   1415
1416   1417   1418   1419
1420   1421   1422   1423
1424   1425   1426   1427
1428   1429   1430   1431
1432   1433   1434   1435
1436   1437   1438   1439
1440   1441   1442   1443
1444   1445   1446   1447
1448   1449   1450   1451
1452   1453   1454   1455
1456   1457   1458   1459
1460   1461   1462   1463
1464   1465   1466   1467
1468   1469   1470   1471
1472   1473   1474   1475
1476   1477   1478   1479
1480   1481   1482   1483
1484   1485   1486   1487
1488   1489   1490   1491
1492   1493   1494   1495
1496   1497   1498   1499
1500   1501   1502   1503
1504   1505   1506   1507
1508   1509   1510   1511
1512   1513   1514   1515
1516   1517   1518   1519
1520   1521   1522   1523
1524   1525   1526   1527
1528   1529   1530   1531
1532   1533   1534   1535
1536   1537   1538   1539
1540   1541   1542   1543
1544   1545   1546   1547
1548   1549   1550   1551
1552   1553   1554   1555
1556   1557   1558   1559
1560   1561   1562   1563
1564   1565   1566   1567
1568   1569   1570   1571
1572   1573   1574   1575
1576   1577   1578   1579
1580   1581   1582   1583
1584   1585   1586   1587
1588   1589   1590   1591
1592   1593   1594   1595
1596   1597   1598   1599
1600   1601   1602   1603
1604   1605   1606   1607
1608   1609   1610   1611
1612   1613   1614   1615
1616   1617   1618   1619
1620   1621   1622   1623
1624   1625   1626   1627
1628   1629   1630   1631
1632   1633   1634   1635
1636   1637   1638   1639
1640   1641   1642   1643
1644   1645   1646   1647
1648   1649   1650   1651
1652   1653   1654   1655
1656   1657   1658   1659
1660   1661   1662   1663
1664   1665   1666   1667
1668   1669   1670   1671
1672   1673   1674   1675
1676   1677   1678   1679
1680   1681   1682   1683
1684   1685   1686   1687
1688   1689   1690   1691
1692   1693   1694   1695
1696   1697   1698   1699
1700   1701   1702   1703
1704   1705   1706   1707
1708   1709   1710   1711
1712   1713   1714   1715
1716   1717   1718   1719
1720   1721   1722   1723
1724   1725   1726   1727
1728   1729   1730   1731
1732   1733   1734   1735
1736   1737   1738   1739
1740   1741   1742   1743
1744   1745   1746   1747
1748   1749   1750   1751
1752   1753   1754   1755
1756   1757   1758   1759
1760   1761   1762   1763
1764   1765   1766   1767
1768   1769   1770   1771
1772   1773   1774   1775
1776   1777   1778   1779
1780   1781   1782   1783
1784   1785   1786   1787
1788   1789   1790   1791
1792   1793   1794   1795
1796   1797   1798   1799
1800   1801   1802   1803
1804   1805   1806   1807
1808   1809   1810   1811
1812   1813   1814   1815
1816   1817   1818   1819
1820   1821   1822   1823
1824   1825   1826   1827
1828   1829   1830   1831
1832   1833   1834   1835
1836   1837   1838   1839
1840   1841   1842   1843
1844   1845   1846   1847
1848   1849   1850   1851
1852   1853   1854   1855
1856   1857   1858   1859
1860   1861   1862   1863
1864   1865   1866   1867
1868   1869   1870   1871
1872   1873   1874   1875
1876   1877   1878   1879
1880   1881   1882   1883
1884   1885   1886   1887
1888   1889   1890   1891
1892   1893   1894   1895
1896   1897   1898   1899
1900   1901   1902   1903
1904   1905   1906   1907
1908   1909   1910   1911
1912   1913   1914   1915
1916   1917   1918   1919
1920   1921   1922   1923
1924   1925   1926   1927
1928   1929   1930   1931
1932   1933   1934   1935
1936   1937   1938   1939
1940   1941   1942   1943
1944   1945   1946   1947
1948   1949   1950   1951
1952   1953   1954   1955
1956   1957   1958   1959
1960   1961   1962   1963
1964   1965   1966   1967
1968   1969   1970   1971
1972   1973   1974   1975
1976   1977   1978   1979
1980   1981   1982   1983
1984   1985   1986   1987
1988   1989   1990   1991
1992   1993   1994   1995
1996   1997   1998   1999
2000   2001   2002   2003
2004   2005   2006   2007
2008   2009   2010   2011
2012   2013   2014   2015
2016   2017   2018   2019
2020   2021   2022   2023
2024   2025   2026   2027
2028   2029   2030   2031
2032   2033   2034   2035
2036   2037   2038   2039
2040   2041   2042   2043
2044   2045   2046   2047
2048   2049   2050   2051
2052   2053   2054   2055
2056   2057   2058   2059
2060   2061   2062   2063
2064   2065   2066   2067
2068   2069   2070   2071
2072   2073   2074   2075
2076   2077   2078   2079
2080   2081   2082   2083
2084   2085   2086   2087
2088   2089   2090   2091
2092   2093   2094   2095
2096   2097   2098   2099
2100   2101   2102   2103
2104   2105   2106   2107
2108   2109   2110   2111
2112   2113   2114   2115
2116   2117   2118   2119
2120   2121   2122   2123
2124   2125   2126   2127
2128   2129   2130   2131
2132   2133   2134   2135
2136   2137   2138   2139
2140   2141   2142   2143
2144   2145   2146   2147
2148   2149   2150   2151
2152   2153   2154   2155
2156   2157   2158   2159
2160   2161   2162   2163
2164   2165   2166   2167
2168   2169   2170   2171
2172   2173   2174   2175
2176   2177   2178   2179
2180   2181   2182   2183
2184   2185   2186   2187
2188   2189   2190   2191
2192   2193   2194   2195
2196   2197   2198   2199
2200   2201   2202   2203
2204   2205   2206   2207
2208   2209   2210   2211
2212   2213   2214   2215
2216   2217   2218   2219
2220   2221   2222   2223
2224   2225   2226   2227
2228   2229   2230   2231
2232   2233   2234   2235
2236   2237   2238   2239
2240   2241   2242   2243
2244   2245   2246   2247
2248   2249   2250   2251
2252   2253   2254   2255
2256   2257   2258   2259
2260   2261   2262   2263
2264   2265   2266   2267
2268   2269   2270   2271
2272   2273   2274   2275
2276   2277   2278   2279
2280   2281   2282   2283
2284   2285   2286   2287
2288   2289   2290   2291
2292   2293   2294   2295
2296   2297   2298   2299
2300   2301   2302   2303
2304   2305   2306   2307
2308   2309   2310   2311
2312   2313   2314   2315
2316   2317   2318   2319
2320   2321   2322   2323
2324   2325   2326   2327
2328   2329   2330   2331
2332   2333   2334   2335
2336   2337   2338   2339
2340   2341   2342   2343
2344   2345   2346   2347
2348   2349   2350   2351
2352   2353   2354   2355
2356   2357   2358   2359
2360   2361   2362   2363
2364   2365   2366   2367
2368   2369   2370   2371
2372   2373   2374   2375
2376   2377   2378   2379
2380   2381   2382   2383
2384   2385   2386   2387
2388   2389   2390   2391
2392   2393   2394   2395
2396   2397   2398   2399
2400   2401   2402   2403
2404   2405   2406   2407
2408   2409   2410   2411
2412   2413   2414   2415
2416   2417   2418   2419
2420   2421   2422   2423
2424   2425   2426   2427
2428   2429   2430   2431
2432   2433   2434   2435
2436   2437   2438   2439
2440   2441   2442   2443
2444   2445   2446   2447
2448   2449   2450   2451
2452   2453   2454   2455
2456   2457   2458   2459
2460   2461   2462   2463
2464   2465   2466   2467
2468   2469   2470   2471
2472   2473   2474   2475
2476   2477   2478   2479
2480   2481   2482   2483
2484   2485   2486   2487
2488   2489   2490   2491
2492   2493   2494   2495
2496   2497   2498   2499
2500   2501   2502   2503
2504   2505   2506   2507
2508   2509   2510   2511
2512   2513   2514   2515
2516   2517   2518   2519
2520   2521   2522   2523
2524   2525   2526   2527
2528   2529   2530   2531
2532   2533   2534   2535
2536   2537   2538   2539
2540   2541   2542   2543
2544   2545   2546   2547
2548   2549   2550   2551
2552   2553   2554   2555
2556   2557   2558   2559
2560   2561   2562   2563
2564   2565   2566   2567
2568   2569   2570   2571
2572   2573   2574   2575
2576   2577   2578   2579
2580   2581   2582   2583
2584   2585   2586   2587
2588   2589   2590   2591
2592   2593   2594   2595
2596   2597   2598   2599
2600   2601   2602   2603
2604   2605   2606   2607
2608   2609   2610   2611
2612   2613   2614   2615
2616   2617   2618   2619
2620   2621   2622   2623
2624   2625   2626   2627
2628   2629   2630   2631
2632   2633   2634   2635
2636   2637   2638   2639
2640   2641   2642   2643
2644   2645   2646   2647
2648   2649   2650   2651
2652   2653   2654   2655
2656   2657   2658   2659
2660   2661   2662   2663
2664   2665   2666   2667
2668   2669   2670   2671
2672   2673   2674   2675
2676   2677   2678   2679
2680   2681   2682   2683
2684   2685   2686   2687
2688   2689   2690   2691
2692   2693   2694   2695
2696   2697   2698   2699
2700   2701   2702   2703
2704   2705   2706   2707
2708   2709   2710   2711
2712   2713   2714   2715
2716   2717   2718   2719
2720   2721   2722   2723
2724   2725   2726   2727
2728   2729   2730   2731
2732   2733   2734   2735
2736   2737   2738   2739
2740   2741   2742   2743
2744   2745   2746   2747
2748   2749   2750   2751
2752   2753   2754   2755
2756   2757   2758   2759
2760   2761   2762   2763
2764   2765   2766   2767
2768   2769   2770   2771
2772   2773   2774   2775
2776   2777   2778   2779
2780   2781   2782   2783
2784   2785   2786   2787
2788   2789   2790   2791
2792   2793   2794   2795
2796   2797   2798   2799
2800   2801   2802   2803
2804   2805   2806   2807
2808   2809   2810   2811
2812   2813   2814   2815
2816   2817   2818   2819
2820   2821   2822   2823
2824   2825   2826   2827
2828   2829   2830   2831
2832   2833   2834   2835
2836   2837   2838   2839
2840   2841   2842   2843
2844   2845   2846   2847
2848   2849   2850   2851
2852   2853   2854   2855
2856   2857   2858   2859
2860   2861   2862   2863
2864   2865   2866   2867
2868   2869   2870   2871
2872   2873   2874   2875
2876   2877   2878   2879
2880   2881   2882   2883
2884   2885   2886   2887
2888   2889   2890   2891
2892   2893   2894   2895
2896   2897   2898   2899
2900   2901   2902   2903
2904   2905   2906   2907
2908   2909   2910   2911
2912   2913   2914   2915
2916   2917   2918   2919
2920   2921   2922   2923
2924   2925   2926   2927
2928   2929   2930   2931
2932   2933   2934   2935
2936   2937   2938   2939
2940   2941   2942   2943
2944   2945   2946   2947
2948   2949   2950   2951
2952   2953   2954   2955
2956   2957   2958   2959
2960   2961   2962   2963
2964   2965   2966   2967
2968   2969   2970   2971
2972   2973   2974   2975
2976   2977   2978   2979
2980   2981   2982   2983
2984   2985   2986   2987
2988   2989   2990   2991
2992   2993   2994   2995
2996   2997   2998   2999
3000   3001   3002   3003
3004   3005   3006   3007
3008   3009   3010   3011
3012   3013   3014   3015
3016   3017   3018   3019
3020   3021   3022   3023
3024   3025   3026   3027
3028   3029   3030   3031
3032   3033   3034   3035
3036   3037   3038   3039
3040   3041   3042   3043
3044   3045   3046   3047
3048   3049   3050   3051
3052   3053   3054   3055
3056   3057   3058   3059
3060   3061   3062   3063
3064   3065   3066   3067
3068   3069   3070   3071
3072   3073   3074   3075
3076   3077   3078   3079
3080   3081   3082   3083
3084   3085   3086   3087
3088   3089   3090   3091
3092   3093   3094   3095
3096   3097   3098   3099
3100   3101   3102   3103
3104   3105   3106   3107
3108   3109   3110   3111
3112   3113   3114   3115
3116   3117   3118   3119
3120   3121   3122   3123
3124   3125   3126   3127
3128   3129   3130   3131
3132   3133   3134   3135
3136   3137   3138   3139
3140   3141   3142   3143
3144   3145   3146   3147
3148   3149   3150   3151
3152   3153   3154   3155
3156   3157   3158   3159
3160   3161   3162   3163
3164   3165   3166   3167
3168   3169   3170   3171
3172   3173   3174   3175
3176   3177   3178   3179
3180   3181   3182   3183
3184   3185   3186   3187
3188   3189   3190   3191
3192   3193   3194   3195
3196   3197   3198   3199
3200   3201   3202   3203
3204   3205   3206   3207
3208   3209   3210   3211
3212   3213   3214   3215
3216   3217   3218   3219
3220   3221   3222   3223
3224   3225   3226   3227
3228   3229   3230   3231
3232   3233   3234   3235
3236   3237   3238   3239
3240   3241   3242   3243
3244   3245   3246   3247
3248   3249   3250   3251
3252   3253   3254   3255
3256   3257   3258   3259
3260   3261   3262   3263
3264   3265   3266   3267
3268   3269   3270   3271
3272   3273   3274   3275
3276   3277   3278   3279
3280   3281   3282   3283
3284   3285   3286   3287
3288   3289   3290   3291
3292   3293   3294   3295
3296   3297   3298   3299
3300   3301   3302   3303
3304   3305   3306   3307
3308   3309   3310   3311
3312   3313   3314   3315
3316   3317   3318   3319
3320   3321   3322   3323
3324   3325   3326   3327
3328   3329   3330   3331
3332   3333   3334   3335
3336   3337   3338   3339
3340   3341   3342   3343
3344   3345   3346   3347
3348   3349   3350   3351
3352   3353   3354   3355
3356   3357   3358   3359
3360   3361   3362   3363
3364   3365   3366   3367
3368   3369   3370   3371
3372   3373   3374   3375
3376   3377   3378   3379
3380   3381   3382   3383
3384   3385   3386   3387
3388   3389   3390   3391
3392   3393   3394   3395
3396   3397   3398   3399
3400   3401   3402   3403
3404   3405   3406   3407
3408   3409   3410   3411
3412   3413   3414   3415
3416   3417   3418   3419
3420   3421   3422   3423
3424   3425   3426   3427
3428   3429   3430   3431
3432   3433   3434   3435
3436   3437   3438   3439
3440   3441   3442   3443
3444   3445   3446   3447
3448   3449   3450   3451
3452   3453   3454   3455
3456   3457   3458   3459
3460   3461   3462   3463
3464   3465   3466   3467
3468   3469   3470   3471
3472   3473   3474   3475
3476   3477   3478   3479
3480   3481   3482   3483
3484   3485   3486   3487
3488   3489   3490   3491
3492   3493   3494   3495
3496   3497   3498   3499
3500   3501   3502   3503
3504   3505   3506   3507
3508   3509   3510   3511
3512   3513   3514   3515
3516   3517   3518   3519
3520   3521   3522   3523
3524   3525   3526   3527
3528   3529   3530   3531
3532   3533   3534   3535
3536   3537   3538   3539
3540   3541   3542   3543
3544   3545   3546   3547
3548   3549   3550   3551
3552   3553   3554   3555
3556   3557   3558   3559
3560   3561   3562   3563
3564   3565   3566   3567
3568   3569   3570   3571
3572   3573   3574   3575
3576   3577   3578   3579
3580   3581   3582   3583
3584   3585   3586   3587
3588   3589   3590   3591
3592   3593   3594   3595
3596   3597   3598   3599
3600   3601   3602   3603
3604   3605   3606   3607
3608   3609   3610   3611
3612   3613   3614   3615
3616   3617   3618   3619
3620   3621   3622   3623
3624   3625   3626   3627
3628   3629   3630   3631
3632   3633   3634   3635
3636   3637   3638   3639
3640   3641   3642   3643
3644   3645   3646   3647
3648   3649   3650   3651
3652   3653   3654   3655
3656   3657   3658   3659
3660   3661   3662   3663
3664   3665   3666   3667
3668   3669   3670   3671
3672   3673   3674   3675
3676   3677   3678   3679
3680   3681   3682   3683
3684   3685   3686   3687
3688   3689   3690   3691
3692   3693   3694   3695
3696   3697   3698   3699
3700   3701   3702   3703
3704   3705   3706   3707
3708   3709   3710   3711
3712   3713   3714   3715
3716   3717   3718   3719
3720   3721   3722   3723
3724   3725   3726   3727
3728   3729   3730   3731
3732   3733   3734   3735
3736   3737   3738   3739
3740   3741   3742   3743
3744   3745   3746   3747
3748   3749   3750   3751
3752   3753   3754   3755
3756   3757   3758   3759
3760   3761   3762   3763
3764   3765   3766   3767
3768   3769   3770   3771
3772   3773   3774   3775
3776   3777   3778   3779
3780   3781   3782   3783
3784   3785   3786   3787
3788   3789   3790   3791
3792   3793   3794   3795
3796   3797   3798   3799
3800   3801   3802   3803
3804   3805   3806   3807
3808   3809   3810   3811
3812   3813   3814   3815
3816   3817   3818   3819
3820   3821   3822   3823
3824   3825   3826   3827
3828   3829   3830   3831
3832   3833   3834   3835
3836   3837   3838   3839
3840   3841   3842   3843
3844   3845   3846   3847
3848   3849   3850   3851
3852   3853   3854   3855
3856   3857   3858   3859
3860   3861   3862   3863
3864   3865   3866   3867
3868   3869   3870   3871
3872   3873   3874   3875
3876   3877   3878   3879
3880   3881   3882   3883
3884   3885   3886   3887
3888   3889   3890   3891
3892   3893   3894   3895
3896   3897   3898   3899
3900   3901   3902   3903
3904   3905   3906   3907
3908   3909   3910   3911
3912   3913   3914   3915
3916   3917   3918   3919
3920   3921   3922   3923
3924   3925   3926   3927
3928   3929   3930   3931
3932   3933   3934   3935
3936   3937   3938   3939
3940   3941   3942   3943
3944   3945   3946   3947
3948   3949   3950   3951
3952   3953   3954   3955
3956   3957   3958   3959
3960   3961   3962   3963
3964   3965   3966   3967
3968   3969   3970   3971
3972   3973   3974   3975
3976   3977   3978   3979
3980   3981   3982   3983
3984   3985   3986   3987
3988   3989   3990   3991
3992   3993   3994   3995
3996   3997   3998   3999
4000   4001   4002   4003
4004   4005   4006   4007
4008   4009   4010   4011
4012   4013   4014   4015
4016   4017   4018   4019
4020   4021   4022   4023
4024   4025   4026   4027
4028   4029   4030   4031
4032   4033   4034   4035
4036   4037   4038   4039
4040   4041   4042   4043
4044   4045   4046   4047
4048   4049   4050   4051
4052   4053   4054   4055
4056   4057   4058   4059
4060   4061   4062   4063
4064   4065   4066   4067
4068   4069   4070   4071
4072   4073   4074   4075
4076   4077   4078   4079
4080   4081   4082   4083
4084   4085   4086   4087
4088   4089   4090   4091
4092   4093   4094   4095
4096   4097   4098   4099
4100   4101   4102   4103
4104   4105   4106   4107
4108   4109   4110   4111
4112   4113   4114   4115
4116   4117   4118   4119
4120   4121   4122   4123
4124   4125   4126   4127
4128   4129   4130   4131
4132   4133   4134   4135
4136   4137   4138   4139
4140   4141   4142   4143
4144   4145   4146   4147
4148   4149   4150   4151
4152   4153   4154   4155
4156   4157   4158   4159
4160   4161   4162   4163
4164   4165   4166   4167
4168   4169   4170   4171
4172   4173   4174   4175
4176   4177   4178   4179
4180   4181   4182   4183
4184   4185   4186   4187
4188   4189   4190   4191
4192   4193   4194   4195
4196   4197   4198   4199
4200   4201   4202   4203
4204   4205   4206   4207
4208   4209   4210   4211
4212   4213   4214   4215
4216   4217   4218   4219
4220   4221   4222   4223
4224   4225   4226   4227
4228   4229   4230   4231
4232   4233   4234   4235
4236   4237   4238   4239
4240   4241   4242   4243
4244   4245   4246   4247
4248   4249   4250   4251
4252   4253   4254   4255
4256   4257   4258   4259
4260   4261   4262   4263
4264   4265   4266   4267
4268   4269   4270   4271
4272   4273   4274   4275
4276   4277   4278   4279
4280   4281   4282   4283
4284   4285   4286   4287
4288   4289   4290   4291
4292   4293   4294   4295
4296   4297   4298   4299
4300   4301   4302   4303
4304   4305   4306   4307
4308   4309   4310   4311
4312   4313   4314   4315
4316   4317   4318   4319
4320   4321   4322   4323
4324   4325   4326   4327
4328   4329   4330   4331
4332   4333   4334   4335
4336   4337   4338   4339
4340   4341   4342   4343
4344   4345   4346   4347
4348   4349   4350   4351
4352   4353   4354   4355
4356   4357   4358   4359
4360   4361   4362   4363
4364   4365   4366   4367
4368   4369   4370   4371
4372   4373   4374   4375
4376   4377   4378   4379
4380   4381   4382   4383
4384   4385   4386   4387
4388   4389   4390   4391
4392   4393   4394   4395
4396   4397   4398   4399
4400   4401   4402   4403
4404   4405   4406   4407
4408   4409   4410   4411
4412   4413   4414   4415
4416   4417   4418   4419
4420   4421   4422   4423
4424   4425   4426   4427
4428   4429   4430   4431
4432   4433   4434   4435
4436   4437   4438   4439
4440   4441   4442   4443
4444   4445   4446   4447
4448   4449   4450   4451
4452   4453   4454   4455
4456   4457   4458   4459
4460   4461   4462   4463
4464   4465   4466   4467
4468   4469   4470   4471
4472   4473   4474   4475
4476   4477   4478   4479
4480   4481   4482   4483
4484   4485   4486   4487
4488   4489   4490   4491
4492   4493   4494   4495
4496   4497   4498   4499
4500   4501   4502   4503
4504   4505   4506   4507
4508   4509   4510   4511
4512   4513   4514   4515
4516   4517   4518   4519
4520   4521   4522   4523
4524   4525   4526   4527
4528   4529   4530   4531
4532   4533   4534   4535
4536   4537   4538   4539
4540   4541   4542   4543
4544   4545   4546   4547
4548   4549   4550   4551
4552   4553   4554   4555
4556   4557   4558   4559
4560   4561   4562   4563
4564   4565   4566   4567
4568   4569   4570   4571
4572   4573   4574   4575
4576   4577   4578   4579
4580   4581   4582   4583
4584   4585   4586   4587
4588   4589   4590   4591
4592   4593   4594   4595
4596   4597   4598   4599
4600   4601   4602   4603
4604   4605   4606   4607
4608   4609   4610   4611
4612   4613   4614   4615
4616   4617   4618   4619
4620   4621   4622   4623
4624   4625   4626   4627
4628   4629   4630   4631
4632   4633   4634   4635
4636   4637   4638   4639
4640   4641   4642   4643
4644   4645   4646   4647
4648   4649   4650   4651
4652   4653   4654   4655
4656   4657   4658   4659
4660   4661   4662   4663
4664   4665   4666   4667
4668   4669   4670   4671
4672   4673   4674   4675
4676   4677   4678   4679
4680   4681   4682   4683
4684   4685   4686   4687
4688   4689   4690   4691
4692   4693   4694   4695
4696   4697   4698   4699
4700   4701   4702   4703
4704   4705   4706   4707
4708   4709   4710   4711
4712   4713   4714   4715
4716   4717   4718   4719
4720   4721   4722   4723
4724   4725   4726   4727
4728   4729   4730   4731
4732   4733   4734   4735
4736   4737   4738   4739
4740   4741   4742   4743
4744   4745   4746   4747
4748   4749   4750   4751
4752   4753   4754   4755
4756   4757   4758   4759
4760   4761   4762   4763
4764   4765   4766   4767
4768   4769   4770   4771
4772   4773   4774   4775
4776   4777   4778   4779
4780   4781   4782   4783
4784   4785   4786   4787
4788   4789   4790   4791
4792   4793   4794   4795
4796   4797   4798   4799
4800   4801   4802   4803
4804   4805   4806   4807
4808   4809   4810   4811
4812   4813   4814   4815
4816   4817   4818   4819
4820   4821   4822   4823
4824   4825   4826   4827
4828   4829   4830   4831
4832   4833   4834   4835
4836   4837   4838   4839
4840   4841   4842   4843
4844   4845   4846   4847
4848   4849   4850   4851
4852   4853   4854   4855
4856   4857   4858   4859
4860   4861   4862   4863
4864   4865   4866   4867
4868   4869   4870   4871
4872   4873   4874   4875
4876   4877   4878   4879
4880   4881   4882   4883
4884   4885   4886   4887
4888   4889   4890   4891
4892   4893   4894   4895
4896   4897   4898   4899
4900   4901   4902   4903
4904   4905   4906   4907
4908   4909   4910   4911
4912   4913   4914   4915
4916   4917   4918   4919
4920   4921   4922   4923
4924   4925   4926   4927
4928   4929   4930   4931
4932   4933   4934   4935
4936   4937   4938   4939
4940   4941   4942   4943
4944   4945   4946   4947
4948   4949   4950   4951
4952   4953   4954   4955
4956   4957   4958   4959
4960   4961   4962   4963
4964   4965   4966   4967
4968   4969   4970   4971
4972   4973   4974   4975
4976   4977   4978   4979
4980   4981   4982   4983
4984   4985   4986   4987
4988   4989   4990   4991
4992   4993   4994   4995
4996   4997   4998   4999
5000   5001   5002   5003
5004   5005   5006   5007
5008   5009   5010   5011
5012   5013   5014   5015
5016   5017   5018   5019
5020   5021   5022   5023
5024   5025   5026   5027
5028   5029   5030   5031
5032   5033   5034   5035
5036   5037   5038   5039
5040   5041   5042   5043
5044   5045   5046   5047
5048   5049   5050   5051
5052   5053   5054   5055
5056   5057   5058   5059
5060   5061   5062   5063
5064   5065   5066   5067
5068   5069   5070   5071
5072   5073   5074   5075
5076   5077   5078   5079
5080   5081   5082   5083
5084   5085   5086   5087
5088   5089   5090   5091
5092   5093   5094   5095
5096   5097   5098   5099
5100   5101   5102   5103
5104   5105   5106   5107
5108   5109   5110   5111
5112   5113   5114   5115
5116   5117   5118   5119
5120   5121   5122   5123
5124   5125   5126   5127
5128   5129   5130   5131
5132   5133   5134   5135
5136   5137   5138   5139
5140   5141   5142   5143
5144   5145   5146   5147
5148   5149   5150   5151
5152   5153   5154   5155
5156   5157   5158   5159
5160   5161   5162   5163
5164   5165   5166   5167
5168   5169   5170   5171
5172   5173   5174   5175
5176   5177   5178   5179
5180   5181   5182   5183
5184   5185   5186   5187
5188   5189   5190   5191
5192   5193   5194   5195
5196   5197   5198   5199
5200   5201   5202   5203
5204   5205   5206   5207
5208   5209   5210   5211
5212   5213   5214   5215
5216   5217   5218   5219
5220   5221   5222   5223
5224   5225   5226   5227
5228   5229   5230   5231
5232   5233   5234   5235
5236   5237   5238   5239
5240   5241   5242   5243
5244   5245   5246   5247
5248   5249   5250   5251
5252   5253   5254   5255
5256   5257   5258   5259
5260   5261   5262   5263
5264   5265   5266   5267
5268   5269   5270   5271
5272   5273   5274   5275
5276   5277   5278   5279
5280   5281   5282   5283
5284   5285   5286   5287
5288   5289   5290   5291
5292   5293   5294   5295
5296   5297   5298   5299
5300   5301   5302   5303
5304   5305   5306   5307
5308   5309   5310   5311
5312   5313   5314   5315
5316   5317   5318   5319
5320   5321   5322   5323
5324   5325   5326   5327
5328   5329   5330   5331
5332   5333   5334   5335
5336   5337   5338   5339
5340   5341   5342   5343
5344   5345   5346   5347
5348   5349   5350   5351
5352   5353   5354   5355
5356   5357   5358   5359
5360   5361   5362   5363
5364   5365   5366   5367
5368   5369   5370   5371
5372   5373   5374   5375
5376   5377   5378   5379
5380   5381   5382   5383
5384   5385   5386   5387
5388   5389   5390   5391
5392   5393   5394   5395
5396   5397   5398   5399
5400   5401   5402   5403
5404   5405   5406   5407
5408   5409   5410   5411
5412   5413   5414   5415
5416   5417   5418   5419
5420   5421   5422   5423
5424   5425   5426   5427
5428   5429   5430   5431
5432   5433   5434   5435
5436   5437   5438   5439
5440   5441   5442   5443
5444   5445   5446   5447
5448   5449   5450   5451
5452   5453   5454   5455
5456   5457   5458   5459
5460   5461   5462   5463
5464   5465   5466   5467
5468   5469   5470   5471
5472   5473   5474   5475
5476   5477   5478   5479
5480   5481   5482   5483
5484   5485   5486   5487
5488   5489   5490   5491
5492   5493   5494   5495
5496   5497   5498   5499
5500   5501   5502   5503
5504   5505   5506   5507
5508   5509   5510   5511
5512   5513   5514   5515
5516   5517   5518   5519
5520   5521   5522   5523
5524   5525   5526   5527
5528   5529   5530   5531
5532   5533   5534   5535
5536   5537   5538   5539
5540   5541   5542   5543
5544   5545   5546   5547
5548   5549   5550   5551
5552   5553   5554   5555
5556   5557   5558   5559
5560   5561   5562   5563
5564   5565   5566   5567
5568   5569   5570   5571
5572   5573   5574   5575
5576   5577   5578   5579
5580   5581   5582   5583
5584   5585   5586   5587
5588   5589   5590   5591
5592   5593   5594   5595
5596   5597   5598   5599
5600   5601   5602   5603
5604   5605   5606   5607
5608   5609   5610   5611
5612   5613   5614   5615
5616   5617   5618   5619
5620   5621   5622   5623
5624   5625   5626   5627
5628   5629   5630   5631
5632   5633   5634   5635
5636   5637   5638   5639
5640   5641   5642   5643
5644   5645   5646   5647
5648   5649   5650   5651
5652   5653   5654   5655
5656   5657   5658   5659
5660   5661   5662   5663
5664   5665   5666   5667
5668   5669   5670   5671
5672   5673   5674   5675
5676   5677   5678   5679
5680   5681   5682   5683
5684   5685   5686   5687
5688   5689   5690   5691
5692   5693   5694   5695
5696   5697   5698   5699
5700   5701   5702   5703
5704   5705   5706   5707
5708   5709   5710   5711
5712   5713   5714   5715
5716   5717   5718   5719
5720   5721   5722   5723
5724   5725   5726   5727
5728   5729   5730   5731
5732   5733   5734   5735
5736   5737   5738   5739
5740   5741   5742   5743
5744   5745   5746   5747
5748   5749   5750   5751
5752   5753   5754   5755
5756   5757   5758   5759
5760   5761   5762   5763
5764   5765   5766   5767
5768   5769   5770   5771
5772   5773   5774   5775
5776   5777   5778   5779
5780   5781   5782   5783
5784   5785   5786   5787
5788   5789   5790   5791
5792   5793   5794   5795
5796   5797   5798   5799
5800   5801   5802   5803
5804   5805   5806   5807
5808   5809   5810   5811
5812   5813   5814   5815
5816   5817   5818   5819
5820   5821   5822   5823
5824   5825   5826   5827
5828   5829   5830   5831
5832   5833   5834   5835
5836   5837   5838   5839
5840   5841   5842   5843
5844   5845   5846   5847
5848   5849   5850   5851
5852   5853   5854   5855
5856   5857   5858   5859
5860   5861   5862   5863
5864   5865   5866   5867
5868   5869   5870   5871
5872   5873   5874   5875
5876   5877   5878   5879
5880   5881   5882   5883
5884   5885   5886   5887
5888   5889   5890   5891
5892   5893   5894   5895
5896   5897   5898   5899
5900   5901   5902   5903
5904   5905   5906   5907
5908   5909   5910   5911
5912   5913   5914   5915
5916   5917   5918   5919
5920   5921   5922   5923
5924   5925   5926   5927
5928   5929   5930   5931
5932   5933   5934   5935
5936   5937   5938   5939
5940   5941   5942   5943
5944   5945   5946   5947
5948   5949   5950   5951
5952   5953   5954   5955
5956   5957   5958   5959
5960   5961   5962   5963
5964   5965   5966   5967
5968   5969   5970   5971
5972   5973   5974   5975
5976   5977   5978   5979
5980   5981   5982   5983
5984   5985   5986   5987
5988   5989   5990   5991
5992   5993   5994   5995
5996   5997   5998   5999
              </DataArray>   
              <DataArray type="Int32" Name="offsets" format="ascii">   
4
8
12
16
20
24
28
32
36
40
44
48
52
56
60
64
68
72
76
80
84
88
92
96
100
104
108
112
116
120
124
128
132
136
140
144
148
152
156
160
164
168
172
176
180
184
188
192
196
200
204
208
212
216
220
224
228
232
236
240
244
248
252
256
260
264
268
272
276
280
284
288
292
296
300
304
308
312
316
320
324
328
332
336
340
344
348
352
356
360
364
368
372
376
380
384
388
392
396
400
404
408
412
416
420
424
428
432
436
440
444
448
452
456
460
464
468
472
476
480
484
488
492
496
500
504
508
512
516
520
524
528
532
536
540
544
548
552
556
560
564
568
572
576
580
584
588
592
596
600
604
608
612
616
620
624
628
632
636
640
644
648
652
656
660
664
668
672
676
680
684
688
692
696
700
704
708
712
716
720
724
728
732
736
740
744
748
752
756
760
764
768
772
776
780
784
788
792
796
800
804
808
812
816
820
824
828
832
836
840
844
848
852
856
860
864
868
872
876
880
884
888
892
896
900
904
908
912
916
920
924
928
932
936
940
944
948
952
956
960
964
968
972
976
980
984
988
992
996
1000
1004
1008
1012
1016
1020
1024
1028
1032
1036
1040
1044
1048
1052
1056
1060
1064
1068
1072
1076
1080
1084
1088
1092
1096
1100
1104
1108
1112
1116
1120
1124
1128
1132
1136
1140
1144
1148
1152
1156
1160
1164
1168
1172
1176
1180
1184
1188
1192
1196
1200
1204
1208
1212
1216
1220
1224
1228
1232
1236
1240
1244
1248
1252
1256
1260
1264
1268
1272
1276
1280
1284
1288
1292
1296
1300
1304
1308
1312
1316
1320
1324
1328
1332
1336
1340
1344
1348
1352
1356
1360
1364
1368
1372
1376
1380
1384
1388
1392
1396
1400
1404
1408
1412
1416
1420
1424
1428
1432
1436
1440
1444
1448
1452
1456
1460
1464
1468
1472
1476
1480
1484
1488
1492
1496
1500
1504
1508
1512
1516
1520
1524
1528
1532
1536
1540
1544
1548
1552
1556
1560
1564
1568
1572
1576
1580
1584
1588
1592
1596
1600
1604
1608
1612
1616
1620
1624
1628
1632
1636
1640
1644
1648
1652
1656
1660
1664
1668
1672
1676
1680
1684
1688
1692
1696
1700
1704
1708
1712
1716
1720
1724
1728
1732
1736
1740
1744
1748
1752
1756
1760
1764
1768
1772
1776
1780
1784
1788
1792
1796
1800
1804
1808
1812
1816
1820
1824
1828
1832
1836
1840
1844
1848
1852
1856
1860
1864
1868
1872
1876
1880
1884
1888
1892
1896
1900
1904
1908
1912
1916
1920
1924
1928
1932
1936
1940
1944
1948
1952
1956
1960
1964
1968
1972
1976
1980
1984
1988
1992
1996
2000
2004
2008
2012
2016
2020
2024
2028
2032
2036
2040
2044
2048
2052
2056
2060
2064
2068
2072
2076
2080
2084
2088
2092
2096
2100
2104
2108
2112
2116
2120
2124
2128
2132
2136
2140
2144
2148
2152
2156
2160
2164
2168
2172
2176
2180
2184
2188
2192
2196
2200
2204
2208
2212
2216
2220
2224
2228
2232
2236
2240
2244
2248
2252
2256
2260
2264
2268
2272
2276
2280
2284
2288
2292
2296
2300
2304
2308
2312
2316
2320
2324
2328
2332
2336
2340
2344
2348
2352
2356
2360
2364
2368
2372
2376
2380
2384
2388
2392
2396
2400
2404
2408
2412
2416
2420
2424
2428
2432
2436
2440
2444
2448
2452
2456
2460
2464
2468
2472
2476
2480
2484
2488
2492
2496
2500
2504
2508
2512
2516
2520
2524
2528
2532
2536
2540
2544
2548
2552
2556
2560
2564
2568
2572
2576
2580
2584
2588
2592
2596
2600
2604
2608
2612
2616
2620
2624
2628
2632
2636
2640
2644
2648
2652
2656
2660
2664
2668
2672
2676
2680
2684
2688
2692
2696
2700
2704
2708
2712
2716
2720
2724
2728
2732
2736
2740
2744
2748
2752
2756
2760
2764
2768
2772
2776
2780
2784
2788
2792
2796
2800
2804
2808
2812
2816
2820
2824
2828
2832
2836
2840
2844
2848
2852
2856
2860
2864
2868
2872
2876
2880
2884
2888
2892
2896
2900
2904
2908
2912
2916
2920
2924
2928
2932
2936
2940
2944
2948
2952
2956
2960
2964
2968
2972
2976
2980
2984
2988
2992
2996
3000
3004
3008
3012
3016
3020
3024
3028
3032
3036
3040
3044
3048
3052
3056
3060
3064
3068
3072
3076
3080
3084
3088
3092
3096
3100
3104
3108
3112
3116
3120
3124
3128
3132
3136
3140
3144
3148
3152
3156
3160
3164
3168
3172
3176
3180
3184
3188
3192
3196
3200
3204
3208
3212
3216
3220
3224
3228
3232
3236
3240
3244
3248
3252
3256
3260
3264
3268
3272
3276
3280
3284
3288
3292
3296
3300
3304
3308
3312
3316
3320
3324
3328
3332
3336
3340
3344
3348
3352
3356
3360
3364
3368
3372
3376
3380
3384
3388
3392
3396
3400
3404
3408
3412
3416
3420
3424
3428
3432
3436
3440
3444
3448
3452
3456
3460
3464
3468
3472
3476
3480
3484
3488
3492
3496
3500
3504
3508
3512
3516
3520
3524
3528
3532
3536
3540
3544
3548
3552
3556
3560
3564
3568
3572
3576
3580
3584
3588
3592
3596
3600
3604
3608
3612
3616
3620
3624
3628
3632
3636
3640
3644
3648
3652
3656
3660
3664
3668
3672
3676
3680
3684
3688
3692
3696
3700
3704
3708
3712
3716
3720
3724
3728
3732
3736
3740
3744
3748
3752
3756
3760
3764
3768
3772
3776
3780
3784
3788
3792
3796
3800
3804
3808
3812
3816
3820
3824
3828
3832
3836
3840
3844
3848
3852
3856
3860
3864
3868
3872
3876
3880
3884
3888
3892
3896
3900
3904
3908
3912
3916
3920
3924
3928
3932
3936
3940
3944
3948
3952
3956
3960
3964
3968
3972
3976
3980
3984
3988
3992
3996
4000
4004
4008
4012
4016
4020
4024
4028
4032
4036
4040
4044
4048
4052
4056
4060
4064
4068
4072
4076
4080
4084
4088
4092
4096
4100
4104
4108
4112
4116
4120
4124
4128
4132
4136
4140
4144
4148
4152
4156
4160
4164
4168
4172
4176
4180
4184
4188
4192
4196
4200
4204
4208
4212
4216
4220
4224
4228
4232
4236
4240
4244
4248
4252
4256
4260
4264
4268
4272
4276
4280
4284
4288
4292
4296
4300
4304
4308
4312
4316
4320
4324
4328
4332
4336
4340
4344
4348
4352
4356
4360
4364
4368
4372
4376
4380
4384
4388
4392
4396
4400
4404
4408
4412
4416
4420
4424
4428
4432
4436
4440
4444
4448
4452
4456
4460
4464
4468
4472
4476
4480
4484
4488
4492
4496
4500
4504
4508
4512
4516
4520
4524
4528
4532
4536
4540
4544
4548
4552
4556
4560
4564
4568
4572
4576
4580
4584
4588
4592
4596
4600
4604
4608
4612
4616
4620
4624
4628
4632
4636
4640
4644
4648
4652
4656
4660
4664
4668
4672
4676
4680
4684
4688
4692
4696
4700
4704
4708
4712
4716
4720
4724
4728
4732
4736
4740
4744
4748
4752
4756
4760
4764
4768
4772
4776
4780
4784
4788
4792
4796
4800
4804
4808
4812
4816
4820
4824
4828
4832
4836
4840
4844
4848
4852
4856
4860
4864
4868
4872
4876
4880
4884
4888
4892
4896
4900
4904
4908
4912
4916
4920
4924
4928
4932
4936
4940
4944
4948
4952
4956
4960
4964
4968
4972
4976
4980
4984
4988
4992
4996
5000
5004
5008
5012
5016
5020
5024
5028
5032
5036
5040
5044
5048
5052
5056
5060
5064
5068
5072
5076
5080
5084
5088
5092
5096
5100
5104
5108
5112
5116
5120
5124
5128
5132
5136
5140
5144
5148
5152
5156
5160
5164
5168
5172
5176
5180
5184
5188
5192
5196
5200
5204
5208
5212
5216
5220
5224
5228
5232
5236
5240
5244
5248
5252
5256
5260
5264
5268
5272
5276
5280
5284
5288
5292
5296
5300
5304
5308
5312
5316
5320
5324
5328
5332
5336
5340
5344
5348
5352
5356
5360
5364
5368
5372
5376
5380
5384
5388
5392
5396
5400
5404
5408
5412
5416
5420
5424
5428
5432
5436
5440
5444
5448
5452
5456
5460
5464
5468
5472
5476
5480
5484
5488
5492
5496
5500
5504
5508
5512
5516
5520
5524
5528
5532
5536
5540
5544
5548
5552
5556
5560
5564
5568
5572
5576
5580
5584
5588
5592
5596
5600
5604
5608
5612
5616
5620
5624
5628
5632
5636
5640
5644
5648
5652
5656
5660
5664
5668
5672
5676
5680
5684
5688
5692
5696
5700
5704
5708
5712
5716
5720
5724
5728
5732
5736
5740
5744
5748
5752
5756
5760
5764
5768
5772
5776
5780
5784
5788
5792
5796
5800
5804
5808
5812
5816
5820
5824
5828
5832
5836
5840
5844
5848
5852
5856
5860
5864
5868
5872
5876
5880
5884
5888
5892
5896
5900
5904
5908
5912
5916
5920
5924
5928
5932
5936
5940
5944
5948
5952
5956
5960
5964
5968
5972
5976
5980
5984
5988
5992
5996
6000
              </DataArray>   
              <DataArray type="UInt8" Name="types" format="ascii">   
10
10
10
10
10
10
10
10
10
10
10
10
10
10
10
10
10
10
10
10
10
10
10
10
10
10
10
10
10
10
10
10
10
10
10
10
10
10
10
10
10
10
10
10
10
10
10
10
10
10
10
10
10
10
10
10
10
10
10
10
10
10
10
10
10
10
10
10
10
10
10
10
10
10
10
10
10
10
10
10
10
10
10
10
10
10
10
10
10
10
10
10
10
10
10
10
10
10
10
10
10
10
10
10
10
10
10
10
10
10
10
10
10
10
10
10
10
10
10
10
10
10
10
10
10
10
10
10
10
10
10
10
10
10
10
10
10
10
10
10
10
10
10
10
10
10
10
10
10
10
10
10
10
10
10
10
10
10
10
10
10
10
10
10
10
10
10
10
10
10
10
10
10
10
10
10
10
10
10
10
10
10
10
10
10
10
10
10
10
10
10
10
10
10
10
10
10
10
10
10
10
10
10
10
10
10
10
10
10
10
10
10
10
10
10
10
10
10
10
10
10
10
10
10
10
10
10
10
10
10
10
10
10
10
10
10
10
10
10
10
10
10
10
10
10
10
10
10
10
10
10
10
10
10
10
10
10
10
10
10
10
10
10
10
10
10
10
10
10
10
10
10
10
10
10
10
10
10
10
10
10
10
10
10
10
10
10
10
10
10
10
10
10
10
10
10
10
10
10
10
10
10
10
10
10
10
10
10
10
10
10
10
10
10
10
10
10
10
10
10
10
10
10
10
10
10
10
10
10
10
10
10
10
10
10
10
10
10
10
10
10
10
10
10
10
10
10
10
10
10
10
10
10
10
10
10
10
10
10
10
10
10
10
10
10
10
10
10
10
10
10
10
10
10
10
10
10
10
10
10
10
10
10
10
10
10
10
10
10
10
10
10
10
10
10
10
10
10
10
10
10
10
10
10
10
10
10
10
10
10
10
10
10
10
10
10
10
10
10
10
10
10
10
10
10
10
10
10
10
10
10
10
10
10
10
10
10
10
10
10
10
10
10
10
10
10
10
10
10
10
10
10
10
10
10
10
10
10
10
10
10
10
10
10
10
10
10
10
10
10
10
10
10
10
10
10
10
10
10
10
10
10
10
10
10
10
10
10
10
10
10
10
10
10
10
10
10
10
10
10
10
10
10
10
10
10
10
10
10
10
10
10
10
10
10
10
10
10
10
10
10
10
10
10
10
10
10
10
10
10
10
10
10
10
10
10
10
10
10
10
10
10
10
10
10
10
10
10
10
10
10
10
10
10
10
10
10
10
10
10
10
10
10
10
10
10
10
10
10
10
10
10
10
10
10
10
10
10
10
10
10
10
10
10
10
10
10
10
10
10
10
10
10
10
10
10
10
10
10
10
10
10
10
10
10
10
10
10
10
10
10
10
10
10
10
10
10
10
10
10
10
10
10
10
10
10
10
10
10
10
10
10
10
10
10
10
10
10
10
10
10
10
10
10
10
10
10
10
10
10
10
10
10
10
10
10
10
10
10
10
10
10
10
10
10
10
10
10
10
10
10
10
10
10
10
10
10
10
10
10
10
10
10
10
10
10
10
10
10
10
10
10
10
10
10
10
10
10
10
10
10
10
10
10
10
10
10
10
10
10
10
10
10
10
10
10
10
10
10
10
10
10
10
10
10
10
10
10
10
10
10
10
10
10
10
10
10
10
10
10
10
10
10
10
10
10
10
10
10
10
10
10
10
10
10
10
10
10
10
10
10
10
10
10
10
10
10
10
10
10
10
10
10
10
10
10
10
10
10
10
10
10
10
10
10
10
10
10
10
10
10
10
10
10
10
10
10
10
10
10
10
10
10
10
10
10
10
10
10
10
10
10
10
10
10
10
10
10
10
10
10
10
10
10
10
10
10
10
10
10
10
10
10
10
10
10
10
10
10
10
10
10
10
10
10
10
10
10
10
10
10
10
10
10
10
10
10
10
10
10
10
10
10
10
10
10
10
10
10
10
10
10
10
10
10
10
10
10
10
10
10
10
10
10
10
10
10
10
10
10
10
10
10
10
10
10
10
10
10
10
10
10
10
10
10
10
10
10
10
10
10
10
10
10
10
10
10
10
10
10
10
10
10
10
10
10
10
10
10
10
10
10
10
10
10
10
10
10
10
10
10
10
10
10
10
10
10
10
10
10
10
10
10
10
10
10
10
10
10
10
10
10
10
10
10
10
10
10
10
10
10
10
10
10
10
10
10
10
10
10
10
10
10
10
10
10
10
10
10
10
10
10
10
10
10
10
10
10
10
10
10
10
10
10
10
10
10
10
10
10
10
10
10
10
10
10
10
10
10
10
10
10
10
10
10
10
10
10
10
10
10
10
10
10
10
10
10
10
10
10
10
10
10
10
10
10
10
10
10
10
10
10
10
10
10
10
10
10
10
10
10
10
10
10
10
10
10
10
10
10
10
10
10
10
10
10
10
10
10
10
10
10
10
10
10
10
10
10
10
10
10
10
10
10
10
10
10
10
10
10
10
10
10
10
10
10
10
10
10
10
10
10
10
10
10
10
10
10
10
10
10
10
10
10
10
10
10
10
10
10
10
10
10
10
10
10
10
10
10
10
10
10
10
10
10
10
10
10
10
10
10
10
10
10
10
10
10
10
10
10
10
10
10
10
10
10
10
10
10
10
10
10
10
10
10
10
10
10
10
10
10
10
10
10
10
10
10
10
10
10
10
10
10
10
10
10
10
10
10
10
10
10
10
10
10
10
10
10
10
10
10
10
10
10
10
10
10
10
10
10
10
10
10
10
10
10
10
10
10
10
10
10
10
10
10
10
10
10
10
10
10
10
10
10
10
10
10
10
10
10
10
10
10
10
10
10
10
10
10
10
10
10
10
10
10
10
10
10
10
10
10
10
10
10
10
10
10
10
10
10
10
10
10
10
10
10
10
10
10
10
10
10
10
10
10
10
10
10
10
10
10
10
10
10
10
10
10
10
10
10
10
10
10
10
10
10
10
10
10
10
10
10
10
10
10
10
10
10
10
10
10
10
10
10
10
10
10
10
10
10
10
10
10
10
10
10
10
10
10
10
10
10
10
10
10
10
10
10
10
10
10
10
10
10
10
10
10
10
10
10
10
10
10
10
10
10
10
10
10
10
10
10
10
10
10
10
10
10
10
10
10
10
10
10
10
10
10
10
10
10
10
10
10
10
10
10
10
10
10
10
10
10
10
10
10
10
10
10
10
10
10
10
10
10
10
10
10
10
10
10
10
10
10
10
10
10
10
10
10
10
10
10
10
10
10
10
10
10
10
10
10
10
10
10
10
10
10
10
10
10
10
10
10
10
10
10
10
10
10
10
10
10
10
10
10
10
10
10
10
10
10
10
10
10
10
10
10
10
10
10
10
10
10
10
10
10
10
10
10
10
              </DataArray>   
          </Cells>  
          <PointData>  
             <DataArray type="Float64" NumberOfComponents="3" Name="Strains" format="ascii">   
-0.00043859602292464826   0.0   -0.000286897977688704
-0.00043859602292464826   0.0   -0.000286897977688704
-0.00043859602292464826   0.0   -0.000286897977688704
-0.00043859602292464826   0.0   -0.000286897977688704
-0.00027918145377644224   4.871453087866757e-05   8.02168941883922e-06
-0.00027918145377644224   4.871453087866757e-05   8.02168941883922e-06
-0.00027918145377644224   4.871453087866757e-05   8.02168941883922e-06
-0.00027918145377644224   4.871453087866757e-05   8.02168941883922e-06
-0.00027372619278368936   0.0   -0.0002706495298864339
-0.00027372619278368936   0.0   -0.0002706495298864339
-0.00027372619278368936   0.0   -0.0002706495298864339
-0.00027372619278368936   0.0   -0.0002706495298864339
-0.00045909316632131305   5.8399561995482806e-05   3.2556888123170483e-06
-0.00045909316632131305   5.8399561995482806e-05   3.2556888123170483e-06
-0.00045909316632131305   5.8399561995482806e-05   3.2556888123170483e-06
-0.00045909316632131305   5.8399561995482806e-05   3.2556888123170483e-06
-0.0003561611078541682   1.3540373168558428e-05   -0.00014138222867010288
-0.0003561611078541682   1.3540373168558428e-05   -0.00014138222867010288
-0.0003561611078541682   1.3540373168558428e-05   -0.00014138222867010288
-0.0003561611078541682   1.3540373168558428e-05   -0.00014138222867010288
-0.0004590931663213138   0.0   -0.0003056892670837237
-0.0004590931663213138   0.0   -0.0003056892670837237
-0.0004590931663213138   0.0   -0.0003056892670837237
-0.0004590931663213138   0.0   -0.0003056892670837237
-0.00027372619278368936   5.839956199548297e-05   3.829542600960686e-05
-0.00027372619278368936   5.839956199548297e-05   3.829542600960686e-05
-0.00027372619278368936   5.839956199548297e-05   3.829542600960686e-05
-0.00027372619278368936   5.839956199548297e-05   3.829542600960686e-05
-0.0002745695650677252   0.0   -0.0002772933018463136
-0.0002745695650677252   0.0   -0.0002772933018463136
-0.0002745695650677252   0.0   -0.0002772933018463136
-0.0002745695650677252   0.0   -0.0002772933018463136
-0.00047352089495098344   6.254988651664564e-05   1.6762316049130687e-05
-0.00047352089495098344   6.254988651664564e-05   1.6762316049130687e-05
-0.00047352089495098344   6.254988651664564e-05   1.6762316049130687e-05
-0.00047352089495098344   6.254988651664564e-05   1.6762316049130687e-05
-0.0003668313656945189   2.366330436450839e-05   -0.00013772161675369439
-0.0003668313656945189   2.366330436450839e-05   -0.00013772161675369439
-0.0003668313656945189   2.366330436450839e-05   -0.00013772161675369439
-0.0003668313656945189   2.366330436450839e-05   -0.00013772161675369439
-0.00047352089495098426   0.0   -0.000314823233756301
-0.00047352089495098426   0.0   -0.000314823233756301
-0.00047352089495098426   0.0   -0.000314823233756301
-0.00047352089495098426   0.0   -0.000314823233756301
-0.0002745695650677252   6.254988651664575e-05   5.429224795911819e-05
-0.0002745695650677252   6.254988651664575e-05   5.429224795911819e-05
-0.0002745695650677252   6.254988651664575e-05   5.429224795911819e-05
-0.0002745695650677252   6.254988651664575e-05   5.429224795911819e-05
-0.0002745057509992692   0.0   -0.0002789892247168225
-0.0002745057509992692   0.0   -0.0002789892247168225
-0.0002745057509992692   0.0   -0.0002789892247168225
-0.0002745057509992692   0.0   -0.0002789892247168225
-0.0005045313245919208   7.120579607659204e-05   6.166325362497616e-05
-0.0005045313245919208   7.120579607659204e-05   6.166325362497616e-05
-0.0005045313245919208   7.120579607659204e-05   6.166325362497616e-05
-0.0005045313245919208   7.120579607659204e-05   6.166325362497616e-05
-0.0003740133229751261   2.9861674199565375e-05   -0.00013106027594346557
-0.0003740133229751261   2.9861674199565375e-05   -0.00013106027594346557
-0.0003740133229751261   2.9861674199565375e-05   -0.00013106027594346557
-0.0003740133229751261   2.9861674199565375e-05   -0.00013106027594346557
-0.00027918145377644273   0.0   -0.0002576692591615035
-0.00027918145377644273   0.0   -0.0002576692591615035
-0.00027918145377644273   0.0   -0.0002576692591615035
-0.00027918145377644273   0.0   -0.0002576692591615035
-0.00012705815636901812   1.7890982143389897e-05   6.6041591369046424e-06
-0.00012705815636901812   1.7890982143389897e-05   6.6041591369046424e-06
-0.00012705815636901812   1.7890982143389897e-05   6.6041591369046424e-06
-0.00012705815636901812   1.7890982143389897e-05   6.6041591369046424e-06
-0.00012227234202767258   0.0   -0.00025539180386797197
-0.00012227234202767258   0.0   -0.00025539180386797197
-0.00012227234202767258   0.0   -0.00025539180386797197
-0.00012227234202767258   0.0   -0.00025539180386797197
-0.00027372619278368936   2.5429543364103213e-05   -1.8226445293072636e-05
-0.00027372619278368936   2.5429543364103213e-05   -1.8226445293072636e-05
-0.00027372619278368936   2.5429543364103213e-05   -1.8226445293072636e-05
-0.00027372619278368936   2.5429543364103213e-05   -1.8226445293072636e-05
-0.00020072689790205731   1.897879411276275e-06   -0.00012577293839076227
-0.00020072689790205731   1.897879411276275e-06   -0.00012577293839076227
-0.00020072689790205731   1.897879411276275e-06   -0.00012577293839076227
-0.00020072689790205731   1.897879411276275e-06   -0.00012577293839076227
-0.00027372619278368915   0.0   -0.00027064952988643364
-0.00027372619278368915   0.0   -0.00027064952988643364
-0.00027372619278368915   0.0   -0.00027064952988643364
-0.00027372619278368915   0.0   -0.00027064952988643364
-0.00012227234202767258   2.5429543364103213e-05   -2.9687192746106594e-06
-0.00012227234202767258   2.5429543364103213e-05   -2.9687192746106594e-06
-0.00012227234202767258   2.5429543364103213e-05   -2.9687192746106594e-06
-0.00012227234202767258   2.5429543364103213e-05   -2.9687192746106594e-06
-0.00011961367439783132   0.0   -0.00025861242895247616
-0.00011961367439783132   0.0   -0.00025861242895247616
-0.00011961367439783132   0.0   -0.00025861242895247616
-0.00011961367439783132   0.0   -0.00025861242895247616
-0.0002745695650677252   3.113478815639566e-05   -1.9033484063157185e-05
-0.0002745695650677252   3.113478815639566e-05   -1.9033484063157185e-05
-0.0002745695650677252   3.113478815639566e-05   -1.9033484063157185e-05
-0.0002745695650677252   3.113478815639566e-05   -1.9033484063157185e-05
-0.00019666993359075994   1.0030917444964763e-05   -0.00013620388076457287
-0.00019666993359075994   1.0030917444964763e-05   -0.00013620388076457287
-0.00019666993359075994   1.0030917444964763e-05   -0.00013620388076457287
-0.00019666993359075994   1.0030917444964763e-05   -0.00013620388076457287
-0.0002745695650677252   0.0   -0.0002772933018463136
-0.0002745695650677252   0.0   -0.0002772933018463136
-0.0002745695650677252   0.0   -0.0002772933018463136
-0.0002745695650677252   0.0   -0.0002772933018463136
-0.00011961367439783132   3.113478815639566e-05   -3.526111693197829e-07
-0.00011961367439783132   3.113478815639566e-05   -3.526111693197829e-07
-0.00011961367439783132   3.113478815639566e-05   -3.526111693197829e-07
-0.00011961367439783132   3.113478815639566e-05   -3.526111693197829e-07
-0.00011720454679101393   0.0   -0.0002572620127229903
-0.00011720454679101393   0.0   -0.0002572620127229903
-0.00011720454679101393   0.0   -0.0002572620127229903
-0.00011720454679101393   0.0   -0.0002572620127229903
-0.0002745057509992685   3.6212019989719933e-05   -1.6820551036396923e-05
-0.0002745057509992685   3.6212019989719933e-05   -1.6820551036396923e-05
-0.0002745057509992685   3.6212019989719933e-05   -1.6820551036396923e-05
-0.0002745057509992685   3.6212019989719933e-05   -1.6820551036396923e-05
-0.00019588705592936948   1.669274093610252e-05   -0.0001361401420540592
-0.00019588705592936948   1.669274093610252e-05   -0.0001361401420540592
-0.00019588705592936948   1.669274093610252e-05   -0.0001361401420540592
-0.00019588705592936948   1.669274093610252e-05   -0.0001361401420540592
-0.00012705815636901834   0.0   -0.0002469346698754695
-0.00012705815636901834   0.0   -0.0002469346698754695
-0.00012705815636901834   0.0   -0.0002469346698754695
-0.00012705815636901834   0.0   -0.0002469346698754695
1.6730816929054376e-05   -2.2737272062476493e-06   -8.650617369096668e-06
1.6730816929054376e-05   -2.2737272062476493e-06   -8.650617369096668e-06
1.6730816929054376e-05   -2.2737272062476493e-06   -8.650617369096668e-06
1.6730816929054376e-05   -2.2737272062476493e-06   -8.650617369096668e-06
1.9752489028703064e-05   0.0   -0.00025269166478331383
1.9752489028703064e-05   0.0   -0.00025269166478331383
1.9752489028703064e-05   0.0   -0.00025269166478331383
1.9752489028703064e-05   0.0   -0.00025269166478331383
-0.00012227234202767236   4.500231807762114e-06   -1.8683752107345747e-05
-0.00012227234202767236   4.500231807762114e-06   -1.8683752107345747e-05
-0.00012227234202767236   4.500231807762114e-06   -1.8683752107345747e-05
-0.00012227234202767236   4.500231807762114e-06   -1.8683752107345747e-05
-5.3652833670157404e-05   -4.7974957565376166e-06   -0.00012747096283129036
-5.3652833670157404e-05   -4.7974957565376166e-06   -0.00012747096283129036
-5.3652833670157404e-05   -4.7974957565376166e-06   -0.00012747096283129036
-5.3652833670157404e-05   -4.7974957565376166e-06   -0.00012747096283129036
-0.00012227234202767258   0.0   -0.00025539180386797197
-0.00012227234202767258   0.0   -0.00025539180386797197
-0.00012227234202767258   0.0   -0.00025539180386797197
-0.00012227234202767258   0.0   -0.00025539180386797197
1.9752489028703098e-05   4.500231807762114e-06   -1.5983613022688485e-05
1.9752489028703098e-05   4.500231807762114e-06   -1.5983613022688485e-05
1.9752489028703098e-05   4.500231807762114e-06   -1.5983613022688485e-05
1.9752489028703098e-05   4.500231807762114e-06   -1.5983613022688485e-05
2.2127944825805088e-05   0.0   -0.0002523356355128678
2.2127944825805088e-05   0.0   -0.0002523356355128678
2.2127944825805088e-05   0.0   -0.0002523356355128678
2.2127944825805088e-05   0.0   -0.0002523356355128678
-0.00011961367439783091   1.0461322399346444e-05   -2.2376396913082077e-05
-0.00011961367439783091   1.0461322399346444e-05   -2.2376396913082077e-05
-0.00011961367439783091   1.0461322399346444e-05   -2.2376396913082077e-05
-0.00011961367439783091   1.0461322399346444e-05   -2.2376396913082077e-05
-5.0072198600933636e-05   2.5468069625863784e-06   -0.0001335301473125217
-5.0072198600933636e-05   2.5468069625863784e-06   -0.0001335301473125217
-5.0072198600933636e-05   2.5468069625863784e-06   -0.0001335301473125217
-5.0072198600933636e-05   2.5468069625863784e-06   -0.0001335301473125217
-0.00011961367439783132   0.0   -0.00025861242895247616
-0.00011961367439783132   0.0   -0.00025861242895247616
-0.00011961367439783132   0.0   -0.00025861242895247616
-0.00011961367439783132   0.0   -0.00025861242895247616
2.2127944825805125e-05   1.0461322399346498e-05   -1.609960347347424e-05
2.2127944825805125e-05   1.0461322399346498e-05   -1.609960347347424e-05
2.2127944825805125e-05   1.0461322399346498e-05   -1.609960347347424e-05
2.2127944825805125e-05   1.0461322399346498e-05   -1.609960347347424e-05
2.5347838921780764e-05   0.0   -0.0002468399943079142
2.5347838921780764e-05   0.0   -0.0002468399943079142
2.5347838921780764e-05   0.0   -0.0002468399943079142
2.5347838921780764e-05   0.0   -0.0002468399943079142
-0.00011720454679101362   1.737003069179308e-05   -1.9674703201665803e-05
-0.00011720454679101362   1.737003069179308e-05   -1.9674703201665803e-05
-0.00011720454679101362   1.737003069179308e-05   -1.9674703201665803e-05
-0.00011720454679101362   1.737003069179308e-05   -1.9674703201665803e-05
-4.713291773802518e-05   9.810362203801283e-06   -0.00013192495053051832
-4.713291773802518e-05   9.810362203801283e-06   -0.00013192495053051832
-4.713291773802518e-05   9.810362203801283e-06   -0.00013192495053051832
-4.713291773802518e-05   9.810362203801283e-06   -0.00013192495053051832
1.6730816929054403e-05   0.0   -0.0002482989061992181
1.6730816929054403e-05   0.0   -0.0002482989061992181
1.6730816929054403e-05   0.0   -0.0002482989061992181
1.6730816929054403e-05   0.0   -0.0002482989061992181
0.0001727508128549291   -2.0261529566612067e-05   -4.224973960606764e-07
0.0001727508128549291   -2.0261529566612067e-05   -4.224973960606764e-07
0.0001727508128549291   -2.0261529566612067e-05   -4.224973960606764e-07
0.0001727508128549291   -2.0261529566612067e-05   -4.224973960606764e-07
0.00017296564070102088   0.0   -0.0002618684500631867
0.00017296564070102088   0.0   -0.0002618684500631867
0.00017296564070102088   0.0   -0.0002618684500631867
0.00017296564070102088   0.0   -0.0002618684500631867
1.9752489028703132e-05   -1.5294642133120066e-05   2.663588003881518e-06
1.9752489028703132e-05   -1.5294642133120066e-05   2.663588003881518e-06
1.9752489028703132e-05   -1.5294642133120066e-05   2.663588003881518e-06
1.9752489028703132e-05   -1.5294642133120066e-05   2.663588003881518e-06
9.484822881503763e-05   -1.1307953219973852e-05   -0.0001248879916545636
9.484822881503763e-05   -1.1307953219973852e-05   -0.0001248879916545636
9.484822881503763e-05   -1.1307953219973852e-05   -0.0001248879916545636
9.484822881503763e-05   -1.1307953219973852e-05   -0.0001248879916545636
1.9752489028703132e-05   0.0   -0.0002526916647833147
1.9752489028703132e-05   0.0   -0.0002526916647833147
1.9752489028703132e-05   0.0   -0.0002526916647833147
1.9752489028703132e-05   0.0   -0.0002526916647833147
0.00017296564070102088   -1.5294642133120066e-05   -6.513197275990503e-06
0.00017296564070102088   -1.5294642133120066e-05   -6.513197275990503e-06
0.00017296564070102088   -1.5294642133120066e-05   -6.513197275990503e-06
0.00017296564070102088   -1.5294642133120066e-05   -6.513197275990503e-06
0.00017214526660670702   0.0   -0.00025812840584546687
0.00017214526660670702   0.0   -0.00025812840584546687
0.00017214526660670702   0.0   -0.00025812840584546687
0.00017214526660670702   0.0   -0.00025812840584546687
2.2127944825805125e-05   -9.654617220997673e-06   -2.3067658780317787e-06
2.2127944825805125e-05   -9.654617220997673e-06   -2.3067658780317787e-06
2.2127944825805125e-05   -9.654617220997673e-06   -2.3067658780317787e-06
2.2127944825805125e-05   -9.654617220997673e-06   -2.3067658780317787e-06
9.594887781770508e-05   -4.530617551793488e-06   -0.00012841605399938744
9.594887781770508e-05   -4.530617551793488e-06   -0.00012841605399938744
9.594887781770508e-05   -4.530617551793488e-06   -0.00012841605399938744
9.594887781770508e-05   -4.530617551793488e-06   -0.00012841605399938744
2.2127944825805108e-05   0.0   -0.00025233563551286804
2.2127944825805108e-05   0.0   -0.00025233563551286804
2.2127944825805108e-05   0.0   -0.00025233563551286804
2.2127944825805108e-05   0.0   -0.00025233563551286804
0.00017214526660670702   -9.654617220997673e-06   -8.099536210630386e-06
0.00017214526660670702   -9.654617220997673e-06   -8.099536210630386e-06
0.00017214526660670702   -9.654617220997673e-06   -8.099536210630386e-06
0.00017214526660670702   -9.654617220997673e-06   -8.099536210630386e-06
0.00017540272956333584   0.0   -0.00024808249418241645
0.00017540272956333584   0.0   -0.00024808249418241645
0.00017540272956333584   0.0   -0.00024808249418241645
0.00017540272956333584   0.0   -0.00024808249418241645
2.534783892178081e-05   -2.070833124169708e-06   3.2514900946770605e-06
2.534783892178081e-05   -2.070833124169708e-06   3.2514900946770605e-06
2.534783892178081e-05   -2.070833124169708e-06   3.2514900946770605e-06
2.534783892178081e-05   -2.070833124169708e-06   3.2514900946770605e-06
9.876533719457041e-05   3.5442844420431802e-06   -0.00012248007756636656
9.876533719457041e-05   3.5442844420431802e-06   -0.00012248007756636656
9.876533719457041e-05   3.5442844420431802e-06   -0.00012248007756636656
9.876533719457041e-05   3.5442844420431802e-06   -0.00012248007756636656
0.0001727508128549291   0.0   -0.0002604558239391853
0.0001727508128549291   0.0   -0.0002604558239391853
0.0001727508128549291   0.0   -0.0002604558239391853
0.0001727508128549291   0.0   -0.0002604558239391853
0.0003895213266842664   -5.1300755082240386e-05   7.004791272703474e-05
0.0003895213266842664   -5.1300755082240386e-05   7.004791272703474e-05
0.0003895213266842664   -5.1300755082240386e-05   7.004791272703474e-05
0.0003895213266842664   -5.1300755082240386e-05   7.004791272703474e-05
0.0003657034273931782   0.0   -0.0002880869844153821
0.0003657034273931782   0.0   -0.0002880869844153821
0.0003657034273931782   0.0   -0.0002880869844153821
0.0003657034273931782   0.0   -0.0002880869844153821
0.00017296564070102088   -4.3697557253659e-05   5.9361194423742096e-05
0.00017296564070102088   -4.3697557253659e-05   5.9361194423742096e-05
0.00017296564070102088   -4.3697557253659e-05   5.9361194423742096e-05
0.00017296564070102088   -4.3697557253659e-05   5.9361194423742096e-05
0.00026922712012405364   -2.3025967063497346e-05   -0.00011347755872874273
0.00026922712012405364   -2.3025967063497346e-05   -0.00011347755872874273
0.00026922712012405364   -2.3025967063497346e-05   -0.00011347755872874273
0.00026922712012405364   -2.3025967063497346e-05   -0.00011347755872874273
0.00017296564070102072   0.0   -0.0002618684500631865
0.00017296564070102072   0.0   -0.0002618684500631865
0.00017296564070102072   0.0   -0.0002618684500631865
0.00017296564070102072   0.0   -0.0002618684500631865
0.0003657034273931769   -4.369755725365889e-05   3.314266007154658e-05
0.0003657034273931769   -4.369755725365889e-05   3.314266007154658e-05
0.0003657034273931769   -4.369755725365889e-05   3.314266007154658e-05
0.0003657034273931769   -4.369755725365889e-05   3.314266007154658e-05
0.00035468409288540886   0.0   -0.0002820966259140441
0.00035468409288540886   0.0   -0.0002820966259140441
0.00035468409288540886   0.0   -0.0002820966259140441
0.00035468409288540886   0.0   -0.0002820966259140441
0.00017214526660670702   -3.994703344762865e-05   4.610297128570276e-05
0.00017214526660670702   -3.994703344762865e-05   4.610297128570276e-05
0.00017214526660670702   -3.994703344762865e-05   4.610297128570276e-05
0.00017214526660670702   -3.994703344762865e-05   4.610297128570276e-05
0.0002638248667932147   -1.6856813209047806e-05   -0.00012055049450162514
0.0002638248667932147   -1.6856813209047806e-05   -0.00012055049450162514
0.0002638248667932147   -1.6856813209047806e-05   -0.00012055049450162514
0.0002638248667932147   -1.6856813209047806e-05   -0.00012055049450162514
0.00017214526660670702   0.0   -0.00025812840584546687
0.00017214526660670702   0.0   -0.00025812840584546687
0.00017214526660670702   0.0   -0.00025812840584546687
0.00017214526660670702   0.0   -0.00025812840584546687
0.0003546840928854076   -3.9947033447628485e-05   2.213475121712555e-05
0.0003546840928854076   -3.9947033447628485e-05   2.213475121712555e-05
0.0003546840928854076   -3.9947033447628485e-05   2.213475121712555e-05
0.0003546840928854076   -3.9947033447628485e-05   2.213475121712555e-05
0.00033833503038131464   0.0   -0.0002667455726161571
0.00033833503038131464   0.0   -0.0002667455726161571
0.00033833503038131464   0.0   -0.0002667455726161571
0.00033833503038131464   0.0   -0.0002667455726161571
0.00017540272956333584   -3.110513072290182e-05   2.3471340514215843e-05
0.00017540272956333584   -3.110513072290182e-05   2.3471340514215843e-05
0.00017540272956333584   -3.110513072290182e-05   2.3471340514215843e-05
0.00017540272956333584   -3.110513072290182e-05   2.3471340514215843e-05
0.00025524014849401114   -7.180972308908919e-06   -0.00012394551941863861
0.00025524014849401114   -7.180972308908919e-06   -0.00012394551941863861
0.00025524014849401114   -7.180972308908919e-06   -0.00012394551941863861
0.00025524014849401114   -7.180972308908919e-06   -0.00012394551941863861
-0.00038125016772033423   4.871453087866741e-05   -0.0002495153290674729
-0.00038125016772033423   4.871453087866741e-05   -0.0002495153290674729
-0.00038125016772033423   4.871453087866741e-05   -0.0002495153290674729
-0.00038125016772033423   4.871453087866741e-05   -0.0002495153290674729
-0.00024412415802611083   4.385087334726019e-05   -2.3890174095944953e-05
-0.00024412415802611083   4.385087334726019e-05   -2.3890174095944953e-05
-0.00024412415802611083   4.385087334726019e-05   -2.3890174095944953e-05
-0.00024412415802611083   4.385087334726019e-05   -2.3890174095944953e-05
-0.00025030590923098356   5.839956199548275e-05   -0.00020949262517470728
-0.00025030590923098356   5.839956199548275e-05   -0.00020949262517470728
-0.00025030590923098356   5.839956199548275e-05   -0.00020949262517470728
-0.00025030590923098356   5.839956199548275e-05   -0.00020949262517470728
-0.0003854599320311624   5.259213323651835e-05   1.924853674763671e-05
-0.0003854599320311624   5.259213323651835e-05   1.924853674763671e-05
-0.0003854599320311624   5.259213323651835e-05   1.924853674763671e-05
-0.0003854599320311624   5.259213323651835e-05   1.924853674763671e-05
-0.00030280183628095   5.086429358463129e-05   -0.00011747825237825367
-0.00030280183628095   5.086429358463129e-05   -0.00011747825237825367
-0.00030280183628095   5.086429358463129e-05   -0.00011747825237825367
-0.00030280183628095   5.086429358463129e-05   -0.00011747825237825367
-0.0003854599320311624   5.839956199548275e-05   -0.00020600816791932865
-0.0003854599320311624   5.839956199548275e-05   -0.00020600816791932865
-0.0003854599320311624   5.839956199548275e-05   -0.00020600816791932865
-0.0003854599320311624   5.839956199548275e-05   -0.00020600816791932865
-0.0002503059092309845   5.259213323651878e-05   1.5764079492258296e-05
-0.0002503059092309845   5.259213323651878e-05   1.5764079492258296e-05
-0.0002503059092309845   5.259213323651878e-05   1.5764079492258296e-05
-0.0002503059092309845   5.259213323651878e-05   1.5764079492258296e-05
-0.0002516427135108924   6.254988651664548e-05   -0.00018830211872340112
-0.0002516427135108924   6.254988651664548e-05   -0.00018830211872340112
-0.0002516427135108924   6.254988651664548e-05   -0.00018830211872340112
-0.0002516427135108924   6.254988651664548e-05   -0.00018830211872340112
-0.0003882440461981128   5.6535799511338346e-05   4.2975221291816036e-05
-0.0003882440461981128   5.6535799511338346e-05   4.2975221291816036e-05
-0.0003882440461981128   5.6535799511338346e-05   4.2975221291816036e-05
-0.0003882440461981128   5.6535799511338346e-05   4.2975221291816036e-05
-0.00031175914459821073   5.636260366151196e-05   -8.439569719812412e-05
-0.00031175914459821073   5.636260366151196e-05   -8.439569719812412e-05
-0.00031175914459821073   5.636260366151196e-05   -8.439569719812412e-05
-0.00031175914459821073   5.636260366151196e-05   -8.439569719812412e-05
-0.0003882440461981121   6.254988651664548e-05   -0.00018469366652021672
-0.0003882440461981121   6.254988651664548e-05   -0.00018469366652021672
-0.0003882440461981121   6.254988651664548e-05   -0.00018469366652021672
-0.0003882440461981121   6.254988651664548e-05   -0.00018469366652021672
-0.0002516427135108929   5.6535799511338346e-05   3.9366769088631745e-05
-0.0002516427135108929   5.6535799511338346e-05   3.9366769088631745e-05
-0.0002516427135108929   5.6535799511338346e-05   3.9366769088631745e-05
-0.0002516427135108929   5.6535799511338346e-05   3.9366769088631745e-05
-0.00025025946761733663   7.120579607659187e-05   -0.0001389995318732528
-0.00025025946761733663   7.120579607659187e-05   -0.0001389995318732528
-0.00025025946761733663   7.120579607659187e-05   -0.0001389995318732528
-0.00025025946761733663   7.120579607659187e-05   -0.0001389995318732528
-0.00037758228908352275   5.965082243625415e-05   8.013815475459217e-05
-0.00037758228908352275   5.965082243625415e-05   8.013815475459217e-05
-0.00037758228908352275   5.965082243625415e-05   8.013815475459217e-05
-0.00037758228908352275   5.965082243625415e-05   8.013815475459217e-05
-0.0003037146350530283   6.179761501715346e-05   -4.426267751143811e-05
-0.0003037146350530283   6.179761501715346e-05   -4.426267751143811e-05
-0.0003037146350530283   6.179761501715346e-05   -4.426267751143811e-05
-0.0003037146350530283   6.179761501715346e-05   -4.426267751143811e-05
-0.00024412415802611083   1.7890982143389897e-05   -0.0002645856431542859
-0.00024412415802611083   1.7890982143389897e-05   -0.0002645856431542859
-0.00024412415802611083   1.7890982143389897e-05   -0.0002645856431542859
-0.00024412415802611083   1.7890982143389897e-05   -0.0002645856431542859
-0.00011556661133973307   2.0403145782173226e-05   -4.88157671603859e-05
-0.00011556661133973307   2.0403145782173226e-05   -4.88157671603859e-05
-0.00011556661133973307   2.0403145782173226e-05   -4.88157671603859e-05
-0.00011556661133973307   2.0403145782173226e-05   -4.88157671603859e-05
-0.00011836977721303661   2.542954336410316e-05   -0.0002642068925125564
-0.00011836977721303661   2.542954336410316e-05   -0.0002642068925125564
-0.00011836977721303661   2.542954336410316e-05   -0.0002642068925125564
-0.00011836977721303661   2.542954336410316e-05   -0.0002642068925125564
-0.00025030590923098356   2.844221663882043e-05   -4.612094311414101e-05
-0.00025030590923098356   2.844221663882043e-05   -4.612094311414101e-05
-0.00025030590923098356   2.844221663882043e-05   -4.612094311414101e-05
-0.00025030590923098356   2.844221663882043e-05   -4.612094311414101e-05
-0.00018158169094527782   2.2905675304364984e-05   -0.00015733938212297892
-0.00018158169094527782   2.2905675304364984e-05   -0.00015733938212297892
-0.00018158169094527782   2.2905675304364984e-05   -0.00015733938212297892
-0.00018158169094527782   2.2905675304364984e-05   -0.00015733938212297892
-0.0002503059092309834   2.542954336410316e-05   -0.00026601449647738613
-0.0002503059092309834   2.542954336410316e-05   -0.00026601449647738613
-0.0002503059092309834   2.542954336410316e-05   -0.00026601449647738613
-0.0002503059092309834   2.542954336410316e-05   -0.00026601449647738613
-0.00011836977721303683   2.844221663882043e-05   -4.43133391493109e-05
-0.00011836977721303683   2.844221663882043e-05   -4.43133391493109e-05
-0.00011836977721303683   2.844221663882043e-05   -4.43133391493109e-05
-0.00011836977721303683   2.844221663882043e-05   -4.43133391493109e-05
-0.00011928395129922772   3.113478815639555e-05   -0.0002592537525232621
-0.00011928395129922772   3.113478815639555e-05   -0.0002592537525232621
-0.00011928395129922772   3.113478815639555e-05   -0.0002592537525232621
-0.00011928395129922772   3.113478815639555e-05   -0.0002592537525232621
-0.0002516427135108924   3.5091618527085785e-05   -4.102991372623534e-05
-0.0002516427135108924   3.5091618527085785e-05   -4.102991372623534e-05
-0.0002516427135108924   3.5091618527085785e-05   -4.102991372623534e-05
-0.0002516427135108924   3.5091618527085785e-05   -4.102991372623534e-05
-0.0001830439103081673   2.9052174730524326e-05   -0.00015173758611950632
-0.0001830439103081673   2.9052174730524326e-05   -0.00015173758611950632
-0.0001830439103081673   2.9052174730524326e-05   -0.00015173758611950632
-0.0001830439103081673   2.9052174730524326e-05   -0.00015173758611950632
-0.0002516427135108924   3.113478815639555e-05   -0.00026162785074567617
-0.0002516427135108924   3.113478815639555e-05   -0.00026162785074567617
-0.0002516427135108924   3.113478815639555e-05   -0.00026162785074567617
-0.0002516427135108924   3.113478815639555e-05   -0.00026162785074567617
-0.00011928395129922816   3.5091618527086e-05   -3.8655815503821293e-05
-0.00011928395129922816   3.5091618527086e-05   -3.8655815503821293e-05
-0.00011928395129922816   3.5091618527086e-05   -3.8655815503821293e-05
-0.00011928395129922816   3.5091618527086e-05   -3.8655815503821293e-05
-0.00011903819633122024   3.621201998971988e-05   -0.00025658879875787774
-0.00011903819633122024   3.621201998971988e-05   -0.00025658879875787774
-0.00011903819633122024   3.621201998971988e-05   -0.00025658879875787774
-0.00011903819633122024   3.621201998971988e-05   -0.00025658879875787774
-0.00025025946761733647   4.224204569422494e-05   -4.150469537038718e-05
-0.00025025946761733647   4.224204569422494e-05   -4.150469537038718e-05
-0.00025025946761733647   4.224204569422494e-05   -4.150469537038718e-05
-0.00025025946761733647   4.224204569422494e-05   -4.150469537038718e-05
-0.00018416779815187584   3.461523414849865e-05   -0.00014708139088538647
-0.00018416779815187584   3.461523414849865e-05   -0.00014708139088538647
-0.00018416779815187584   3.461523414849865e-05   -0.00014708139088538647
-0.00018416779815187584   3.461523414849865e-05   -0.00014708139088538647
-0.00011556661133973288   -2.273727206247595e-06   -0.00027696888515326866
-0.00011556661133973288   -2.273727206247595e-06   -0.00027696888515326866
-0.00011556661133973288   -2.273727206247595e-06   -0.00027696888515326866
-0.00011556661133973288   -2.273727206247595e-06   -0.00027696888515326866
1.1376477842427421e-05   -5.964257155910944e-07   -6.439068895527401e-05
1.1376477842427421e-05   -5.964257155910944e-07   -6.439068895527401e-05
1.1376477842427421e-05   -5.964257155910944e-07   -6.439068895527401e-05
1.1376477842427421e-05   -5.964257155910944e-07   -6.439068895527401e-05
1.0810986202434688e-05   4.50023180776206e-06   -0.0002785371251970395
1.0810986202434688e-05   4.50023180776206e-06   -0.0002785371251970395
1.0810986202434688e-05   4.50023180776206e-06   -0.0002785371251970395
1.0810986202434688e-05   4.50023180776206e-06   -0.0002785371251970395
-0.00011836977721303661   6.808232054849152e-06   -6.462065298617201e-05
-0.00011836977721303661   6.808232054849152e-06   -6.462065298617201e-05
-0.00011836977721303661   6.808232054849152e-06   -6.462065298617201e-05
-0.00011836977721303661   6.808232054849152e-06   -6.462065298617201e-05
-5.325988368949761e-05   2.2565831555274073e-06   -0.00017040615285247797
-5.325988368949761e-05   2.2565831555274073e-06   -0.00017040615285247797
-5.325988368949761e-05   2.2565831555274073e-06   -0.00017040615285247797
-5.325988368949761e-05   2.2565831555274073e-06   -0.00017040615285247797
-0.00011836977721303661   4.500231807762114e-06   -0.00027992192534529147
-0.00011836977721303661   4.500231807762114e-06   -0.00027992192534529147
-0.00011836977721303661   4.500231807762114e-06   -0.00027992192534529147
-0.00011836977721303661   4.500231807762114e-06   -0.00027992192534529147
1.0810986202434688e-05   6.808232054849152e-06   -6.323585283791983e-05
1.0810986202434688e-05   6.808232054849152e-06   -6.323585283791983e-05
1.0810986202434688e-05   6.808232054849152e-06   -6.323585283791983e-05
1.0810986202434688e-05   6.808232054849152e-06   -6.323585283791983e-05
1.005307589407738e-05   1.0461322399346498e-05   -0.0002791293217140229
1.005307589407738e-05   1.0461322399346498e-05   -0.0002791293217140229
1.005307589407738e-05   1.0461322399346498e-05   -0.0002791293217140229
1.005307589407738e-05   1.0461322399346498e-05   -0.0002791293217140229
-0.00011928395129922772   1.4041683321015666e-05   -6.571582627818275e-05
-0.00011928395129922772   1.4041683321015666e-05   -6.571582627818275e-05
-0.00011928395129922772   1.4041683321015666e-05   -6.571582627818275e-05
-0.00011928395129922772   1.4041683321015666e-05   -6.571582627818275e-05
-5.429995657584924e-05   8.534629897305143e-06   -0.00017071825209625342
-5.429995657584924e-05   8.534629897305143e-06   -0.00017071825209625342
-5.429995657584924e-05   8.534629897305143e-06   -0.00017071825209625342
-5.429995657584924e-05   8.534629897305143e-06   -0.00017071825209625342
-0.00011928395129922772   1.0461322399346498e-05   -0.0002812775382670244
-0.00011928395129922772   1.0461322399346498e-05   -0.0002812775382670244
-0.00011928395129922772   1.0461322399346498e-05   -0.0002812775382670244
-0.00011928395129922772   1.0461322399346498e-05   -0.0002812775382670244
1.0053075894077396e-05   1.404168332101545e-05   -6.356760972518136e-05
1.0053075894077396e-05   1.404168332101545e-05   -6.356760972518136e-05
1.0053075894077396e-05   1.404168332101545e-05   -6.356760972518136e-05
1.0053075894077396e-05   1.404168332101545e-05   -6.356760972518136e-05
8.576805947143242e-06   1.7370030691793133e-05   -0.0002786442119548206
8.576805947143242e-06   1.7370030691793133e-05   -0.0002786442119548206
8.576805947143242e-06   1.7370030691793133e-05   -0.0002786442119548206
8.576805947143242e-06   1.7370030691793133e-05   -0.0002786442119548206
-0.00011903819633122036   2.1579948962056807e-05   -6.847849245303979e-05
-0.00011903819633122036   2.1579948962056807e-05   -6.847849245303979e-05
-0.00011903819633122036   2.1579948962056807e-05   -6.847849245303979e-05
-0.00011903819633122036   2.1579948962056807e-05   -6.847849245303979e-05
-5.494818943146305e-05   1.4984050570797554e-05   -0.000171337631584546
-5.494818943146305e-05   1.4984050570797554e-05   -0.000171337631584546
-5.494818943146305e-05   1.4984050570797554e-05   -0.000171337631584546
-5.494818943146305e-05   1.4984050570797554e-05   -0.000171337631584546
1.1376477842427421e-05   -2.0261529566612012e-05   -0.0002555774665458714
1.1376477842427421e-05   -2.0261529566612012e-05   -0.0002555774665458714
1.1376477842427421e-05   -2.0261529566612012e-05   -0.0002555774665458714
1.1376477842427421e-05   -2.0261529566612012e-05   -0.0002555774665458714
0.00014219528666995922   -2.0834402795621033e-05   -3.78898424373904e-05
0.00014219528666995922   -2.0834402795621033e-05   -3.78898424373904e-05
0.00014219528666995922   -2.0834402795621033e-05   -3.78898424373904e-05
0.00014219528666995922   -2.0834402795621033e-05   -3.78898424373904e-05
0.0001433086673984866   -1.5294642133119958e-05   -0.00025918169717421163
0.0001433086673984866   -1.5294642133119958e-05   -0.00025918169717421163
0.0001433086673984866   -1.5294642133119958e-05   -0.00025918169717421163
0.0001433086673984866   -1.5294642133119958e-05   -0.00025918169717421163
1.0810986202434688e-05   -1.4114263806024952e-05   -3.906045551038159e-05
1.0810986202434688e-05   -1.4114263806024952e-05   -3.906045551038159e-05
1.0810986202434688e-05   -1.4114263806024952e-05   -3.906045551038159e-05
1.0810986202434688e-05   -1.4114263806024952e-05   -3.906045551038159e-05
7.593915049367867e-05   -1.688321657687664e-05   -0.00014594602433327773
7.593915049367867e-05   -1.688321657687664e-05   -0.00014594602433327773
7.593915049367867e-05   -1.688321657687664e-05   -0.00014594602433327773
7.593915049367867e-05   -1.688321657687664e-05   -0.00014594602433327773
1.0810986202434668e-05   -1.5294642133120012e-05   -0.00025988992417046907
1.0810986202434668e-05   -1.5294642133120012e-05   -0.00025988992417046907
1.0810986202434668e-05   -1.5294642133120012e-05   -0.00025988992417046907
1.0810986202434668e-05   -1.5294642133120012e-05   -0.00025988992417046907
0.00014330866739848685   -1.4114263806024952e-05   -3.835222851412447e-05
0.00014330866739848685   -1.4114263806024952e-05   -3.835222851412447e-05
0.00014330866739848685   -1.4114263806024952e-05   -3.835222851412447e-05
0.00014330866739848685   -1.4114263806024952e-05   -3.835222851412447e-05
0.000142545443524523   -9.654617220997673e-06   -0.0002640597495009651
0.000142545443524523   -9.654617220997673e-06   -0.0002640597495009651
0.000142545443524523   -9.654617220997673e-06   -0.0002640597495009651
0.000142545443524523   -9.654617220997673e-06   -0.0002640597495009651
1.005307589407738e-05   -7.526726191639478e-06   -4.4515871401171066e-05
1.005307589407738e-05   -7.526726191639478e-06   -4.4515871401171066e-05
1.005307589407738e-05   -7.526726191639478e-06   -4.4515871401171066e-05
1.005307589407738e-05   -7.526726191639478e-06   -4.4515871401171066e-05
7.508029991777103e-05   -1.1510831492172265e-05   -0.0001505041149270069
7.508029991777103e-05   -1.1510831492172265e-05   -0.0001505041149270069
7.508029991777103e-05   -1.1510831492172265e-05   -0.0001505041149270069
7.508029991777103e-05   -1.1510831492172265e-05   -0.0001505041149270069
1.0053075894077373e-05   -9.654617220997673e-06   -0.0002653364841185801
1.0053075894077373e-05   -9.654617220997673e-06   -0.0002653364841185801
1.0053075894077373e-05   -9.654617220997673e-06   -0.0002653364841185801
1.0053075894077373e-05   -9.654617220997673e-06   -0.0002653364841185801
0.00014254544352452348   -7.526726191639261e-06   -4.323913678355598e-05
0.00014254544352452348   -7.526726191639261e-06   -4.323913678355598e-05
0.00014254544352452348   -7.526726191639261e-06   -4.323913678355598e-05
0.00014254544352452348   -7.526726191639261e-06   -4.323913678355598e-05
0.0001383361932707634   -2.0708331241697624e-06   -0.00026452117083052663
0.0001383361932707634   -2.0708331241697624e-06   -0.00026452117083052663
0.0001383361932707634   -2.0708331241697624e-06   -0.00026452117083052663
0.0001383361932707634   -2.0708331241697624e-06   -0.00026452117083052663
8.576805947143242e-06   6.272772808744824e-07   -4.987439153418642e-05
8.576805947143242e-06   6.272772808744824e-07   -4.987439153418642e-05
8.576805947143242e-06   6.272772808744824e-07   -4.987439153418642e-05
8.576805947143242e-06   6.272772808744824e-07   -4.987439153418642e-05
7.421341901274708e-05   -5.235476405668522e-06   -0.0001557510944316001
7.421341901274708e-05   -5.235476405668522e-06   -0.0001557510944316001
7.421341901274708e-05   -5.235476405668522e-06   -0.0001557510944316001
7.421341901274708e-05   -5.235476405668522e-06   -0.0001557510944316001
0.00014219528666995922   -5.1300755082240386e-05   -0.00015467032731083721
0.00014219528666995922   -5.1300755082240386e-05   -0.00015467032731083721
0.00014219528666995922   -5.1300755082240386e-05   -0.00015467032731083721
0.00014219528666995922   -5.1300755082240386e-05   -0.00015467032731083721
0.00027139907602838543   -3.876195622954108e-05   6.81926009314924e-05
0.00027139907602838543   -3.876195622954108e-05   6.81926009314924e-05
0.00027139907602838543   -3.876195622954108e-05   6.81926009314924e-05
0.00027139907602838543   -3.876195622954108e-05   6.81926009314924e-05
0.0002815919313206685   -4.3697557253658946e-05   -0.00018821026283960483
0.0002815919313206685   -4.3697557253658946e-05   -0.00018821026283960483
0.0002815919313206685   -4.3697557253658946e-05   -0.00018821026283960483
0.0002815919313206685   -4.3697557253658946e-05   -0.00018821026283960483
0.0001433086673984871   -3.520248619553372e-05   3.716480106248968e-05
0.0001433086673984871   -3.520248619553372e-05   3.716480106248968e-05
0.0001433086673984871   -3.520248619553372e-05   3.716480106248968e-05
0.0001433086673984871   -3.520248619553372e-05   3.716480106248968e-05
0.00019987724542672335   -4.20703147513932e-05   -5.2995465184388964e-05
0.00019987724542672335   -4.20703147513932e-05   -5.2995465184388964e-05
0.00019987724542672335   -4.20703147513932e-05   -5.2995465184388964e-05
0.00019987724542672335   -4.20703147513932e-05   -5.2995465184388964e-05
0.00014330866739848674   -4.369755725365889e-05   -0.00019330730547447935
0.00014330866739848674   -4.369755725365889e-05   -0.00019330730547447935
0.00014330866739848674   -4.369755725365889e-05   -0.00019330730547447935
0.00014330866739848674   -4.369755725365889e-05   -0.00019330730547447935
0.0002815919313206685   -3.520248619553372e-05   4.226184369736483e-05
0.0002815919313206685   -3.520248619553372e-05   4.226184369736483e-05
0.0002815919313206685   -3.520248619553372e-05   4.226184369736483e-05
0.0002815919313206685   -3.520248619553372e-05   4.226184369736483e-05
0.0002804500647439739   -3.9947033447628594e-05   -0.00020473531779288367
0.0002804500647439739   -3.9947033447628594e-05   -0.00020473531779288367
0.0002804500647439739   -3.9947033447628594e-05   -0.00020473531779288367
0.0002804500647439739   -3.9947033447628594e-05   -0.00020473531779288367
0.00014254544352452348   -3.141049309471344e-05   1.998379336111769e-05
0.00014254544352452348   -3.141049309471344e-05   1.998379336111769e-05
0.00014254544352452348   -3.141049309471344e-05   1.998379336111769e-05
0.00014254544352452348   -3.141049309471344e-05   1.998379336111769e-05
0.00020677988586450253   -3.7180416152847364e-05   -8.361165670396707e-05
0.00020677988586450253   -3.7180416152847364e-05   -8.361165670396707e-05
0.00020677988586450253   -3.7180416152847364e-05   -8.361165670396707e-05
0.00020677988586450253   -3.7180416152847364e-05   -8.361165670396707e-05
0.00014254544352452323   -3.994703344762854e-05   -0.00020985724200463246
0.00014254544352452323   -3.994703344762854e-05   -0.00020985724200463246
0.00014254544352452323   -3.994703344762854e-05   -0.00020985724200463246
0.00014254544352452323   -3.994703344762854e-05   -0.00020985724200463246
0.0002804500647439739   -3.141049309471344e-05   2.510571757286667e-05
0.0002804500647439739   -3.141049309471344e-05   2.510571757286667e-05
0.0002804500647439739   -3.141049309471344e-05   2.510571757286667e-05
0.0002804500647439739   -3.141049309471344e-05   2.510571757286667e-05
0.0002786520887457663   -3.110513072290182e-05   -0.0002383438444161019
0.0002786520887457663   -3.110513072290182e-05   -0.0002383438444161019
0.0002786520887457663   -3.110513072290182e-05   -0.0002383438444161019
0.0002786520887457663   -3.110513072290182e-05   -0.0002383438444161019
0.0001383361932707639   -2.3246837188926894e-05   -9.198994744816441e-06
0.0001383361932707639   -2.3246837188926894e-05   -9.198994744816441e-06
0.0001383361932707639   -2.3246837188926894e-05   -9.198994744816441e-06
0.0001383361932707639   -2.3246837188926894e-05   -9.198994744816441e-06
0.00020079550340478368   -3.2033632066041646e-05   -0.00010802576804191369
0.00020079550340478368   -3.2033632066041646e-05   -0.00010802576804191369
0.00020079550340478368   -3.2033632066041646e-05   -0.00010802576804191369
0.00020079550340478368   -3.2033632066041646e-05   -0.00010802576804191369
-0.0003042808593972503   4.385087334726019e-05   -0.00020959105938407564
-0.0003042808593972503   4.385087334726019e-05   -0.00020959105938407564
-0.0003042808593972503   4.385087334726019e-05   -0.00020959105938407564
-0.0003042808593972503   4.385087334726019e-05   -0.00020959105938407564
-0.0001993436996365484   3.355679409251669e-05   -4.087224066908515e-05
-0.0001993436996365484   3.355679409251669e-05   -4.087224066908515e-05
-0.0001993436996365484   3.355679409251669e-05   -4.087224066908515e-05
-0.0001993436996365484   3.355679409251669e-05   -4.087224066908515e-05
-0.00020033201378332377   5.259213323651835e-05   -0.000173997968578944
-0.00020033201378332377   5.259213323651835e-05   -0.000173997968578944
-0.00020033201378332377   5.259213323651835e-05   -0.000173997968578944
-0.00020033201378332377   5.259213323651835e-05   -0.000173997968578944
-0.00029974223447491646   4.056686153247049e-05   -1.099104403860839e-06
-0.00029974223447491646   4.056686153247049e-05   -1.099104403860839e-06
-0.00029974223447491646   4.056686153247049e-05   -1.099104403860839e-06
-0.00029974223447491646   4.056686153247049e-05   -1.099104403860839e-06
-0.00024031622784260022   4.457627688592364e-05   -0.00010254809800312671
-0.00024031622784260022   4.457627688592364e-05   -0.00010254809800312671
-0.00024031622784260022   4.457627688592364e-05   -0.00010254809800312671
-0.00024031622784260022   4.457627688592364e-05   -0.00010254809800312671
-0.00029974223447491646   5.259213323651835e-05   -0.00016678280555651513
-0.00029974223447491646   5.259213323651835e-05   -0.00016678280555651513
-0.00029974223447491646   5.259213323651835e-05   -0.00016678280555651513
-0.00029974223447491646   5.259213323651835e-05   -0.00016678280555651513
-0.00020033201378332377   4.056686153247049e-05   -8.314267426288947e-06
-0.00020033201378332377   4.056686153247049e-05   -8.314267426288947e-06
-0.00020033201378332377   4.056686153247049e-05   -8.314267426288947e-06
-0.00020033201378332377   4.056686153247049e-05   -8.314267426288947e-06
-0.0002001552572265   5.6535799511338346e-05   -0.0001488382073945721
-0.0002001552572265   5.6535799511338346e-05   -0.0001488382073945721
-0.0002001552572265   5.6535799511338346e-05   -0.0001488382073945721
-0.0002001552572265   5.6535799511338346e-05   -0.0001488382073945721
-0.00029530452820880843   4.3642066150153484e-05   1.748015092598509e-05
-0.00029530452820880843   4.3642066150153484e-05   1.748015092598509e-05
-0.00029530452820880843   4.3642066150153484e-05   1.748015092598509e-05
-0.00029530452820880843   4.3642066150153484e-05   1.748015092598509e-05
-0.00024243291273437056   4.864048396349945e-05   -7.363825888608315e-05
-0.00024243291273437056   4.864048396349945e-05   -7.363825888608315e-05
-0.00024243291273437056   4.864048396349945e-05   -7.363825888608315e-05
-0.00024243291273437056   4.864048396349945e-05   -7.363825888608315e-05
-0.00029530452820880843   5.6535799511338346e-05   -0.00014110196737786144
-0.00029530452820880843   5.6535799511338346e-05   -0.00014110196737786144
-0.00029530452820880843   5.6535799511338346e-05   -0.00014110196737786144
-0.00029530452820880843   5.6535799511338346e-05   -0.00014110196737786144
-0.00020015525722650045   4.364206615015392e-05   9.743910909275463e-06
-0.00020015525722650045   4.364206615015392e-05   9.743910909275463e-06
-0.00020015525722650045   4.364206615015392e-05   9.743910909275463e-06
-0.00020015525722650045   4.364206615015392e-05   9.743910909275463e-06
-0.00020037857613881772   5.965082243625415e-05   -0.00011356755880622326
-0.00020037857613881772   5.965082243625415e-05   -0.00011356755880622326
-0.00020037857613881772   5.965082243625415e-05   -0.00011356755880622326
-0.00020037857613881772   5.965082243625415e-05   -0.00011356755880622326
-0.00028949033749840097   4.665348022021799e-05   4.2750448789368335e-05
-0.00028949033749840097   4.665348022021799e-05   4.2750448789368335e-05
-0.00028949033749840097   4.665348022021799e-05   4.2750448789368335e-05
-0.00028949033749840097   4.665348022021799e-05   4.2750448789368335e-05
-0.00023694368592963355   5.076680077188613e-05   -4.7295296156240956e-05
-0.00023694368592963355   5.076680077188613e-05   -4.7295296156240956e-05
-0.00023694368592963355   5.076680077188613e-05   -4.7295296156240956e-05
-0.00023694368592963355   5.076680077188613e-05   -4.7295296156240956e-05
-0.0001993436996365484   2.0403145782173226e-05   -0.00024220039818463276
-0.0001993436996365484   2.0403145782173226e-05   -0.00024220039818463276
-0.0001993436996365484   2.0403145782173226e-05   -0.00024220039818463276
-0.0001993436996365484   2.0403145782173226e-05   -0.00024220039818463276
-0.00010130640613695529   1.671344743455882e-05   -8.101872802721284e-05
-0.00010130640613695529   1.671344743455882e-05   -8.101872802721284e-05
-0.00010130640613695529   1.671344743455882e-05   -8.101872802721284e-05
-0.00010130640613695529   1.671344743455882e-05   -8.101872802721284e-05
-0.0001025574141586078   2.844221663882043e-05   -0.00023878607437197402
-0.0001025574141586078   2.844221663882043e-05   -0.00023878607437197402
-0.0001025574141586078   2.844221663882043e-05   -0.00023878607437197402
-0.0001025574141586078   2.844221663882043e-05   -0.00023878607437197402
-0.00020033201378332334   2.360374466110239e-05   -7.292532514414983e-05
-0.00020033201378332334   2.360374466110239e-05   -7.292532514414983e-05
-0.00020033201378332334   2.360374466110239e-05   -7.292532514414983e-05
-0.00020033201378332334   2.360374466110239e-05   -7.292532514414983e-05
-0.0001495959875574974   2.3505258443043495e-05   -0.00015742627712302527
-0.0001495959875574974   2.3505258443043495e-05   -0.00015742627712302527
-0.0001495959875574974   2.3505258443043495e-05   -0.00015742627712302527
-0.0001495959875574974   2.3505258443043495e-05   -0.00015742627712302527
-0.00020033201378332356   2.844221663882043e-05   -0.00023588299118534265
-0.00020033201378332356   2.844221663882043e-05   -0.00023588299118534265
-0.00020033201378332356   2.844221663882043e-05   -0.00023588299118534265
-0.00020033201378332356   2.844221663882043e-05   -0.00023588299118534265
-0.00010255741415860799   2.360374466110239e-05   -7.582840833078035e-05
-0.00010255741415860799   2.360374466110239e-05   -7.582840833078035e-05
-0.00010255741415860799   2.360374466110239e-05   -7.582840833078035e-05
-0.00010255741415860799   2.360374466110239e-05   -7.582840833078035e-05
-0.00010337576084992289   3.5091618527085785e-05   -0.00023245832428172653
-0.00010337576084992289   3.5091618527085785e-05   -0.00023245832428172653
-0.00010337576084992289   3.5091618527085785e-05   -0.00023245832428172653
-0.00010337576084992289   3.5091618527085785e-05   -0.00023245832428172653
-0.0002001552572265   2.9719228406606228e-05   -6.793572958181172e-05
-0.0002001552572265   2.9719228406606228e-05   -6.793572958181172e-05
-0.0002001552572265   2.9719228406606228e-05   -6.793572958181172e-05
-0.0002001552572265   2.9719228406606228e-05   -6.793572958181172e-05
-0.00014989155226282583   2.9169875964308147e-05   -0.00015137895972255357
-0.00014989155226282583   2.9169875964308147e-05   -0.00015137895972255357
-0.00014989155226282583   2.9169875964308147e-05   -0.00015137895972255357
-0.00014989155226282583   2.9169875964308147e-05   -0.00015137895972255357
-0.0002001552572265   3.5091618527085785e-05   -0.0002292348902094394
-0.0002001552572265   3.5091618527085785e-05   -0.0002292348902094394
-0.0002001552572265   3.5091618527085785e-05   -0.0002292348902094394
-0.0002001552572265   3.5091618527085785e-05   -0.0002292348902094394
-0.00010337576084992324   2.9719228406606228e-05   -7.11591636540983e-05
-0.00010337576084992324   2.9719228406606228e-05   -7.11591636540983e-05
-0.00010337576084992324   2.9719228406606228e-05   -7.11591636540983e-05
-0.00010337576084992324   2.9719228406606228e-05   -7.11591636540983e-05
-0.00010442706193341384   4.224204569422494e-05   -0.00023189169671654093
-0.00010442706193341384   4.224204569422494e-05   -0.00023189169671654093
-0.00010442706193341384   4.224204569422494e-05   -0.00023189169671654093
-0.00010442706193341384   4.224204569422494e-05   -0.00023189169671654093
-0.00020037857613881761   3.6218259078324086e-05   -6.835823440466053e-05
-0.00020037857613881761   3.6218259078324086e-05   -6.835823440466053e-05
-0.00020037857613881761   3.6218259078324086e-05   -6.835823440466053e-05
-0.00020037857613881761   3.6218259078324086e-05   -6.835823440466053e-05
-0.00015168724827355022   3.477529528138714e-05   -0.00014864466923527578
-0.00015168724827355022   3.477529528138714e-05   -0.00014864466923527578
-0.00015168724827355022   3.477529528138714e-05   -0.00014864466923527578
-0.00015168724827355022   3.477529528138714e-05   -0.00014864466923527578
-0.0001013064061369551   -5.964257155910944e-07   -0.0002609955198824834
-0.0001013064061369551   -5.964257155910944e-07   -0.0002609955198824834
-0.0001013064061369551   -5.964257155910944e-07   -0.0002609955198824834
-0.0001013064061369551   -5.964257155910944e-07   -0.0002609955198824834
-4.387877994998842e-06   8.860984319724978e-07   -9.857512515735155e-05
-4.387877994998842e-06   8.860984319724978e-07   -9.857512515735155e-05
-4.387877994998842e-06   8.860984319724978e-07   -9.857512515735155e-05
-4.387877994998842e-06   8.860984319724978e-07   -9.857512515735155e-05
-5.394244532217025e-06   6.808232054849152e-06   -0.00025858044873636643
-5.394244532217025e-06   6.808232054849152e-06   -0.00025858044873636643
-5.394244532217025e-06   6.808232054849152e-06   -0.00025858044873636643
-5.394244532217025e-06   6.808232054849152e-06   -0.00025858044873636643
-0.0001025574141586078   7.663131175630021e-06   -9.715477216485052e-05
-0.0001025574141586078   7.663131175630021e-06   -9.715477216485052e-05
-0.0001025574141586078   7.663131175630021e-06   -9.715477216485052e-05
-0.0001025574141586078   7.663131175630021e-06   -9.715477216485052e-05
-5.311355933877908e-05   4.4607791363738755e-06   -0.00017763978564101145
-5.311355933877908e-05   4.4607791363738755e-06   -0.00017763978564101145
-5.311355933877908e-05   4.4607791363738755e-06   -0.00017763978564101145
-5.311355933877908e-05   4.4607791363738755e-06   -0.00017763978564101145
-0.0001025574141586078   6.808232054849152e-06   -0.00025909338820883515
-0.0001025574141586078   6.808232054849152e-06   -0.00025909338820883515
-0.0001025574141586078   6.808232054849152e-06   -0.00025909338820883515
-0.0001025574141586078   6.808232054849152e-06   -0.00025909338820883515
-5.394244532217035e-06   7.663131175629587e-06   -9.664183269238158e-05
-5.394244532217035e-06   7.663131175629587e-06   -9.664183269238158e-05
-5.394244532217035e-06   7.663131175629587e-06   -9.664183269238158e-05
-5.394244532217035e-06   7.663131175629587e-06   -9.664183269238158e-05
-6.128586594314111e-06   1.4041683321015666e-05   -0.00025929170086979756
-6.128586594314111e-06   1.4041683321015666e-05   -0.00025929170086979756
-6.128586594314111e-06   1.4041683321015666e-05   -0.00025929170086979756
-6.128586594314111e-06   1.4041683321015666e-05   -0.00025929170086979756
-0.00010337576084992308   1.4419406964833684e-05   -9.743971129674096e-05
-0.00010337576084992308   1.4419406964833684e-05   -9.743971129674096e-05
-0.00010337576084992308   1.4419406964833684e-05   -9.743971129674096e-05
-0.00010337576084992308   1.4419406964833684e-05   -9.743971129674096e-05
-5.440647440391369e-05   1.0436013880055477e-05   -0.00017666515285588838
-5.440647440391369e-05   1.0436013880055477e-05   -0.00017666515285588838
-5.440647440391369e-05   1.0436013880055477e-05   -0.00017666515285588838
-5.440647440391369e-05   1.0436013880055477e-05   -0.00017666515285588838
-0.00010337576084992308   1.404168332101545e-05   -0.0002595183350560887
-0.00010337576084992308   1.404168332101545e-05   -0.0002595183350560887
-0.00010337576084992308   1.404168332101545e-05   -0.0002595183350560887
-0.00010337576084992308   1.404168332101545e-05   -0.0002595183350560887
-6.1285865943141174e-06   1.441940696483325e-05   -9.721307711044918e-05
-6.1285865943141174e-06   1.441940696483325e-05   -9.721307711044918e-05
-6.1285865943141174e-06   1.441940696483325e-05   -9.721307711044918e-05
-6.1285865943141174e-06   1.441940696483325e-05   -9.721307711044918e-05
-7.270664186691804e-06   2.1579948962056807e-05   -0.0002626314694779118
-7.270664186691804e-06   2.1579948962056807e-05   -0.0002626314694779118
-7.270664186691804e-06   2.1579948962056807e-05   -0.0002626314694779118
-7.270664186691804e-06   2.1579948962056807e-05   -0.0002626314694779118
-0.00010442706193341373   2.1333348535363447e-05   -0.00010055617964402689
-0.00010442706193341373   2.1333348535363447e-05   -0.00010055617964402689
-0.00010442706193341373   2.1333348535363447e-05   -0.00010055617964402689
-0.00010442706193341373   2.1333348535363447e-05   -0.00010055617964402689
-5.577884173119901e-05   1.6482174159161223e-05   -0.00017872584202199506
-5.577884173119901e-05   1.6482174159161223e-05   -0.00017872584202199506
-5.577884173119901e-05   1.6482174159161223e-05   -0.00017872584202199506
-5.577884173119901e-05   1.6482174159161223e-05   -0.00017872584202199506
-4.387877994998849e-06   -2.0834402795621033e-05   -0.00023326143493865618
-4.387877994998849e-06   -2.0834402795621033e-05   -0.00023326143493865618
-4.387877994998849e-06   -2.0834402795621033e-05   -0.00023326143493865618
-4.387877994998849e-06   -2.0834402795621033e-05   -0.00023326143493865618
9.20790821119358e-05   -1.4002361168899847e-05   -6.83839431177332e-05
9.20790821119358e-05   -1.4002361168899847e-05   -6.83839431177332e-05
9.20790821119358e-05   -1.4002361168899847e-05   -6.83839431177332e-05
9.20790821119358e-05   -1.4002361168899847e-05   -6.83839431177332e-05
9.19879750465528e-05   -1.4114263806024952e-05   -0.000230615321805504
9.19879750465528e-05   -1.4114263806024952e-05   -0.000230615321805504
9.19879750465528e-05   -1.4114263806024952e-05   -0.000230615321805504
9.19879750465528e-05   -1.4114263806024952e-05   -0.000230615321805504
-5.394244532217035e-06   -7.798047800483456e-06   -7.210135211087921e-05
-5.394244532217035e-06   -7.798047800483456e-06   -7.210135211087921e-05
-5.394244532217035e-06   -7.798047800483456e-06   -7.210135211087921e-05
-5.394244532217035e-06   -7.798047800483456e-06   -7.210135211087921e-05
4.323606258325862e-05   -1.3702611405089302e-05   -0.00014960912580724167
4.323606258325862e-05   -1.3702611405089302e-05   -0.00014960912580724167
4.323606258325862e-05   -1.3702611405089302e-05   -0.00014960912580724167
4.323606258325862e-05   -1.3702611405089302e-05   -0.00014960912580724167
-5.394244532217035e-06   -1.4114263806024952e-05   -0.0002344050514088284
-5.394244532217035e-06   -1.4114263806024952e-05   -0.0002344050514088284
-5.394244532217035e-06   -1.4114263806024952e-05   -0.0002344050514088284
-5.394244532217035e-06   -1.4114263806024952e-05   -0.0002344050514088284
9.19879750465528e-05   -7.798047800483456e-06   -6.83116225075539e-05
9.19879750465528e-05   -7.798047800483456e-06   -6.83116225075539e-05
9.19879750465528e-05   -7.798047800483456e-06   -6.83116225075539e-05
9.19879750465528e-05   -7.798047800483456e-06   -6.83116225075539e-05
9.23927637605669e-05   -7.526726191639478e-06   -0.0002367408943483298
9.23927637605669e-05   -7.526726191639478e-06   -0.0002367408943483298
9.23927637605669e-05   -7.526726191639478e-06   -0.0002367408943483298
9.23927637605669e-05   -7.526726191639478e-06   -0.0002367408943483298
-6.128586594314128e-06   -1.6949458625423706e-06   -7.603771195432036e-05
-6.128586594314128e-06   -1.6949458625423706e-06   -7.603771195432036e-05
-6.128586594314128e-06   -1.6949458625423706e-06   -7.603771195432036e-05
-6.128586594314128e-06   -1.6949458625423706e-06   -7.603771195432036e-05
4.1898687885663766e-05   -8.32099820255081e-06   -0.00015210753801694383
4.1898687885663766e-05   -8.32099820255081e-06   -0.00015210753801694383
4.1898687885663766e-05   -8.32099820255081e-06   -0.00015210753801694383
4.1898687885663766e-05   -8.32099820255081e-06   -0.00015210753801694383
-6.128586594314114e-06   -7.526726191639261e-06   -0.00024023996254578695
-6.128586594314114e-06   -7.526726191639261e-06   -0.00024023996254578695
-6.128586594314114e-06   -7.526726191639261e-06   -0.00024023996254578695
-6.128586594314114e-06   -7.526726191639261e-06   -0.00024023996254578695
9.23927637605669e-05   -1.6949458625423706e-06   -7.253864375686078e-05
9.23927637605669e-05   -1.6949458625423706e-06   -7.253864375686078e-05
9.23927637605669e-05   -1.6949458625423706e-06   -7.253864375686078e-05
9.23927637605669e-05   -1.6949458625423706e-06   -7.253864375686078e-05
9.166004915631875e-05   6.272772808744824e-07   -0.00024366097740700552
9.166004915631875e-05   6.272772808744824e-07   -0.00024366097740700552
9.166004915631875e-05   6.272772808744824e-07   -0.00024366097740700552
9.166004915631875e-05   6.272772808744824e-07   -0.00024366097740700552
-7.270664186691821e-06   5.4478474712277465e-06   -8.166879728286694e-05
-7.270664186691821e-06   5.4478474712277465e-06   -8.166879728286694e-05
-7.270664186691821e-06   5.4478474712277465e-06   -8.166879728286694e-05
-7.270664186691821e-06   5.4478474712277465e-06   -8.166879728286694e-05
4.1418025557915995e-05   -2.5569431644895634e-06   -0.00015801373914244824
4.1418025557915995e-05   -2.5569431644895634e-06   -0.00015801373914244824
4.1418025557915995e-05   -2.5569431644895634e-06   -0.00015801373914244824
4.1418025557915995e-05   -2.5569431644895634e-06   -0.00015801373914244824
9.207908211193564e-05   -3.8761956229540866e-05   -0.00013060304590536097
9.207908211193564e-05   -3.8761956229540866e-05   -0.00013060304590536097
9.207908211193564e-05   -3.8761956229540866e-05   -0.00013060304590536097
9.207908211193564e-05   -3.8761956229540866e-05   -0.00013060304590536097
0.0001825575563678463   -2.544447418524826e-05   2.81849004143994e-05
0.0001825575563678463   -2.544447418524826e-05   2.81849004143994e-05
0.0001825575563678463   -2.544447418524826e-05   2.81849004143994e-05
0.0001825575563678463   -2.544447418524826e-05   2.81849004143994e-05
0.00018863660979787165   -3.5202486195533506e-05   -0.0001471055468495251
0.00018863660979787165   -3.5202486195533506e-05   -0.0001471055468495251
0.00018863660979787165   -3.5202486195533506e-05   -0.0001471055468495251
0.00018863660979787165   -3.5202486195533506e-05   -0.0001471055468495251
9.198797504655264e-05   -2.1881243896593097e-05   5.982765689976021e-06
9.198797504655264e-05   -2.1881243896593097e-05   5.982765689976021e-06
9.198797504655264e-05   -2.1881243896593097e-05   5.982765689976021e-06
9.198797504655264e-05   -2.1881243896593097e-05   5.982765689976021e-06
0.00013288121966819065   -2.9965898980693776e-05   -5.7321848962293845e-05
0.00013288121966819065   -2.9965898980693776e-05   -5.7321848962293845e-05
0.00013288121966819065   -2.9965898980693776e-05   -5.7321848962293845e-05
0.00013288121966819065   -2.9965898980693776e-05   -5.7321848962293845e-05
9.198797504655253e-05   -3.520248619553372e-05   -0.0001550982922288892
9.198797504655253e-05   -3.520248619553372e-05   -0.0001550982922288892
9.198797504655253e-05   -3.520248619553372e-05   -0.0001550982922288892
9.198797504655253e-05   -3.520248619553372e-05   -0.0001550982922288892
0.00018863660979787165   -2.1881243896593097e-05   1.3975511069340765e-05
0.00018863660979787165   -2.1881243896593097e-05   1.3975511069340765e-05
0.00018863660979787165   -2.1881243896593097e-05   1.3975511069340765e-05
0.00018863660979787165   -2.1881243896593097e-05   1.3975511069340765e-05
0.00019329462377732428   -3.141049309471344e-05   -0.00016595855544707566
0.00019329462377732428   -3.141049309471344e-05   -0.00016595855544707566
0.00019329462377732428   -3.141049309471344e-05   -0.00016595855544707566
0.00019329462377732428   -3.141049309471344e-05   -0.00016595855544707566
9.239276376056657e-05   -1.8811478500412992e-05   -5.348197509060285e-06
9.239276376056657e-05   -1.8811478500412992e-05   -5.348197509060285e-06
9.239276376056657e-05   -1.8811478500412992e-05   -5.348197509060285e-06
9.239276376056657e-05   -1.8811478500412992e-05   -5.348197509060285e-06
0.00013735249785384494   -2.7665593554463026e-05   -7.496861863209349e-05
0.00013735249785384494   -2.7665593554463026e-05   -7.496861863209349e-05
0.00013735249785384494   -2.7665593554463026e-05   -7.496861863209349e-05
0.00013735249785384494   -2.7665593554463026e-05   -7.496861863209349e-05
9.239276376056673e-05   -3.141049309471344e-05   -0.00017351796420365581
9.239276376056673e-05   -3.141049309471344e-05   -0.00017351796420365581
9.239276376056673e-05   -3.141049309471344e-05   -0.00017351796420365581
9.239276376056673e-05   -3.141049309471344e-05   -0.00017351796420365581
0.00019329462377732395   -1.8811478500413426e-05   2.211211247520571e-06
0.00019329462377732395   -1.8811478500413426e-05   2.211211247520571e-06
0.00019329462377732395   -1.8811478500413426e-05   2.211211247520571e-06
0.00019329462377732395   -1.8811478500413426e-05   2.211211247520571e-06
0.00019824608703207817   -2.3246837188926894e-05   -0.00019800207680232597
0.00019824608703207817   -2.3246837188926894e-05   -0.00019800207680232597
0.00019824608703207817   -2.3246837188926894e-05   -0.00019800207680232597
0.00019824608703207817   -2.3246837188926894e-05   -0.00019800207680232597
9.166004915631842e-05   -1.224288709170086e-05   -2.6961050401062814e-05
9.166004915631842e-05   -1.224288709170086e-05   -2.6961050401062814e-05
9.166004915631842e-05   -1.224288709170086e-05   -2.6961050401062814e-05
9.166004915631842e-05   -1.224288709170086e-05   -2.6961050401062814e-05
0.00013672179979373723   -2.3849798966862987e-05   -9.509982100499594e-05
0.00013672179979373723   -2.3849798966862987e-05   -9.509982100499594e-05
0.00013672179979373723   -2.3849798966862987e-05   -9.509982100499594e-05
0.00013672179979373723   -2.3849798966862987e-05   -9.509982100499594e-05
-0.00021914822083999599   3.355679409251669e-05   -0.00016641069530311465
-0.00021914822083999599   3.355679409251669e-05   -0.00016641069530311465
-0.00021914822083999599   3.355679409251669e-05   -0.00016641069530311465
-0.00021914822083999599   3.355679409251669e-05   -0.00016641069530311465
-0.00014902912129792772   2.139327426224592e-05   -5.6843641297829684e-05
-0.00014902912129792772   2.139327426224592e-05   -5.6843641297829684e-05
-0.00014902912129792772   2.139327426224592e-05   -5.6843641297829684e-05
-0.00014902912129792772   2.139327426224592e-05   -5.6843641297829684e-05
-0.00014849035373536038   4.056686153247049e-05   -0.00014136363694184544
-0.00014849035373536038   4.056686153247049e-05   -0.00014136363694184544
-0.00014849035373536038   4.056686153247049e-05   -0.00014136363694184544
-0.00014849035373536038   4.056686153247049e-05   -0.00014136363694184544
-0.00021263847757681665   2.7206301993976372e-05   -2.6433761482988396e-05
-0.00021263847757681665   2.7206301993976372e-05   -2.6433761482988396e-05
-0.00021263847757681665   2.7206301993976372e-05   -2.6433761482988396e-05
-0.00021263847757681665   2.7206301993976372e-05   -2.6433761482988396e-05
-0.0001745925480745456   3.230454529929436e-05   -9.290258996996433e-05
-0.0001745925480745456   3.230454529929436e-05   -9.290258996996433e-05
-0.0001745925480745456   3.230454529929436e-05   -9.290258996996433e-05
-0.0001745925480745456   3.230454529929436e-05   -9.290258996996433e-05
-0.00021263847757681665   4.056686153247049e-05   -0.00013334730121874875
-0.00021263847757681665   4.056686153247049e-05   -0.00013334730121874875
-0.00021263847757681665   4.056686153247049e-05   -0.00013334730121874875
-0.00021263847757681665   4.056686153247049e-05   -0.00013334730121874875
-0.0001484903537353607   2.7206301993976806e-05   -3.4450097206084664e-05
-0.0001484903537353607   2.7206301993976806e-05   -3.4450097206084664e-05
-0.0001484903537353607   2.7206301993976806e-05   -3.4450097206084664e-05
-0.0001484903537353607   2.7206301993976806e-05   -3.4450097206084664e-05
-0.00014736674083141153   4.3642066150153484e-05   -0.0001232651855405777
-0.00014736674083141153   4.3642066150153484e-05   -0.0001232651855405777
-0.00014736674083141153   4.3642066150153484e-05   -0.0001232651855405777
-0.00014736674083141153   4.3642066150153484e-05   -0.0001232651855405777
-0.0002077643954777682   2.9908397321603067e-05   -1.4362226499519196e-05
-0.0002077643954777682   2.9908397321603067e-05   -1.4362226499519196e-05
-0.0002077643954777682   2.9908397321603067e-05   -1.4362226499519196e-05
-0.0002077643954777682   2.9908397321603067e-05   -1.4362226499519196e-05
-0.00017461725094241893   3.554689840174494e-05   -7.299056803985408e-05
-0.00017461725094241893   3.554689840174494e-05   -7.299056803985408e-05
-0.00017461725094241893   3.554689840174494e-05   -7.299056803985408e-05
-0.00017461725094241893   3.554689840174494e-05   -7.299056803985408e-05
-0.0002077643954777682   4.3642066150153484e-05   -0.00011502498424344719
-0.0002077643954777682   4.3642066150153484e-05   -0.00011502498424344719
-0.0002077643954777682   4.3642066150153484e-05   -0.00011502498424344719
-0.0002077643954777682   4.3642066150153484e-05   -0.00011502498424344719
-0.00014736674083141174   2.9908397321603934e-05   -2.260242779664913e-05
-0.00014736674083141174   2.9908397321603934e-05   -2.260242779664913e-05
-0.00014736674083141174   2.9908397321603934e-05   -2.260242779664913e-05
-0.00014736674083141174   2.9908397321603934e-05   -2.260242779664913e-05
-0.0001469118131451249   4.665348022021799e-05   -9.818856471443269e-05
-0.0001469118131451249   4.665348022021799e-05   -9.818856471443269e-05
-0.0001469118131451249   4.665348022021799e-05   -9.818856471443269e-05
-0.0001469118131451249   4.665348022021799e-05   -9.818856471443269e-05
-0.0002013779112629841   3.32964862920105e-05   6.024618389244632e-07
-0.0002013779112629841   3.32964862920105e-05   6.024618389244632e-07
-0.0002013779112629841   3.32964862920105e-05   6.024618389244632e-07
-0.0002013779112629841   3.32964862920105e-05   6.024618389244632e-07
-0.00016945899287862994   3.7291702145984644e-05   -5.499286498071771e-05
-0.00016945899287862994   3.7291702145984644e-05   -5.499286498071771e-05
-0.00016945899287862994   3.7291702145984644e-05   -5.499286498071771e-05
-0.00016945899287862994   3.7291702145984644e-05   -5.499286498071771e-05
-0.0001490291212979275   1.6713447434558385e-05   -0.00021164147555083595
-0.0001490291212979275   1.6713447434558385e-05   -0.00021164147555083595
-0.0001490291212979275   1.6713447434558385e-05   -0.00021164147555083595
-0.0001490291212979275   1.6713447434558385e-05   -0.00021164147555083595
-8.553117141879498e-05   1.1029621247725645e-05   -0.00010922185479771477
-8.553117141879498e-05   1.1029621247725645e-05   -0.00010922185479771477
-8.553117141879498e-05   1.1029621247725645e-05   -0.00010922185479771477
-8.553117141879498e-05   1.1029621247725645e-05   -0.00010922185479771477
-8.557090286106871e-05   2.3603744661102825e-05   -0.00020983959587175848
-8.557090286106871e-05   2.3603744661102825e-05   -0.00020983959587175848
-8.557090286106871e-05   2.3603744661102825e-05   -0.00020983959587175848
-8.557090286106871e-05   2.3603744661102825e-05   -0.00020983959587175848
-0.00014849035373536038   1.7162242641015173e-05   -0.00010110894320255288
-0.00014849035373536038   1.7162242641015173e-05   -0.00010110894320255288
-0.00014849035373536038   1.7162242641015173e-05   -0.00010110894320255288
-0.00014849035373536038   1.7162242641015173e-05   -0.00010110894320255288
-0.00011607678967685622   1.826232243972315e-05   -0.00015579159784595163
-0.00011607678967685622   1.826232243972315e-05   -0.00015579159784595163
-0.00011607678967685622   1.826232243972315e-05   -0.00015579159784595163
-0.00011607678967685622   1.826232243972315e-05   -0.00015579159784595163
-0.00014849035373536027   2.360374466110239e-05   -0.00020597469465970502
-0.00014849035373536027   2.360374466110239e-05   -0.00020597469465970502
-0.00014849035373536027   2.360374466110239e-05   -0.00020597469465970502
-0.00014849035373536027   2.360374466110239e-05   -0.00020597469465970502
-8.557090286106871e-05   1.7162242641015173e-05   -0.00010497384441460504
-8.557090286106871e-05   1.7162242641015173e-05   -0.00010497384441460504
-8.557090286106871e-05   1.7162242641015173e-05   -0.00010497384441460504
-8.557090286106871e-05   1.7162242641015173e-05   -0.00010497384441460504
-8.550485110925347e-05   2.9719228406606228e-05   -0.0002051346570421217
-8.550485110925347e-05   2.9719228406606228e-05   -0.0002051346570421217
-8.550485110925347e-05   2.9719228406606228e-05   -0.0002051346570421217
-8.550485110925347e-05   2.9719228406606228e-05   -0.0002051346570421217
-0.00014736674083141153   2.273617672250922e-05   -9.784167649473327e-05
-0.00014736674083141153   2.273617672250922e-05   -9.784167649473327e-05
-0.00014736674083141153   2.273617672250922e-05   -9.784167649473327e-05
-0.00014736674083141153   2.273617672250922e-05   -9.784167649473327e-05
-0.00011553281899257881   2.3292675021485167e-05   -0.0001512321118721724
-0.00011553281899257881   2.3292675021485167e-05   -0.0001512321118721724
-0.00011553281899257881   2.3292675021485167e-05   -0.0001512321118721724
-0.00011553281899257881   2.3292675021485167e-05   -0.0001512321118721724
-0.00014736674083141153   2.9719228406606228e-05   -0.00020094482603166342
-0.00014736674083141153   2.9719228406606228e-05   -0.00020094482603166342
-0.00014736674083141153   2.9719228406606228e-05   -0.00020094482603166342
-0.00014736674083141153   2.9719228406606228e-05   -0.00020094482603166342
-8.550485110925358e-05   2.273617672250922e-05   -0.00010203150750519123
-8.550485110925358e-05   2.273617672250922e-05   -0.00010203150750519123
-8.550485110925358e-05   2.273617672250922e-05   -0.00010203150750519123
-8.550485110925358e-05   2.273617672250922e-05   -0.00010203150750519123
-8.556913370568462e-05   3.6218259078324086e-05   -0.0002059592842619997
-8.556913370568462e-05   3.6218259078324086e-05   -0.0002059592842619997
-8.556913370568462e-05   3.6218259078324086e-05   -0.0002059592842619997
-8.556913370568462e-05   3.6218259078324086e-05   -0.0002059592842619997
-0.00014691181314512502   2.8784189606392667e-05   -9.926104351310546e-05
-0.00014691181314512502   2.8784189606392667e-05   -9.926104351310546e-05
-0.00014691181314512502   2.8784189606392667e-05   -9.926104351310546e-05
-0.00014691181314512502   2.8784189606392667e-05   -9.926104351310546e-05
-0.00011627801704772783   2.826247238157378e-05   -0.0001500043400072099
-0.00011627801704772783   2.826247238157378e-05   -0.0001500043400072099
-0.00011627801704772783   2.826247238157378e-05   -0.0001500043400072099
-0.00011627801704772783   2.826247238157378e-05   -0.0001500043400072099
-8.553117141879481e-05   8.860984319729315e-07   -0.00023349768288161263
-8.553117141879481e-05   8.860984319729315e-07   -0.00023349768288161263
-8.553117141879481e-05   8.860984319729315e-07   -0.00023349768288161263
-8.553117141879481e-05   8.860984319729315e-07   -0.00023349768288161263
-2.2943822311265742e-05   1.8797394799796238e-06   -0.0001285892497402605
-2.2943822311265742e-05   1.8797394799796238e-06   -0.0001285892497402605
-2.2943822311265742e-05   1.8797394799796238e-06   -0.0001285892497402605
-2.2943822311265742e-05   1.8797394799796238e-06   -0.0001285892497402605
-2.2984316466321314e-05   7.663131175630021e-06   -0.00023094043372458945
-2.2984316466321314e-05   7.663131175630021e-06   -0.00023094043372458945
-2.2984316466321314e-05   7.663131175630021e-06   -0.00023094043372458945
-2.2984316466321314e-05   7.663131175630021e-06   -0.00023094043372458945
-8.55709028610686e-05   8.039007811027048e-06   -0.00012685498238124908
-8.55709028610686e-05   8.039007811027048e-06   -0.00012685498238124908
-8.55709028610686e-05   8.039007811027048e-06   -0.00012685498238124908
-8.55709028610686e-05   8.039007811027048e-06   -0.00012685498238124908
-5.389865720453382e-05   5.408192606808689e-06   -0.00017806356935294262
-5.389865720453382e-05   5.408192606808689e-06   -0.00017806356935294262
-5.389865720453382e-05   5.408192606808689e-06   -0.00017806356935294262
-5.389865720453382e-05   5.408192606808689e-06   -0.00017806356935294262
-8.55709028610686e-05   7.663131175630021e-06   -0.0002311659597058278
-8.55709028610686e-05   7.663131175630021e-06   -0.0002311659597058278
-8.55709028610686e-05   7.663131175630021e-06   -0.0002311659597058278
-8.55709028610686e-05   7.663131175630021e-06   -0.0002311659597058278
-2.2984316466321314e-05   8.039007811027048e-06   -0.00012662945640001095
-2.2984316466321314e-05   8.039007811027048e-06   -0.00012662945640001095
-2.2984316466321314e-05   8.039007811027048e-06   -0.00012662945640001095
-2.2984316466321314e-05   8.039007811027048e-06   -0.00012662945640001095
-2.2899881562543852e-05   1.441940696483325e-05   -0.0002315361316037475
-2.2899881562543852e-05   1.441940696483325e-05   -0.0002315361316037475
-2.2899881562543852e-05   1.441940696483325e-05   -0.0002315361316037475
-2.2899881562543852e-05   1.441940696483325e-05   -0.0002315361316037475
-8.550485110925347e-05   1.4217862099859778e-05   -0.0001270735887735808
-8.550485110925347e-05   1.4217862099859778e-05   -0.0001270735887735808
-8.550485110925347e-05   1.4217862099859778e-05   -0.0001270735887735808
-8.550485110925347e-05   1.4217862099859778e-05   -0.0001270735887735808
-5.4256863924649874e-05   1.0792436135419366e-05   -0.00017709831183592285
-5.4256863924649874e-05   1.0792436135419366e-05   -0.00017709831183592285
-5.4256863924649874e-05   1.0792436135419366e-05   -0.00017709831183592285
-5.4256863924649874e-05   1.0792436135419366e-05   -0.00017709831183592285
-8.550485110925347e-05   1.4419406964833684e-05   -0.0002314152046847635
-8.550485110925347e-05   1.4419406964833684e-05   -0.0002314152046847635
-8.550485110925347e-05   1.4419406964833684e-05   -0.0002314152046847635
-8.550485110925347e-05   1.4419406964833684e-05   -0.0002314152046847635
-2.2899881562543893e-05   1.4217862099859778e-05   -0.00012719451569256435
-2.2899881562543893e-05   1.4217862099859778e-05   -0.00012719451569256435
-2.2899881562543893e-05   1.4217862099859778e-05   -0.00012719451569256435
-2.2899881562543893e-05   1.4217862099859778e-05   -0.00012719451569256435
-2.2934739678019797e-05   2.133334853536388e-05   -0.00023504011588343105
-2.2934739678019797e-05   2.133334853536388e-05   -0.00023504011588343105
-2.2934739678019797e-05   2.133334853536388e-05   -0.00023504011588343105
-2.2934739678019797e-05   2.133334853536388e-05   -0.00023504011588343105
-8.556913370568457e-05   2.050475128268772e-05   -0.0001301523008190497
-8.556913370568457e-05   2.050475128268772e-05   -0.0001301523008190497
-8.556913370568457e-05   2.050475128268772e-05   -0.0001301523008190497
-8.556913370568457e-05   2.050475128268772e-05   -0.0001301523008190497
-5.47208128609717e-05   1.6247333604917612e-05   -0.00017901171828690963
-5.47208128609717e-05   1.6247333604917612e-05   -0.00017901171828690963
-5.47208128609717e-05   1.6247333604917612e-05   -0.00017901171828690963
-5.47208128609717e-05   1.6247333604917612e-05   -0.00017901171828690963
-2.29438223112657e-05   -1.4002361168899847e-05   -0.00020680954118922242
-2.29438223112657e-05   -1.4002361168899847e-05   -0.00020680954118922242
-2.29438223112657e-05   -1.4002361168899847e-05   -0.00020680954118922242
-2.29438223112657e-05   -1.4002361168899847e-05   -0.00020680954118922242
3.8776158292950765e-05   -6.49361829068839e-06   -9.943766112193494e-05
3.8776158292950765e-05   -6.49361829068839e-06   -9.943766112193494e-05
3.8776158292950765e-05   -6.49361829068839e-06   -9.943766112193494e-05
3.8776158292950765e-05   -6.49361829068839e-06   -9.943766112193494e-05
3.928165927338643e-05   -7.798047800483456e-06   -0.0002021404726723784
3.928165927338643e-05   -7.798047800483456e-06   -0.0002021404726723784
3.928165927338643e-05   -7.798047800483456e-06   -0.0002021404726723784
3.928165927338643e-05   -7.798047800483456e-06   -0.0002021404726723784
-2.2984316466321314e-05   -6.989136826368592e-07   -0.00010262332691024047
-2.2984316466321314e-05   -6.989136826368592e-07   -0.00010262332691024047
-2.2984316466321314e-05   -6.989136826368592e-07   -0.00010262332691024047
-2.2984316466321314e-05   -6.989136826368592e-07   -0.00010262332691024047
8.062562274459682e-06   -6.713880146764269e-06   -0.00015075914493306564
8.062562274459682e-06   -6.713880146764269e-06   -0.00015075914493306564
8.062562274459682e-06   -6.713880146764269e-06   -0.00015075914493306564
8.062562274459682e-06   -6.713880146764269e-06   -0.00015075914493306564
-2.2984316466321314e-05   -7.798047800483456e-06   -0.00020639995314308671
-2.2984316466321314e-05   -7.798047800483456e-06   -0.00020639995314308671
-2.2984316466321314e-05   -7.798047800483456e-06   -0.00020639995314308671
-2.2984316466321314e-05   -7.798047800483456e-06   -0.00020639995314308671
3.9281659273386485e-05   -6.989136826368592e-07   -9.836384643953236e-05
3.9281659273386485e-05   -6.989136826368592e-07   -9.836384643953236e-05
3.9281659273386485e-05   -6.989136826368592e-07   -9.836384643953236e-05
3.9281659273386485e-05   -6.989136826368592e-07   -9.836384643953236e-05
4.046215146485114e-05   -1.694945862541937e-06   -0.00020641459502984162
4.046215146485114e-05   -1.694945862541937e-06   -0.00020641459502984162
4.046215146485114e-05   -1.694945862541937e-06   -0.00020641459502984162
4.046215146485114e-05   -1.694945862541937e-06   -0.00020641459502984162
-2.2899881562543893e-05   4.882006500417282e-06   -0.00010475737806862561
-2.2899881562543893e-05   4.882006500417282e-06   -0.00010475737806862561
-2.2899881562543893e-05   4.882006500417282e-06   -0.00010475737806862561
-2.2899881562543893e-05   4.882006500417282e-06   -0.00010475737806862561
7.707911158809468e-06   -1.894791902544088e-06   -0.00015170428689577126
7.707911158809468e-06   -1.894791902544088e-06   -0.00015170428689577126
7.707911158809468e-06   -1.894791902544088e-06   -0.00015170428689577126
7.707911158809468e-06   -1.894791902544088e-06   -0.00015170428689577126
-2.2899881562543873e-05   -1.6949458625423706e-06   -0.0002103607664476169
-2.2899881562543873e-05   -1.6949458625423706e-06   -0.0002103607664476169
-2.2899881562543873e-05   -1.6949458625423706e-06   -0.0002103607664476169
-2.2899881562543873e-05   -1.6949458625423706e-06   -0.0002103607664476169
4.04621514648513e-05   4.8820065004177154e-06   -0.00010081120665084977
4.04621514648513e-05   4.8820065004177154e-06   -0.00010081120665084977
4.04621514648513e-05   4.8820065004177154e-06   -0.00010081120665084977
4.04621514648513e-05   4.8820065004177154e-06   -0.00010081120665084977
4.103713486231902e-05   5.4478474712277465e-06   -0.00021250219850702944
4.103713486231902e-05   5.4478474712277465e-06   -0.00021250219850702944
4.103713486231902e-05   5.4478474712277465e-06   -0.00021250219850702944
4.103713486231902e-05   5.4478474712277465e-06   -0.00021250219850702944
-2.2934739678019756e-05   1.1285472069936294e-05   -0.00010938498236568958
-2.2934739678019756e-05   1.1285472069936294e-05   -0.00010938498236568958
-2.2934739678019756e-05   1.1285472069936294e-05   -0.00010938498236568958
-2.2934739678019756e-05   1.1285472069936294e-05   -0.00010938498236568958
7.925602420866051e-06   3.266991391003178e-06   -0.00015600779745647217
7.925602420866051e-06   3.266991391003178e-06   -0.00015600779745647217
7.925602420866051e-06   3.266991391003178e-06   -0.00015600779745647217
7.925602420866051e-06   3.266991391003178e-06   -0.00015600779745647217
3.8776158292950656e-05   -2.5444474185248693e-05   -0.00011372594115673833
3.8776158292950656e-05   -2.5444474185248693e-05   -0.00011372594115673833
3.8776158292950656e-05   -2.5444474185248693e-05   -0.00011372594115673833
3.8776158292950656e-05   -2.5444474185248693e-05   -0.00011372594115673833
9.37544570580979e-05   -1.1970858937875289e-05   -1.4011274066402356e-05
9.37544570580979e-05   -1.1970858937875289e-05   -1.4011274066402356e-05
9.37544570580979e-05   -1.1970858937875289e-05   -1.4011274066402356e-05
9.37544570580979e-05   -1.1970858937875289e-05   -1.4011274066402356e-05
0.00010022675250102018   -2.1881243896593097e-05   -0.00011955013664860959
0.00010022675250102018   -2.1881243896593097e-05   -0.00011955013664860959
0.00010022675250102018   -2.1881243896593097e-05   -0.00011955013664860959
0.00010022675250102018   -2.1881243896593097e-05   -0.00011955013664860959
3.928165927338643e-05   -8.054664186194719e-06   -2.6270929095459318e-05
3.928165927338643e-05   -8.054664186194719e-06   -2.6270929095459318e-05
3.928165927338643e-05   -8.054664186194719e-06   -2.6270929095459318e-05
3.928165927338643e-05   -8.054664186194719e-06   -2.6270929095459318e-05
6.510990935797658e-05   -1.6317616286900052e-05   -6.436024130935278e-05
6.510990935797658e-05   -1.6317616286900052e-05   -6.436024130935278e-05
6.510990935797658e-05   -1.6317616286900052e-05   -6.436024130935278e-05
6.510990935797658e-05   -1.6317616286900052e-05   -6.436024130935278e-05
3.928165927338643e-05   -2.1881243896593097e-05   -0.00012784608447484794
3.928165927338643e-05   -2.1881243896593097e-05   -0.00012784608447484794
3.928165927338643e-05   -2.1881243896593097e-05   -0.00012784608447484794
3.928165927338643e-05   -2.1881243896593097e-05   -0.00012784608447484794
0.00010022675250101986   -8.054664186194285e-06   -1.797498126922042e-05
0.00010022675250101986   -8.054664186194285e-06   -1.797498126922042e-05
0.00010022675250101986   -8.054664186194285e-06   -1.797498126922042e-05
0.00010022675250101986   -8.054664186194285e-06   -1.797498126922042e-05
0.00010520167251622313   -1.8811478500413426e-05   -0.0001311432468819204
0.00010520167251622313   -1.8811478500413426e-05   -0.0001311432468819204
0.00010520167251622313   -1.8811478500413426e-05   -0.0001311432468819204
0.00010520167251622313   -1.8811478500413426e-05   -0.0001311432468819204
4.04621514648513e-05   -5.343308666880351e-06   -3.132494702975377e-05
4.04621514648513e-05   -5.343308666880351e-06   -3.132494702975377e-05
4.04621514648513e-05   -5.343308666880351e-06   -3.132494702975377e-05
4.04621514648513e-05   -5.343308666880351e-06   -3.132494702975377e-05
6.907947696943031e-05   -1.431013841169098e-05   -7.364039169049908e-05
6.907947696943031e-05   -1.431013841169098e-05   -7.364039169049908e-05
6.907947696943031e-05   -1.431013841169098e-05   -7.364039169049908e-05
6.907947696943031e-05   -1.431013841169098e-05   -7.364039169049908e-05
4.046215146485125e-05   -1.8811478500413426e-05   -0.00013922414878204037
4.046215146485125e-05   -1.8811478500413426e-05   -0.00013922414878204037
4.046215146485125e-05   -1.8811478500413426e-05   -0.00013922414878204037
4.046215146485125e-05   -1.8811478500413426e-05   -0.00013922414878204037
0.0001052016725162228   -5.343308666880351e-06   -2.3244045129633493e-05
0.0001052016725162228   -5.343308666880351e-06   -2.3244045129633493e-05
0.0001052016725162228   -5.343308666880351e-06   -2.3244045129633493e-05
0.0001052016725162228   -5.343308666880351e-06   -2.3244045129633493e-05
0.00011180328599787604   -1.224288709170086e-05   -0.0001533401749336152
0.00011180328599787604   -1.224288709170086e-05   -0.0001533401749336152
0.00011180328599787604   -1.224288709170086e-05   -0.0001533401749336152
0.00011180328599787604   -1.224288709170086e-05   -0.0001533401749336152
4.103713486231913e-05   1.477584670502713e-09   -4.274320851350912e-05
4.103713486231913e-05   1.477584670502713e-09   -4.274320851350912e-05
4.103713486231913e-05   1.477584670502713e-09   -4.274320851350912e-05
4.103713486231913e-05   1.477584670502713e-09   -4.274320851350912e-05
7.037718205827942e-05   -1.1302936052691014e-05   -8.486063899102651e-05
7.037718205827942e-05   -1.1302936052691014e-05   -8.486063899102651e-05
7.037718205827942e-05   -1.1302936052691014e-05   -8.486063899102651e-05
7.037718205827942e-05   -1.1302936052691014e-05   -8.486063899102651e-05
-0.00013307884914163766   2.1393274262245486e-05   -0.00012443554723704127
-0.00013307884914163766   2.1393274262245486e-05   -0.00012443554723704127
-0.00013307884914163766   2.1393274262245486e-05   -0.00012443554723704127
-0.00013307884914163766   2.1393274262245486e-05   -0.00012443554723704127
-9.802195825548863e-05   8.756540150551412e-06   -7.35894362271425e-05
-9.802195825548863e-05   8.756540150551412e-06   -7.35894362271425e-05
-9.802195825548863e-05   8.756540150551412e-06   -7.35894362271425e-05
-9.802195825548863e-05   8.756540150551412e-06   -7.35894362271425e-05
-9.6566904074116e-05   2.7206301993976372e-05   -0.00010977309045316977
-9.6566904074116e-05   2.7206301993976372e-05   -0.00010977309045316977
-9.6566904074116e-05   2.7206301993976372e-05   -0.00010977309045316977
-9.6566904074116e-05   2.7206301993976372e-05   -0.00010977309045316977
-0.00012587741933466046   1.3602189944829542e-05   -5.275976445610637e-05
-0.00012587741933466046   1.3602189944829542e-05   -5.275976445610637e-05
-0.00012587741933466046   1.3602189944829542e-05   -5.275976445610637e-05
-0.00012587741933466046   1.3602189944829542e-05   -5.275976445610637e-05
-0.00010858162524505051   1.918169277348187e-05   -8.493378963598673e-05
-0.00010858162524505051   1.918169277348187e-05   -8.493378963598673e-05
-0.00010858162524505051   1.918169277348187e-05   -8.493378963598673e-05
-0.00010858162524505051   1.918169277348187e-05   -8.493378963598673e-05
-0.00012587741933466046   2.7206301993976372e-05   -0.00010161062322368167
-0.00012587741933466046   2.7206301993976372e-05   -0.00010161062322368167
-0.00012587741933466046   2.7206301993976372e-05   -0.00010161062322368167
-0.00012587741933466046   2.7206301993976372e-05   -0.00010161062322368167
-9.65669040741161e-05   1.3602189944829542e-05   -6.092223168559501e-05
-9.65669040741161e-05   1.3602189944829542e-05   -6.092223168559501e-05
-9.65669040741161e-05   1.3602189944829542e-05   -6.092223168559501e-05
-9.65669040741161e-05   1.3602189944829542e-05   -6.092223168559501e-05
-9.449430139421696e-05   2.9908397321603067e-05   -9.802704919250563e-05
-9.449430139421696e-05   2.9908397321603067e-05   -9.802704919250563e-05
-9.449430139421696e-05   2.9908397321603067e-05   -9.802704919250563e-05
-9.449430139421696e-05   2.9908397321603067e-05   -9.802704919250563e-05
-0.00012012114033756703   1.6042997776550584e-05   -4.6996411226555516e-05
-0.00012012114033756703   1.6042997776550584e-05   -4.6996411226555516e-05
-0.00012012114033756703   1.6042997776550584e-05   -4.6996411226555516e-05
-0.00012012114033756703   1.6042997776550584e-05   -4.6996411226555516e-05
-0.0001066757367002932   2.1793317838920967e-05   -7.285560932610187e-05
-0.0001066757367002932   2.1793317838920967e-05   -7.285560932610187e-05
-0.0001066757367002932   2.1793317838920967e-05   -7.285560932610187e-05
-0.0001066757367002932   2.1793317838920967e-05   -7.285560932610187e-05
-0.00012012114033756681   2.9908397321603067e-05   -8.970780946547345e-05
-0.00012012114033756681   2.9908397321603067e-05   -8.970780946547345e-05
-0.00012012114033756681   2.9908397321603067e-05   -8.970780946547345e-05
-0.00012012114033756681   2.9908397321603067e-05   -8.970780946547345e-05
-9.449430139421718e-05   1.6042997776550584e-05   -5.5315650953587374e-05
-9.449430139421718e-05   1.6042997776550584e-05   -5.5315650953587374e-05
-9.449430139421718e-05   1.6042997776550584e-05   -5.5315650953587374e-05
-9.449430139421718e-05   1.6042997776550584e-05   -5.5315650953587374e-05
-9.307152333645481e-05   3.32964862920105e-05   -8.29423462061947e-05
-9.307152333645481e-05   3.32964862920105e-05   -8.29423462061947e-05
-9.307152333645481e-05   3.32964862920105e-05   -8.29423462061947e-05
-9.307152333645481e-05   3.32964862920105e-05   -8.29423462061947e-05
-0.00011278842750518875   1.990568049601519e-05   -4.204635578070742e-05
-0.00011278842750518875   1.990568049601519e-05   -4.204635578070742e-05
-0.00011278842750518875   1.990568049601519e-05   -4.204635578070742e-05
-0.00011278842750518875   1.990568049601519e-05   -4.204635578070742e-05
-0.00010168299866844316   2.3592180165737595e-05   -6.276730364378593e-05
-0.00010168299866844316   2.3592180165737595e-05   -6.276730364378593e-05
-0.00010168299866844316   2.3592180165737595e-05   -6.276730364378593e-05
-0.00010168299866844316   2.3592180165737595e-05   -6.276730364378593e-05
-9.802195825548863e-05   1.1029621247725645e-05   -0.00018098550549184265
-9.802195825548863e-05   1.1029621247725645e-05   -0.00018098550549184265
-9.802195825548863e-05   1.1029621247725645e-05   -0.00018098550549184265
-9.802195825548863e-05   1.1029621247725645e-05   -0.00018098550549184265
-6.956713591973232e-05   4.9870394081509214e-06   -0.00013718635070266035
-6.956713591973232e-05   4.9870394081509214e-06   -0.00013718635070266035
-6.956713591973232e-05   4.9870394081509214e-06   -0.00013718635070266035
-6.956713591973232e-05   4.9870394081509214e-06   -0.00013718635070266035
-6.86052476280762e-05   1.7162242641015173e-05   -0.00018040572866738188
-6.86052476280762e-05   1.7162242641015173e-05   -0.00018040572866738188
-6.86052476280762e-05   1.7162242641015173e-05   -0.00018040572866738188
-6.86052476280762e-05   1.7162242641015173e-05   -0.00018040572866738188
-9.65669040741161e-05   1.0539255611442984e-05   -0.00012982917570623638
-9.65669040741161e-05   1.0539255611442984e-05   -0.00012982917570623638
-9.65669040741161e-05   1.0539255611442984e-05   -0.00012982917570623638
-9.65669040741161e-05   1.0539255611442984e-05   -0.00012982917570623638
-8.237963004156093e-05   1.1984710130801858e-05   -0.00015434190513878218
-8.237963004156093e-05   1.1984710130801858e-05   -0.00015434190513878218
-8.237963004156093e-05   1.1984710130801858e-05   -0.00015434190513878218
-8.237963004156093e-05   1.1984710130801858e-05   -0.00015434190513878218
-9.656690407411589e-05   1.7162242641015173e-05   -0.00017643193644963692
-9.656690407411589e-05   1.7162242641015173e-05   -0.00017643193644963692
-9.656690407411589e-05   1.7162242641015173e-05   -0.00017643193644963692
-9.656690407411589e-05   1.7162242641015173e-05   -0.00017643193644963692
-6.86052476280762e-05   1.0539255611442984e-05   -0.00013380296792398134
-6.86052476280762e-05   1.0539255611442984e-05   -0.00013380296792398134
-6.86052476280762e-05   1.0539255611442984e-05   -0.00013380296792398134
-6.86052476280762e-05   1.0539255611442984e-05   -0.00013380296792398134
-6.754418373240868e-05   2.273617672250922e-05   -0.00017749059570283405
-6.754418373240868e-05   2.273617672250922e-05   -0.00017749059570283405
-6.754418373240868e-05   2.273617672250922e-05   -0.00017749059570283405
-6.754418373240868e-05   2.273617672250922e-05   -0.00017749059570283405
-9.449430139421729e-05   1.5695680368767e-05   -0.00012834943512090636
-9.449430139421729e-05   1.5695680368767e-05   -0.00012834943512090636
-9.449430139421729e-05   1.5695680368767e-05   -0.00012834943512090636
-9.449430139421729e-05   1.5695680368767e-05   -0.00012834943512090636
-8.111954104960122e-05   1.6466985710596183e-05   -0.00015110348556703003
-8.111954104960122e-05   1.6466985710596183e-05   -0.00015110348556703003
-8.111954104960122e-05   1.6466985710596183e-05   -0.00015110348556703003
-8.111954104960122e-05   1.6466985710596183e-05   -0.00015110348556703003
-9.449430139421696e-05   2.273617672250922e-05   -0.0001732662978905881
-9.449430139421696e-05   2.273617672250922e-05   -0.0001732662978905881
-9.449430139421696e-05   2.273617672250922e-05   -0.0001732662978905881
-9.449430139421696e-05   2.273617672250922e-05   -0.0001732662978905881
-6.754418373240852e-05   1.5695680368767e-05   -0.00013257373293315208
-6.754418373240852e-05   1.5695680368767e-05   -0.00013257373293315208
-6.754418373240852e-05   1.5695680368767e-05   -0.00013257373293315208
-6.754418373240852e-05   1.5695680368767e-05   -0.00013257373293315208
-6.659698798182795e-05   2.8784189606392233e-05   -0.0001792106351627301
-6.659698798182795e-05   2.8784189606392233e-05   -0.0001792106351627301
-6.659698798182795e-05   2.8784189606392233e-05   -0.0001792106351627301
-6.659698798182795e-05   2.8784189606392233e-05   -0.0001792106351627301
-9.307152333645503e-05   2.1419223004011043e-05   -0.00013066742961025373
-9.307152333645503e-05   2.1419223004011043e-05   -0.00013066742961025373
-9.307152333645503e-05   2.1419223004011043e-05   -0.00013066742961025373
-9.307152333645503e-05   2.1419223004011043e-05   -0.00013066742961025373
-8.061532960856115e-05   2.1000137994716533e-05   -0.00015117630148450256
-8.061532960856115e-05   2.1000137994716533e-05   -0.00015117630148450256
-8.061532960856115e-05   2.1000137994716533e-05   -0.00015117630148450256
-8.061532960856115e-05   2.1000137994716533e-05   -0.00015117630148450256
-6.956713591973205e-05   1.8797394799796238e-06   -0.00020457463416693675
-6.956713591973205e-05   1.8797394799796238e-06   -0.00020457463416693675
-6.956713591973205e-05   1.8797394799796238e-06   -0.00020457463416693675
-6.956713591973205e-05   1.8797394799796238e-06   -0.00020457463416693675
-4.186422415948748e-05   2.8314963002257568e-06   -0.0001578320604743817
-4.186422415948748e-05   2.8314963002257568e-06   -0.0001578320604743817
-4.186422415948748e-05   2.8314963002257568e-06   -0.0001578320604743817
-4.186422415948748e-05   2.8314963002257568e-06   -0.0001578320604743817
-4.092460335834557e-05   8.039007811026615e-06   -0.00020202257221228238
-4.092460335834557e-05   8.039007811026615e-06   -0.00020202257221228238
-4.092460335834557e-05   8.039007811026615e-06   -0.00020202257221228238
-4.092460335834557e-05   8.039007811026615e-06   -0.00020202257221228238
-6.86052476280762e-05   8.479498513932864e-06   -0.00015615245951780652
-6.86052476280762e-05   8.479498513932864e-06   -0.00015615245951780652
-6.86052476280762e-05   8.479498513932864e-06   -0.00015615245951780652
-6.86052476280762e-05   8.479498513932864e-06   -0.00015615245951780652
-5.488716425740564e-05   6.089688103175055e-06   -0.00017758204555580687
-5.488716425740564e-05   6.089688103175055e-06   -0.00017758204555580687
-5.488716425740564e-05   6.089688103175055e-06   -0.00017758204555580687
-5.488716425740564e-05   6.089688103175055e-06   -0.00017758204555580687
-6.86052476280762e-05   8.039007811027048e-06   -0.00020228686663402527
-6.86052476280762e-05   8.039007811027048e-06   -0.00020228686663402527
-6.86052476280762e-05   8.039007811027048e-06   -0.00020228686663402527
-6.86052476280762e-05   8.039007811027048e-06   -0.00020228686663402527
-4.092460335834557e-05   8.479498513933731e-06   -0.00015588816509606385
-4.092460335834557e-05   8.479498513933731e-06   -0.00015588816509606385
-4.092460335834557e-05   8.479498513933731e-06   -0.00015588816509606385
-4.092460335834557e-05   8.479498513933731e-06   -0.00015588816509606385
-3.9871404482279584e-05   1.4217862099859778e-05   -0.00020255701322219322
-3.9871404482279584e-05   1.4217862099859778e-05   -0.00020255701322219322
-3.9871404482279584e-05   1.4217862099859778e-05   -0.00020255701322219322
-3.9871404482279584e-05   1.4217862099859778e-05   -0.00020255701322219322
-6.754418373240852e-05   1.4177301681576188e-05   -0.00015641137822100754
-6.754418373240852e-05   1.4177301681576188e-05   -0.00015641137822100754
-6.754418373240852e-05   1.4177301681576188e-05   -0.00015641137822100754
-6.754418373240852e-05   1.4177301681576188e-05   -0.00015641137822100754
-5.425060619204038e-05   1.0937424289921699e-05   -0.00017662341435329527
-5.425060619204038e-05   1.0937424289921699e-05   -0.00017662341435329527
-5.425060619204038e-05   1.0937424289921699e-05   -0.00017662341435329527
-5.425060619204038e-05   1.0937424289921699e-05   -0.00017662341435329527
-6.754418373240841e-05   1.4217862099859778e-05   -0.00020253267697122263
-6.754418373240841e-05   1.4217862099859778e-05   -0.00020253267697122263
-6.754418373240841e-05   1.4217862099859778e-05   -0.00020253267697122263
-6.754418373240841e-05   1.4217862099859778e-05   -0.00020253267697122263
-3.987140448227965e-05   1.4177301681576188e-05   -0.00015643571447197802
-3.987140448227965e-05   1.4177301681576188e-05   -0.00015643571447197802
-3.987140448227965e-05   1.4177301681576188e-05   -0.00015643571447197802
-3.987140448227965e-05   1.4177301681576188e-05   -0.00015643571447197802
-3.892404850877888e-05   2.050475128268772e-05   -0.000205967869256233
-3.892404850877888e-05   2.050475128268772e-05   -0.000205967869256233
-3.892404850877888e-05   2.050475128268772e-05   -0.000205967869256233
-3.892404850877888e-05   2.050475128268772e-05   -0.000205967869256233
-6.659698798182806e-05   1.9960720498157954e-05   -0.00015951988499709828
-6.659698798182806e-05   1.9960720498157954e-05   -0.00015951988499709828
-6.659698798182806e-05   1.9960720498157954e-05   -0.00015951988499709828
-6.659698798182806e-05   1.9960720498157954e-05   -0.00015951988499709828
-5.372042134745113e-05   1.5849494306146433e-05   -0.0001785140936725212
-5.372042134745113e-05   1.5849494306146433e-05   -0.0001785140936725212
-5.372042134745113e-05   1.5849494306146433e-05   -0.0001785140936725212
-5.372042134745113e-05   1.5849494306146433e-05   -0.0001785140936725212
-4.186422415948733e-05   -6.49361829068839e-06   -0.00017935723718339076
-4.186422415948733e-05   -6.49361829068839e-06   -0.00017935723718339076
-4.186422415948733e-05   -6.49361829068839e-06   -0.00017935723718339076
-4.186422415948733e-05   -6.49361829068839e-06   -0.00017935723718339076
-1.4949371830449726e-05   1.1623814570099408e-06   -0.00012990555011971024
-1.4949371830449726e-05   1.1623814570099408e-06   -0.00012990555011971024
-1.4949371830449726e-05   1.1623814570099408e-06   -0.00012990555011971024
-1.4949371830449726e-05   1.1623814570099408e-06   -0.00012990555011971024
-1.3554900068583832e-05   -6.989136826368592e-07   -0.00017362031994849194
-1.3554900068583832e-05   -6.989136826368592e-07   -0.00017362031994849194
-1.3554900068583832e-05   -6.989136826368592e-07   -0.00017362031994849194
-1.3554900068583832e-05   -6.989136826368592e-07   -0.00017362031994849194
-4.09246033583455e-05   6.627957607395658e-06   -0.00013240027057290725
-4.09246033583455e-05   6.627957607395658e-06   -0.00013240027057290725
-4.09246033583455e-05   6.627957607395658e-06   -0.00013240027057290725
-4.09246033583455e-05   6.627957607395658e-06   -0.00013240027057290725
-2.7542920752890607e-05   7.216057059033706e-07   -0.00015115926377443924
-2.7542920752890607e-05   7.216057059033706e-07   -0.00015115926377443924
-2.7542920752890607e-05   7.216057059033706e-07   -0.00015115926377443924
-2.7542920752890607e-05   7.216057059033706e-07   -0.00015115926377443924
-4.0924603358345426e-05   -6.989136826368592e-07   -0.00017801644272251102
-4.0924603358345426e-05   -6.989136826368592e-07   -0.00017801644272251102
-4.0924603358345426e-05   -6.989136826368592e-07   -0.00017801644272251102
-4.0924603358345426e-05   -6.989136826368592e-07   -0.00017801644272251102
-1.3554900068583832e-05   6.627957607395658e-06   -0.00012800414779888872
-1.3554900068583832e-05   6.627957607395658e-06   -0.00012800414779888872
-1.3554900068583832e-05   6.627957607395658e-06   -0.00012800414779888872
-1.3554900068583832e-05   6.627957607395658e-06   -0.00012800414779888872
-1.149985072200954e-05   4.882006500417282e-06   -0.00017597877596307356
-1.149985072200954e-05   4.882006500417282e-06   -0.00017597877596307356
-1.149985072200954e-05   4.882006500417282e-06   -0.00017597877596307356
-1.149985072200954e-05   4.882006500417282e-06   -0.00017597877596307356
-3.9871404482279584e-05   1.178383922571715e-05   -0.00013283395266446972
-3.9871404482279584e-05   1.178383922571715e-05   -0.00013283395266446972
-3.9871404482279584e-05   1.178383922571715e-05   -0.00013283395266446972
-3.9871404482279584e-05   1.178383922571715e-05   -0.00013283395266446972
-2.6695204736789345e-05   5.131206754565958e-06   -0.00015080270609092966
-2.6695204736789345e-05   5.131206754565958e-06   -0.00015080270609092966
-2.6695204736789345e-05   5.131206754565958e-06   -0.00015080270609092966
-2.6695204736789345e-05   5.131206754565958e-06   -0.00015080270609092966
-3.987140448227948e-05   4.882006500417282e-06   -0.0001801198755982526
-3.987140448227948e-05   4.882006500417282e-06   -0.0001801198755982526
-3.987140448227948e-05   4.882006500417282e-06   -0.0001801198755982526
-3.987140448227948e-05   4.882006500417282e-06   -0.0001801198755982526
-1.1499850722009649e-05   1.178383922571715e-05   -0.00012869285302929013
-1.1499850722009649e-05   1.178383922571715e-05   -0.00012869285302929013
-1.1499850722009649e-05   1.178383922571715e-05   -0.00012869285302929013
-1.1499850722009649e-05   1.178383922571715e-05   -0.00012869285302929013
-1.0062414115269121e-05   1.128547206993586e-05   -0.00018090228776336493
-1.0062414115269121e-05   1.128547206993586e-05   -0.00018090228776336493
-1.0062414115269121e-05   1.128547206993586e-05   -0.00018090228776336493
-1.0062414115269121e-05   1.128547206993586e-05   -0.00018090228776336493
-3.892404850877888e-05   1.7620646549771496e-05   -0.0001366006684620828
-3.892404850877888e-05   1.7620646549771496e-05   -0.0001366006684620828
-3.892404850877888e-05   1.7620646549771496e-05   -0.0001366006684620828
-3.892404850877888e-05   1.7620646549771496e-05   -0.0001366006684620828
-2.5805012771324076e-05   9.759794349108869e-06   -0.00015374921670410985
-2.5805012771324076e-05   9.759794349108869e-06   -0.00015374921670410985
-2.5805012771324076e-05   9.759794349108869e-06   -0.00015374921670410985
-2.5805012771324076e-05   9.759794349108869e-06   -0.00015374921670410985
-1.4949371830449672e-05   -1.1970858937874855e-05   -9.742141942766392e-05
-1.4949371830449672e-05   -1.1970858937874855e-05   -9.742141942766392e-05
-1.4949371830449672e-05   -1.1970858937874855e-05   -9.742141942766392e-05
-1.4949371830449672e-05   -1.1970858937874855e-05   -9.742141942766392e-05
5.1552086520476395e-06   1.5583111036797381e-06   -5.5796283265235804e-05
5.1552086520476395e-06   1.5583111036797381e-06   -5.5796283265235804e-05
5.1552086520476395e-06   1.5583111036797381e-06   -5.5796283265235804e-05
5.1552086520476395e-06   1.5583111036797381e-06   -5.5796283265235804e-05
1.2413638613546557e-05   -8.054664186194285e-06   -9.317173679254122e-05
1.2413638613546557e-05   -8.054664186194285e-06   -9.317173679254122e-05
1.2413638613546557e-05   -8.054664186194285e-06   -9.317173679254122e-05
1.2413638613546557e-05   -8.054664186194285e-06   -9.317173679254122e-05
-1.3554900068583832e-05   5.871445500268795e-06   -5.824650480086666e-05
-1.3554900068583832e-05   5.871445500268795e-06   -5.824650480086666e-05
-1.3554900068583832e-05   5.871445500268795e-06   -5.824650480086666e-05
-1.3554900068583832e-05   5.871445500268795e-06   -5.824650480086666e-05
-2.676015416217198e-06   -2.559834900086634e-06   -7.131921098126634e-05
-2.676015416217198e-06   -2.559834900086634e-06   -7.131921098126634e-05
-2.676015416217198e-06   -2.559834900086634e-06   -7.131921098126634e-05
-2.676015416217198e-06   -2.559834900086634e-06   -7.131921098126634e-05
-1.3554900068583832e-05   -8.054664186194285e-06   -0.00010152740260441825
-1.3554900068583832e-05   -8.054664186194285e-06   -0.00010152740260441825
-1.3554900068583832e-05   -8.054664186194285e-06   -0.00010152740260441825
-1.3554900068583832e-05   -8.054664186194285e-06   -0.00010152740260441825
1.2413638613546557e-05   5.871445500268795e-06   -4.989083898898888e-05
1.2413638613546557e-05   5.871445500268795e-06   -4.989083898898888e-05
1.2413638613546557e-05   5.871445500268795e-06   -4.989083898898888e-05
1.2413638613546557e-05   5.871445500268795e-06   -4.989083898898888e-05
1.8142568002541557e-05   -5.343308666879917e-06   -9.830611581428767e-05
1.8142568002541557e-05   -5.343308666879917e-06   -9.830611581428767e-05
1.8142568002541557e-05   -5.343308666879917e-06   -9.830611581428767e-05
1.8142568002541557e-05   -5.343308666879917e-06   -9.830611581428767e-05
-1.1499850722009595e-05   8.300692212604224e-06   -5.708848513439181e-05
-1.1499850722009595e-05   8.300692212604224e-06   -5.708848513439181e-05
-1.1499850722009595e-05   8.300692212604224e-06   -5.708848513439181e-05
-1.1499850722009595e-05   8.300692212604224e-06   -5.708848513439181e-05
1.028858953473511e-06   -5.007612861370608e-07   -7.26887958276193e-05
1.028858953473511e-06   -5.007612861370608e-07   -7.26887958276193e-05
1.028858953473511e-06   -5.007612861370608e-07   -7.26887958276193e-05
1.028858953473511e-06   -5.007612861370608e-07   -7.26887958276193e-05
-1.149985072200954e-05   -5.343308666880351e-06   -0.00010649251634197799
-1.149985072200954e-05   -5.343308666880351e-06   -0.00010649251634197799
-1.149985072200954e-05   -5.343308666880351e-06   -0.00010649251634197799
-1.149985072200954e-05   -5.343308666880351e-06   -0.00010649251634197799
1.8142568002541557e-05   8.300692212604224e-06   -4.890208460670096e-05
1.8142568002541557e-05   8.300692212604224e-06   -4.890208460670096e-05
1.8142568002541557e-05   8.300692212604224e-06   -4.890208460670096e-05
1.8142568002541557e-05   8.300692212604224e-06   -4.890208460670096e-05
2.5357235295788653e-05   1.477584670069032e-09   -0.00011018884287207443
2.5357235295788653e-05   1.477584670069032e-09   -0.00011018884287207443
2.5357235295788653e-05   1.477584670069032e-09   -0.00011018884287207443
2.5357235295788653e-05   1.477584670069032e-09   -0.00011018884287207443
-1.0062414115269175e-05   1.2625220581896981e-05   -5.873033965197896e-05
-1.0062414115269175e-05   1.2625220581896981e-05   -5.873033965197896e-05
-1.0062414115269175e-05   1.2625220581896981e-05   -5.873033965197896e-05
-1.0062414115269175e-05   1.2625220581896981e-05   -5.873033965197896e-05
4.186470655897763e-06   1.8660946587900282e-06   -7.602300538339505e-05
4.186470655897763e-06   1.8660946587900282e-06   -7.602300538339505e-05
4.186470655897763e-06   1.8660946587900282e-06   -7.602300538339505e-05
4.186470655897763e-06   1.8660946587900282e-06   -7.602300538339505e-05
-4.680283412000796e-05   8.756540150551412e-06   -8.328048004047853e-05
-4.680283412000796e-05   8.756540150551412e-06   -8.328048004047853e-05
-4.680283412000796e-05   8.756540150551412e-06   -8.328048004047853e-05
-4.680283412000796e-05   8.756540150551412e-06   -8.328048004047853e-05
-4.700731222263713e-05   -4.007988565531834e-06   -9.12799941078441e-05
-4.700731222263713e-05   -4.007988565531834e-06   -9.12799941078441e-05
-4.700731222263713e-05   -4.007988565531834e-06   -9.12799941078441e-05
-4.700731222263713e-05   -4.007988565531834e-06   -9.12799941078441e-05
-4.4628076945841416e-05   1.3602189944829542e-05   -7.823763912656254e-05
-4.4628076945841416e-05   1.3602189944829542e-05   -7.823763912656254e-05
-4.4628076945841416e-05   1.3602189944829542e-05   -7.823763912656254e-05
-4.4628076945841416e-05   1.3602189944829542e-05   -7.823763912656254e-05
-3.8701283561858816e-05   -7.969921706103833e-08   -7.990649460273228e-05
-3.8701283561858816e-05   -7.969921706103833e-08   -7.990649460273228e-05
-3.8701283561858816e-05   -7.969921706103833e-08   -7.990649460273228e-05
-3.8701283561858816e-05   -7.969921706103833e-08   -7.990649460273228e-05
-4.234739198290049e-05   6.026000392551564e-06   -7.749306700009957e-05
-4.234739198290049e-05   6.026000392551564e-06   -7.749306700009957e-05
-4.234739198290049e-05   6.026000392551564e-06   -7.749306700009957e-05
-4.234739198290049e-05   6.026000392551564e-06   -7.749306700009957e-05
-3.8701283561858816e-05   1.3602189944829542e-05   -7.002850562942827e-05
-3.8701283561858816e-05   1.3602189944829542e-05   -7.002850562942827e-05
-3.8701283561858816e-05   1.3602189944829542e-05   -7.002850562942827e-05
-3.8701283561858816e-05   1.3602189944829542e-05   -7.002850562942827e-05
-4.4628076945841524e-05   -7.969921706103833e-08   -8.811562809986784e-05
-4.4628076945841524e-05   -7.969921706103833e-08   -8.811562809986784e-05
-4.4628076945841524e-05   -7.969921706103833e-08   -8.811562809986784e-05
-4.4628076945841524e-05   -7.969921706103833e-08   -8.811562809986784e-05
-4.1631936241523634e-05   1.6042997776550584e-05   -7.260899424272466e-05
-4.1631936241523634e-05   1.6042997776550584e-05   -7.260899424272466e-05
-4.1631936241523634e-05   1.6042997776550584e-05   -7.260899424272466e-05
-4.1631936241523634e-05   1.6042997776550584e-05   -7.260899424272466e-05
-3.19873577790434e-05   2.1338830301920186e-06   -8.033782283237622e-05
-3.19873577790434e-05   2.1338830301920186e-06   -8.033782283237622e-05
-3.19873577790434e-05   2.1338830301920186e-06   -8.033782283237622e-05
-3.19873577790434e-05   2.1338830301920186e-06   -8.033782283237622e-05
-3.849832439614285e-05   8.038060278638126e-06   -7.302871815294916e-05
-3.849832439614285e-05   8.038060278638126e-06   -7.302871815294916e-05
-3.849832439614285e-05   8.038060278638126e-06   -7.302871815294916e-05
-3.849832439614285e-05   8.038060278638126e-06   -7.302871815294916e-05
-3.19873577790434e-05   1.6042997776550584e-05   -6.426352539490917e-05
-3.19873577790434e-05   1.6042997776550584e-05   -6.426352539490917e-05
-3.19873577790434e-05   1.6042997776550584e-05   -6.426352539490917e-05
-3.19873577790434e-05   1.6042997776550584e-05   -6.426352539490917e-05
-4.1631936241523634e-05   2.1338830301920186e-06   -8.868329168019171e-05
-4.1631936241523634e-05   2.1338830301920186e-06   -8.868329168019171e-05
-4.1631936241523634e-05   2.1338830301920186e-06   -8.868329168019171e-05
-4.1631936241523634e-05   2.1338830301920186e-06   -8.868329168019171e-05
-3.928315486464648e-05   1.9905680496016057e-05   -6.7358355616178e-05
-3.928315486464648e-05   1.9905680496016057e-05   -6.7358355616178e-05
-3.928315486464648e-05   1.9905680496016057e-05   -6.7358355616178e-05
-3.928315486464648e-05   1.9905680496016057e-05   -6.7358355616178e-05
-2.3697835090870844e-05   6.551709449462324e-06   -8.532150594453775e-05
-2.3697835090870844e-05   6.551709449462324e-06   -8.532150594453775e-05
-2.3697835090870844e-05   6.551709449462324e-06   -8.532150594453775e-05
-2.3697835090870844e-05   6.551709449462324e-06   -8.532150594453775e-05
-3.367689054058513e-05   9.955409003949492e-06   -7.073196659437321e-05
-3.367689054058513e-05   9.955409003949492e-06   -7.073196659437321e-05
-3.367689054058513e-05   9.955409003949492e-06   -7.073196659437321e-05
-3.367689054058513e-05   9.955409003949492e-06   -7.073196659437321e-05
-4.700731222263713e-05   4.987039408150054e-06   -0.00015091056264190114
-4.700731222263713e-05   4.987039408150054e-06   -0.00015091056264190114
-4.700731222263713e-05   4.987039408150054e-06   -0.00015091056264190114
-4.700731222263713e-05   4.987039408150054e-06   -0.00015091056264190114
-5.38331237513722e-05   -8.96311568782289e-07   -0.0001658169257759529
-5.38331237513722e-05   -8.96311568782289e-07   -0.0001658169257759529
-5.38331237513722e-05   -8.96311568782289e-07   -0.0001658169257759529
-5.38331237513722e-05   -8.96311568782289e-07   -0.0001658169257759529
-5.1901336954713294e-05   1.0539255611442117e-05   -0.00015103537957692186
-5.1901336954713294e-05   1.0539255611442117e-05   -0.00015103537957692186
-5.1901336954713294e-05   1.0539255611442117e-05   -0.00015103537957692186
-5.1901336954713294e-05   1.0539255611442117e-05   -0.00015103537957692186
-4.4628076945841524e-05   4.0545948952492444e-06   -0.0001592666831619913
-4.4628076945841524e-05   4.0545948952492444e-06   -0.0001592666831619913
-4.4628076945841524e-05   4.0545948952492444e-06   -0.0001592666831619913
-4.4628076945841524e-05   4.0545948952492444e-06   -0.0001592666831619913
-4.876693463331199e-05   5.7497168546010585e-06   -0.00015338566019182116
-4.876693463331199e-05   5.7497168546010585e-06   -0.00015338566019182116
-4.876693463331199e-05   5.7497168546010585e-06   -0.00015338566019182116
-4.876693463331199e-05   5.7497168546010585e-06   -0.00015338566019182116
-4.4628076945841416e-05   1.0539255611442984e-05   -0.00014714458314720423
-4.4628076945841416e-05   1.0539255611442984e-05   -0.00014714458314720423
-4.4628076945841416e-05   1.0539255611442984e-05   -0.00014714458314720423
-4.4628076945841416e-05   1.0539255611442984e-05   -0.00014714458314720423
-5.1901336954713185e-05   4.0545948952492444e-06   -0.00016315747959170764
-5.1901336954713185e-05   4.0545948952492444e-06   -0.00016315747959170764
-5.1901336954713185e-05   4.0545948952492444e-06   -0.00016315747959170764
-5.1901336954713185e-05   4.0545948952492444e-06   -0.00016315747959170764
-4.989302181931108e-05   1.5695680368766132e-05   -0.00014977086199675048
-4.989302181931108e-05   1.5695680368766132e-05   -0.00014977086199675048
-4.989302181931108e-05   1.5695680368766132e-05   -0.00014977086199675048
-4.989302181931108e-05   1.5695680368766132e-05   -0.00014977086199675048
-4.163193624152396e-05   8.815541057590782e-06   -0.00015941125437302236
-4.163193624152396e-05   8.815541057590782e-06   -0.00015941125437302236
-4.163193624152396e-05   8.815541057590782e-06   -0.00015941125437302236
-4.163193624152396e-05   8.815541057590782e-06   -0.00015941125437302236
-4.683031592103069e-05   9.733809333409803e-06   -0.00015129824920600372
-4.683031592103069e-05   9.733809333409803e-06   -0.00015129824920600372
-4.683031592103069e-05   9.733809333409803e-06   -0.00015129824920600372
-4.683031592103069e-05   9.733809333409803e-06   -0.00015129824920600372
-4.1631936241523634e-05   1.5695680368767e-05   -0.00014564277841004397
-4.1631936241523634e-05   1.5695680368767e-05   -0.00014564277841004397
-4.1631936241523634e-05   1.5695680368767e-05   -0.00014564277841004397
-4.1631936241523634e-05   1.5695680368767e-05   -0.00014564277841004397
-4.989302181931097e-05   8.815541057589915e-06   -0.00016353933795972822
-4.989302181931097e-05   8.815541057589915e-06   -0.00016353933795972822
-4.989302181931097e-05   8.815541057589915e-06   -0.00016353933795972822
-4.989302181931097e-05   8.815541057589915e-06   -0.00016353933795972822
-4.79982633091213e-05   2.1419223004011043e-05   -0.00015224876043795198
-4.79982633091213e-05   2.1419223004011043e-05   -0.00015224876043795198
-4.79982633091213e-05   2.1419223004011043e-05   -0.00015224876043795198
-4.79982633091213e-05   2.1419223004011043e-05   -0.00015224876043795198
-3.928315486464659e-05   1.4246198887637139e-05   -0.00016247012670891903
-3.928315486464659e-05   1.4246198887637139e-05   -0.00016247012670891903
-3.928315486464659e-05   1.4246198887637139e-05   -0.00016247012670891903
-3.928315486464659e-05   1.4246198887637139e-05   -0.00016247012670891903
-4.512257584945192e-05   1.3906566869046656e-05   -0.0001525339791897558
-4.512257584945192e-05   1.3906566869046656e-05   -0.0001525339791897558
-4.512257584945192e-05   1.3906566869046656e-05   -0.0001525339791897558
-4.512257584945192e-05   1.3906566869046656e-05   -0.0001525339791897558
-5.383312375137209e-05   2.831496300226624e-06   -0.00017565733709192996
-5.383312375137209e-05   2.831496300226624e-06   -0.00017565733709192996
-5.383312375137209e-05   2.831496300226624e-06   -0.00017565733709192996
-5.383312375137209e-05   2.831496300226624e-06   -0.00017565733709192996
-6.106554747351867e-05   4.066692994315196e-06   -0.0001869702586123883
-6.106554747351867e-05   4.066692994315196e-06   -0.0001869702586123883
-6.106554747351867e-05   4.066692994315196e-06   -0.0001869702586123883
-6.106554747351867e-05   4.066692994315196e-06   -0.0001869702586123883
-5.9164840578844504e-05   8.479498513932864e-06   -0.00017296664349486686
-5.9164840578844504e-05   8.479498513932864e-06   -0.00017296664349486686
-5.9164840578844504e-05   8.479498513932864e-06   -0.00017296664349486686
-5.9164840578844504e-05   8.479498513932864e-06   -0.00017296664349486686
-5.1901336954713185e-05   9.176544640400984e-06   -0.00018549071054429881
-5.1901336954713185e-05   9.176544640400984e-06   -0.00018549071054429881
-5.1901336954713185e-05   9.176544640400984e-06   -0.00018549071054429881
-5.1901336954713185e-05   9.176544640400984e-06   -0.00018549071054429881
-5.6151410528732074e-05   6.932265303584949e-06   -0.00017706068698551333
-5.6151410528732074e-05   6.932265303584949e-06   -0.00017706068698551333
-5.6151410528732074e-05   6.932265303584949e-06   -0.00017706068698551333
-5.6151410528732074e-05   6.932265303584949e-06   -0.00017706068698551333
-5.190133695471308e-05   8.479498513932864e-06   -0.00017338487117074704
-5.190133695471308e-05   8.479498513932864e-06   -0.00017338487117074704
-5.190133695471308e-05   8.479498513932864e-06   -0.00017338487117074704
-5.190133695471308e-05   8.479498513932864e-06   -0.00017338487117074704
-5.916484057884461e-05   9.176544640400984e-06   -0.00018507248286841896
-5.916484057884461e-05   9.176544640400984e-06   -0.00018507248286841896
-5.916484057884461e-05   9.176544640400984e-06   -0.00018507248286841896
-5.916484057884461e-05   9.176544640400984e-06   -0.00018507248286841896
-5.7169069020427145e-05   1.4177301681577055e-05   -0.00017347495576297816
-5.7169069020427145e-05   1.4177301681577055e-05   -0.00017347495576297816
-5.7169069020427145e-05   1.4177301681577055e-05   -0.00017347495576297816
-5.7169069020427145e-05   1.4177301681577055e-05   -0.00017347495576297816
-4.989302181931108e-05   1.439988755095635e-05   -0.00018573525261979837
-4.989302181931108e-05   1.439988755095635e-05   -0.00018573525261979837
-4.989302181931108e-05   1.439988755095635e-05   -0.00018573525261979837
-4.989302181931108e-05   1.439988755095635e-05   -0.00018573525261979837
-5.455141563423359e-05   1.1298364733848022e-05   -0.00017611034923799762
-5.455141563423359e-05   1.1298364733848022e-05   -0.00017611034923799762
-5.455141563423359e-05   1.1298364733848022e-05   -0.00017611034923799762
-5.455141563423359e-05   1.1298364733848022e-05   -0.00017611034923799762
-4.989302181931097e-05   1.4177301681576188e-05   -0.00017360850728460452
-4.989302181931097e-05   1.4177301681576188e-05   -0.00017360850728460452
-4.989302181931097e-05   1.4177301681576188e-05   -0.00017360850728460452
-4.989302181931097e-05   1.4177301681576188e-05   -0.00017360850728460452
-5.7169069020427145e-05   1.439988755095635e-05   -0.0001856017010981705
-5.7169069020427145e-05   1.439988755095635e-05   -0.0001856017010981705
-5.7169069020427145e-05   1.439988755095635e-05   -0.0001856017010981705
-5.7169069020427145e-05   1.439988755095635e-05   -0.0001856017010981705
-5.528591325086958e-05   1.9960720498157086e-05   -0.00017684169451911806
-5.528591325086958e-05   1.9960720498157086e-05   -0.00017684169451911806
-5.528591325086958e-05   1.9960720498157086e-05   -0.00017684169451911806
-5.528591325086958e-05   1.9960720498157086e-05   -0.00017684169451911806
-4.79982633091213e-05   1.9694956071907195e-05   -0.00018882831909961407
-4.79982633091213e-05   1.9694956071907195e-05   -0.00018882831909961407
-4.79982633091213e-05   1.9694956071907195e-05   -0.00018882831909961407
-4.79982633091213e-05   1.9694956071907195e-05   -0.00018882831909961407
-5.307569265048772e-05   1.572531371498917e-05   -0.00017798415144985261
-5.307569265048772e-05   1.572531371498917e-05   -0.00017798415144985261
-5.307569265048772e-05   1.572531371498917e-05   -0.00017798415144985261
-5.307569265048772e-05   1.572531371498917e-05   -0.00017798415144985261
-6.106554747351846e-05   1.1623814570090735e-06   -0.00015158330856942376
-6.106554747351846e-05   1.1623814570090735e-06   -0.00015158330856942376
-6.106554747351846e-05   1.1623814570090735e-06   -0.00015158330856942376
-6.106554747351846e-05   1.1623814570090735e-06   -0.00015158330856942376
-6.867105246849138e-05   9.05436990899025e-06   -0.00015952395715652413
-6.867105246849138e-05   9.05436990899025e-06   -0.00015952395715652413
-6.867105246849138e-05   9.05436990899025e-06   -0.00015952395715652413
-6.867105246849138e-05   9.05436990899025e-06   -0.00015952395715652413
-6.637777403779139e-05   6.627957607395658e-06   -0.00014494896311957302
-6.637777403779139e-05   6.627957607395658e-06   -0.00014494896311957302
-6.637777403779139e-05   6.627957607395658e-06   -0.00014494896311957302
-6.637777403779139e-05   6.627957607395658e-06   -0.00014494896311957302
-5.9164840578844504e-05   1.4177600694292684e-05   -0.0001615003047366214
-5.9164840578844504e-05   1.4177600694292684e-05   -0.0001615003047366214
-5.9164840578844504e-05   1.4177600694292684e-05   -0.0001615003047366214
-5.9164840578844504e-05   1.4177600694292684e-05   -0.0001615003047366214
-6.332759391414804e-05   8.329160625111798e-06   -0.00015105331846960958
-6.332759391414804e-05   8.329160625111798e-06   -0.00015105331846960958
-6.332759391414804e-05   8.329160625111798e-06   -0.00015105331846960958
-6.332759391414804e-05   8.329160625111798e-06   -0.00015105331846960958
-5.916484057884441e-05   6.627957607395658e-06   -0.00014947874897171037
-5.916484057884441e-05   6.627957607395658e-06   -0.00014947874897171037
-5.916484057884441e-05   6.627957607395658e-06   -0.00014947874897171037
-5.916484057884441e-05   6.627957607395658e-06   -0.00014947874897171037
-6.637777403779139e-05   1.4177600694292684e-05   -0.0001569705188844842
-6.637777403779139e-05   1.4177600694292684e-05   -0.0001569705188844842
-6.637777403779139e-05   1.4177600694292684e-05   -0.0001569705188844842
-6.637777403779139e-05   1.4177600694292684e-05   -0.0001569705188844842
-6.342915089502645e-05   1.178383922571715e-05   -0.00014559836112165757
-6.342915089502645e-05   1.178383922571715e-05   -0.00014559836112165757
-6.342915089502645e-05   1.178383922571715e-05   -0.00014559836112165757
-6.342915089502645e-05   1.178383922571715e-05   -0.00014559836112165757
-5.716906902042704e-05   1.8908560615403698e-05   -0.0001603066637464677
-5.716906902042704e-05   1.8908560615403698e-05   -0.0001603066637464677
-5.716906902042704e-05   1.8908560615403698e-05   -0.0001603066637464677
-5.716906902042704e-05   1.8908560615403698e-05   -0.0001603066637464677
-6.127904819829312e-05   1.2389700684257814e-05   -0.000149545382491339
-6.127904819829312e-05   1.2389700684257814e-05   -0.000149545382491339
-6.127904819829312e-05   1.2389700684257814e-05   -0.000149545382491339
-6.127904819829312e-05   1.2389700684257814e-05   -0.000149545382491339
-5.7169069020426894e-05   1.178383922571715e-05   -0.00014987319395546933
-5.7169069020426894e-05   1.178383922571715e-05   -0.00014987319395546933
-5.7169069020426894e-05   1.178383922571715e-05   -0.00014987319395546933
-5.7169069020426894e-05   1.178383922571715e-05   -0.00014987319395546933
-6.34291508950265e-05   1.8908560615403698e-05   -0.00015603183091265644
-6.34291508950265e-05   1.8908560615403698e-05   -0.00015603183091265644
-6.34291508950265e-05   1.8908560615403698e-05   -0.00015603183091265644
-6.34291508950265e-05   1.8908560615403698e-05   -0.00015603183091265644
-6.110893180138132e-05   1.7620646549772363e-05   -0.00014963770467304278
-6.110893180138132e-05   1.7620646549772363e-05   -0.00014963770467304278
-6.110893180138132e-05   1.7620646549772363e-05   -0.00014963770467304278
-6.110893180138132e-05   1.7620646549772363e-05   -0.00014963770467304278
-5.528591325086958e-05   2.4217904617008026e-05   -0.00016330109043090306
-5.528591325086958e-05   2.4217904617008026e-05   -0.00016330109043090306
-5.528591325086958e-05   2.4217904617008026e-05   -0.00016330109043090306
-5.528591325086958e-05   2.4217904617008026e-05   -0.00016330109043090306
-5.973206356683397e-05   1.6545881611794606e-05   -0.00015128762610116587
-5.973206356683397e-05   1.6545881611794606e-05   -0.00015128762610116587
-5.973206356683397e-05   1.6545881611794606e-05   -0.00015128762610116587
-5.973206356683397e-05   1.6545881611794606e-05   -0.00015128762610116587
-6.867105246849116e-05   1.5583111036797381e-06   -8.085635066869485e-05
-6.867105246849116e-05   1.5583111036797381e-06   -8.085635066869485e-05
-6.867105246849116e-05   1.5583111036797381e-06   -8.085635066869485e-05
-6.867105246849116e-05   1.5583111036797381e-06   -8.085635066869485e-05
-8.288815777382367e-05   1.5186284295226615e-05   -9.637474226265388e-05
-8.288815777382367e-05   1.5186284295226615e-05   -9.637474226265388e-05
-8.288815777382367e-05   1.5186284295226615e-05   -9.637474226265388e-05
-8.288815777382367e-05   1.5186284295226615e-05   -9.637474226265388e-05
-7.483936074490893e-05   5.871445500268795e-06   -6.681950119898214e-05
-7.483936074490893e-05   5.871445500268795e-06   -6.681950119898214e-05
-7.483936074490893e-05   5.871445500268795e-06   -6.681950119898214e-05
-7.483936074490893e-05   5.871445500268795e-06   -6.681950119898214e-05
-6.637777403779128e-05   1.982447703788564e-05   -8.9293964633414e-05
-6.637777403779128e-05   1.982447703788564e-05   -8.9293964633414e-05
-6.637777403779128e-05   1.982447703788564e-05   -8.9293964633414e-05
-6.637777403779128e-05   1.982447703788564e-05   -8.9293964633414e-05
-7.02313763146492e-05   1.1179390937701532e-05   -7.768424251187555e-05
-7.02313763146492e-05   1.1179390937701532e-05   -7.768424251187555e-05
-7.02313763146492e-05   1.1179390937701532e-05   -7.768424251187555e-05
-7.02313763146492e-05   1.1179390937701532e-05   -7.768424251187555e-05
-6.637777403779112e-05   5.871445500268795e-06   -7.519132012155086e-05
-6.637777403779112e-05   5.871445500268795e-06   -7.519132012155086e-05
-6.637777403779112e-05   5.871445500268795e-06   -7.519132012155086e-05
-6.637777403779112e-05   5.871445500268795e-06   -7.519132012155086e-05
-7.483936074490882e-05   1.9824477037884772e-05   -8.09221457108442e-05
-7.483936074490882e-05   1.9824477037884772e-05   -8.09221457108442e-05
-7.483936074490882e-05   1.9824477037884772e-05   -8.09221457108442e-05
-7.483936074490882e-05   1.9824477037884772e-05   -8.09221457108442e-05
-6.829277990261185e-05   8.300692212604224e-06   -6.580515005133111e-05
-6.829277990261185e-05   8.300692212604224e-06   -6.580515005133111e-05
-6.829277990261185e-05   8.300692212604224e-06   -6.580515005133111e-05
-6.829277990261185e-05   8.300692212604224e-06   -6.580515005133111e-05
-6.342915089502645e-05   2.1948764171651237e-05   -8.210004157273494e-05
-6.342915089502645e-05   2.1948764171651237e-05   -8.210004157273494e-05
-6.342915089502645e-05   2.1948764171651237e-05   -8.210004157273494e-05
-6.342915089502645e-05   2.1948764171651237e-05   -8.210004157273494e-05
-6.676331196249659e-05   1.3319085560212912e-05   -7.13652992934224e-05
-6.676331196249659e-05   1.3319085560212912e-05   -7.13652992934224e-05
-6.676331196249659e-05   1.3319085560212912e-05   -7.13652992934224e-05
-6.676331196249659e-05   1.3319085560212912e-05   -7.13652992934224e-05
-6.342915089502634e-05   8.300692212604224e-06   -7.399399322675915e-05
-6.342915089502634e-05   8.300692212604224e-06   -7.399399322675915e-05
-6.342915089502634e-05   8.300692212604224e-06   -7.399399322675915e-05
-6.342915089502634e-05   8.300692212604224e-06   -7.399399322675915e-05
-6.829277990261185e-05   2.1948764171651237e-05   -7.391119839730582e-05
-6.829277990261185e-05   2.1948764171651237e-05   -7.391119839730582e-05
-6.829277990261185e-05   2.1948764171651237e-05   -7.391119839730582e-05
-6.829277990261185e-05   2.1948764171651237e-05   -7.391119839730582e-05
-6.030218521691703e-05   1.2625220581896114e-05   -6.798854796779977e-05
-6.030218521691703e-05   1.2625220581896114e-05   -6.798854796779977e-05
-6.030218521691703e-05   1.2625220581896114e-05   -6.798854796779977e-05
-6.030218521691703e-05   1.2625220581896114e-05   -6.798854796779977e-05
-6.110893180138121e-05   2.5258441553631557e-05   -7.42239029100655e-05
-6.110893180138121e-05   2.5258441553631557e-05   -7.42239029100655e-05
-6.110893180138121e-05   2.5258441553631557e-05   -7.42239029100655e-05
-6.110893180138121e-05   2.5258441553631557e-05   -7.42239029100655e-05
-6.171927434371009e-05   1.5060844912323165e-05   -6.708810735473348e-05
-6.171927434371009e-05   1.5060844912323165e-05   -6.708810735473348e-05
-6.171927434371009e-05   1.5060844912323165e-05   -6.708810735473348e-05
-6.171927434371009e-05   1.5060844912323165e-05   -6.708810735473348e-05
4.04245561698535e-05   -4.007988565531834e-06   -4.256203268557853e-05
4.04245561698535e-05   -4.007988565531834e-06   -4.256203268557853e-05
4.04245561698535e-05   -4.007988565531834e-06   -4.256203268557853e-05
4.04245561698535e-05   -4.007988565531834e-06   -4.256203268557853e-05
4.069448757227333e-06   -1.703921343523991e-05   -0.00011097261329511433
4.069448757227333e-06   -1.703921343523991e-05   -0.00011097261329511433
4.069448757227333e-06   -1.703921343523991e-05   -0.00011097261329511433
4.069448757227333e-06   -1.703921343523991e-05   -0.00011097261329511433
7.33720065071615e-06   -7.969921706103833e-08   -4.69290493614145e-05
7.33720065071615e-06   -7.969921706103833e-08   -4.69290493614145e-05
7.33720065071615e-06   -7.969921706103833e-08   -4.69290493614145e-05
7.33720065071615e-06   -7.969921706103833e-08   -4.69290493614145e-05
4.9472517089777304e-05   -1.399210162805406e-05   -0.00010880713531325392
4.9472517089777304e-05   -1.399210162805406e-05   -0.00010880713531325392
4.9472517089777304e-05   -1.399210162805406e-05   -0.00010880713531325392
4.9472517089777304e-05   -1.399210162805406e-05   -0.00010880713531325392
2.4387784319632308e-05   -7.091096424902653e-06   -7.113985048490343e-05
2.4387784319632308e-05   -7.091096424902653e-06   -7.113985048490343e-05
2.4387784319632308e-05   -7.091096424902653e-06   -7.113985048490343e-05
2.4387784319632308e-05   -7.091096424902653e-06   -7.113985048490343e-05
4.9472517089777304e-05   -7.969921706103833e-08   -3.8581607914818516e-05
4.9472517089777304e-05   -7.969921706103833e-08   -3.8581607914818516e-05
4.9472517089777304e-05   -7.969921706103833e-08   -3.8581607914818516e-05
4.9472517089777304e-05   -7.969921706103833e-08   -3.8581607914818516e-05
7.33720065071615e-06   -1.399210162805406e-05   -0.0001171545767598499
7.33720065071615e-06   -1.399210162805406e-05   -0.0001171545767598499
7.33720065071615e-06   -1.399210162805406e-05   -0.0001171545767598499
7.33720065071615e-06   -1.399210162805406e-05   -0.0001171545767598499
1.1184814341213623e-05   2.1338830301920186e-06   -4.725766595012164e-05
1.1184814341213623e-05   2.1338830301920186e-06   -4.725766595012164e-05
1.1184814341213623e-05   2.1338830301920186e-06   -4.725766595012164e-05
1.1184814341213623e-05   2.1338830301920186e-06   -4.725766595012164e-05
5.713546326664644e-05   -1.1970675519907409e-05   -0.00011537934569578242
5.713546326664644e-05   -1.1970675519907409e-05   -0.00011537934569578242
5.713546326664644e-05   -1.1970675519907409e-05   -0.00011537934569578242
5.713546326664644e-05   -1.1970675519907409e-05   -0.00011537934569578242
3.0138058681794967e-05   -5.673492473689742e-06   -7.416198121543193e-05
3.0138058681794967e-05   -5.673492473689742e-06   -7.416198121543193e-05
3.0138058681794967e-05   -5.673492473689742e-06   -7.416198121543193e-05
3.0138058681794967e-05   -5.673492473689742e-06   -7.416198121543193e-05
5.713546326664666e-05   2.1338830301920186e-06   -3.879493082006077e-05
5.713546326664666e-05   2.1338830301920186e-06   -3.879493082006077e-05
5.713546326664666e-05   2.1338830301920186e-06   -3.879493082006077e-05
5.713546326664666e-05   2.1338830301920186e-06   -3.879493082006077e-05
1.1184814341213406e-05   -1.1970675519907409e-05   -0.00012384208082584372
1.1184814341213406e-05   -1.1970675519907409e-05   -0.00012384208082584372
1.1184814341213406e-05   -1.1970675519907409e-05   -0.00012384208082584372
1.1184814341213406e-05   -1.1970675519907409e-05   -0.00012384208082584372
1.4363755867546164e-05   6.551709449462324e-06   -5.170029796768179e-05
1.4363755867546164e-05   6.551709449462324e-06   -5.170029796768179e-05
1.4363755867546164e-05   6.551709449462324e-06   -5.170029796768179e-05
1.4363755867546164e-05   6.551709449462324e-06   -5.170029796768179e-05
6.633928518946265e-05   -6.867396832048803e-06   -0.0001302747164019678
6.633928518946265e-05   -6.867396832048803e-06   -0.0001302747164019678
6.633928518946265e-05   -6.867396832048803e-06   -0.0001302747164019678
6.633928518946265e-05   -6.867396832048803e-06   -0.0001302747164019678
3.473760469270841e-05   -3.600551732116028e-06   -7.956535596734217e-05
3.473760469270841e-05   -3.600551732116028e-06   -7.956535596734217e-05
3.473760469270841e-05   -3.600551732116028e-06   -7.956535596734217e-05
3.473760469270841e-05   -3.600551732116028e-06   -7.956535596734217e-05
4.069448757227333e-06   -8.96311568782289e-07   -0.00012138768868935352
4.069448757227333e-06   -8.96311568782289e-07   -0.00012138768868935352
4.069448757227333e-06   -8.96311568782289e-07   -0.00012138768868935352
4.069448757227333e-06   -8.96311568782289e-07   -0.00012138768868935352
-3.854283402136046e-05   -6.781100883689398e-06   -0.00019593903357594282
-3.854283402136046e-05   -6.781100883689398e-06   -0.00019593903357594282
-3.854283402136046e-05   -6.781100883689398e-06   -0.00019593903357594282
-3.854283402136046e-05   -6.781100883689398e-06   -0.00019593903357594282
-3.566775336779585e-05   4.0545948952492444e-06   -0.0001220814883666618
-3.566775336779585e-05   4.0545948952492444e-06   -0.0001220814883666618
-3.566775336779585e-05   4.0545948952492444e-06   -0.0001220814883666618
-3.566775336779585e-05   4.0545948952492444e-06   -0.0001220814883666618
7.33720065071615e-06   -2.614378343290466e-06   -0.00018975502778772525
7.33720065071615e-06   -2.614378343290466e-06   -0.00018975502778772525
7.33720065071615e-06   -2.614378343290466e-06   -0.00018975502778772525
7.33720065071615e-06   -2.614378343290466e-06   -0.00018975502778772525
-1.533548658998933e-05   -2.86985054788122e-07   -0.0001533636516929844
-1.533548658998933e-05   -2.86985054788122e-07   -0.0001533636516929844
-1.533548658998933e-05   -2.86985054788122e-07   -0.0001533636516929844
-1.533548658998933e-05   -2.86985054788122e-07   -0.0001533636516929844
7.33720065071615e-06   4.0545948952492444e-06   -0.00011808010442353797
7.33720065071615e-06   4.0545948952492444e-06   -0.00011808010442353797
7.33720065071615e-06   4.0545948952492444e-06   -0.00011808010442353797
7.33720065071615e-06   4.0545948952492444e-06   -0.00011808010442353797
-3.566775336779585e-05   -2.614378343290466e-06   -0.00019375641173085016
-3.566775336779585e-05   -2.614378343290466e-06   -0.00019375641173085016
-3.566775336779585e-05   -2.614378343290466e-06   -0.00019375641173085016
-3.566775336779585e-05   -2.614378343290466e-06   -0.00019375641173085016
-3.277664001701604e-05   8.815541057589915e-06   -0.00012226060496134828
-3.277664001701604e-05   8.815541057589915e-06   -0.00012226060496134828
-3.277664001701604e-05   8.815541057589915e-06   -0.00012226060496134828
-3.277664001701604e-05   8.815541057589915e-06   -0.00012226060496134828
1.1184814341213623e-05   1.6905805269289836e-06   -0.00019125471924000097
1.1184814341213623e-05   1.6905805269289836e-06   -0.00019125471924000097
1.1184814341213623e-05   1.6905805269289836e-06   -0.00019125471924000097
1.1184814341213623e-05   1.6905805269289836e-06   -0.00019125471924000097
-1.278339900606212e-05   3.1282045363303923e-06   -0.00015217027140018344
-1.278339900606212e-05   3.1282045363303923e-06   -0.00015217027140018344
-1.278339900606212e-05   3.1282045363303923e-06   -0.00015217027140018344
-1.278339900606212e-05   3.1282045363303923e-06   -0.00015217027140018344
1.1184814341213623e-05   8.815541057590782e-06   -0.0001179856286429512
1.1184814341213623e-05   8.815541057590782e-06   -0.0001179856286429512
1.1184814341213623e-05   8.815541057590782e-06   -0.0001179856286429512
1.1184814341213623e-05   8.815541057590782e-06   -0.0001179856286429512
-3.277664001701604e-05   1.6905805269289836e-06   -0.00019552969555839805
-3.277664001701604e-05   1.6905805269289836e-06   -0.00019552969555839805
-3.277664001701604e-05   1.6905805269289836e-06   -0.00019552969555839805
-3.277664001701604e-05   1.6905805269289836e-06   -0.00019552969555839805
-3.0011199463800763e-05   1.4246198887637139e-05   -0.00012531425879572147
-3.0011199463800763e-05   1.4246198887637139e-05   -0.00012531425879572147
-3.0011199463800763e-05   1.4246198887637139e-05   -0.00012531425879572147
-3.0011199463800763e-05   1.4246198887637139e-05   -0.00012531425879572147
1.4363755867546164e-05   6.783327734984773e-06   -0.00019479479498970805
1.4363755867546164e-05   6.783327734984773e-06   -0.00019479479498970805
1.4363755867546164e-05   6.783327734984773e-06   -0.00019479479498970805
1.4363755867546164e-05   6.783327734984773e-06   -0.00019479479498970805
-9.947680068766768e-06   6.908365699393425e-06   -0.0001543507578745018
-9.947680068766768e-06   6.908365699393425e-06   -0.0001543507578745018
-9.947680068766768e-06   6.908365699393425e-06   -0.0001543507578745018
-9.947680068766768e-06   6.908365699393425e-06   -0.0001543507578745018
-3.854283402136068e-05   4.066692994314329e-06   -0.00014681301313118535
-3.854283402136068e-05   4.066692994314329e-06   -0.00014681301313118535
-3.854283402136068e-05   4.066692994314329e-06   -0.00014681301313118535
-3.854283402136068e-05   4.066692994314329e-06   -0.00014681301313118535
-8.080111159516444e-05   5.128900846061019e-06   -0.00021660615104314397
-8.080111159516444e-05   5.128900846061019e-06   -0.00021660615104314397
-8.080111159516444e-05   5.128900846061019e-06   -0.00021660615104314397
-8.080111159516444e-05   5.128900846061019e-06   -0.00021660615104314397
-7.790365881582124e-05   9.176544640400984e-06   -0.00014420244516492355
-7.790365881582124e-05   9.176544640400984e-06   -0.00014420244516492355
-7.790365881582124e-05   9.176544640400984e-06   -0.00014420244516492355
-7.790365881582124e-05   9.176544640400984e-06   -0.00014420244516492355
-3.566775336779596e-05   9.530334897618967e-06   -0.00021480789506596418
-3.566775336779596e-05   9.530334897618967e-06   -0.00021480789506596418
-3.566775336779596e-05   9.530334897618967e-06   -0.00021480789506596418
-3.566775336779596e-05   9.530334897618967e-06   -0.00021480789506596418
-5.789121473320716e-05   7.874781885399036e-06   -0.00017677546098294594
-5.789121473320716e-05   7.874781885399036e-06   -0.00017677546098294594
-5.789121473320716e-05   7.874781885399036e-06   -0.00017677546098294594
-5.789121473320716e-05   7.874781885399036e-06   -0.00017677546098294594
-3.566775336779596e-05   9.176544640400984e-06   -0.00014441471931925416
-3.566775336779596e-05   9.176544640400984e-06   -0.00014441471931925416
-3.566775336779596e-05   9.176544640400984e-06   -0.00014441471931925416
-3.566775336779596e-05   9.176544640400984e-06   -0.00014441471931925416
-7.790365881582124e-05   9.530334897618967e-06   -0.00021459562091163346
-7.790365881582124e-05   9.530334897618967e-06   -0.00021459562091163346
-7.790365881582124e-05   9.530334897618967e-06   -0.00021459562091163346
-7.790365881582124e-05   9.530334897618967e-06   -0.00021459562091163346
-7.496240995540127e-05   1.439988755095635e-05   -0.00014458038233035667
-7.496240995540127e-05   1.439988755095635e-05   -0.00014458038233035667
-7.496240995540127e-05   1.439988755095635e-05   -0.00014458038233035667
-7.496240995540127e-05   1.439988755095635e-05   -0.00014458038233035667
-3.277664001701615e-05   1.4193449702727332e-05   -0.00021476613618539393
-3.277664001701615e-05   1.4193449702727332e-05   -0.00021476613618539393
-3.277664001701615e-05   1.4193449702727332e-05   -0.00021476613618539393
-3.277664001701615e-05   1.4193449702727332e-05   -0.00021476613618539393
-5.5337566096754355e-05   1.171262035074526e-05   -0.0001756760951079771
-5.5337566096754355e-05   1.171262035074526e-05   -0.0001756760951079771
-5.5337566096754355e-05   1.171262035074526e-05   -0.0001756760951079771
-5.5337566096754355e-05   1.171262035074526e-05   -0.0001756760951079771
-3.277664001701615e-05   1.439988755095635e-05   -0.00014445651962141908
-3.277664001701615e-05   1.439988755095635e-05   -0.00014445651962141908
-3.277664001701615e-05   1.439988755095635e-05   -0.00014445651962141908
-3.277664001701615e-05   1.439988755095635e-05   -0.00014445651962141908
-7.496240995540113e-05   1.4193449702725597e-05   -0.0002148899988943325
-7.496240995540113e-05   1.4193449702725597e-05   -0.0002148899988943325
-7.496240995540113e-05   1.4193449702725597e-05   -0.0002148899988943325
-7.496240995540113e-05   1.4193449702725597e-05   -0.0002148899988943325
-7.215722848818304e-05   1.9694956071907195e-05   -0.00014782352771418664
-7.215722848818304e-05   1.9694956071907195e-05   -0.00014782352771418664
-7.215722848818304e-05   1.9694956071907195e-05   -0.00014782352771418664
-7.215722848818304e-05   1.9694956071907195e-05   -0.00014782352771418664
-3.0011199463800763e-05   1.8936804409249927e-05   -0.00021761201842389658
-3.0011199463800763e-05   1.8936804409249927e-05   -0.00021761201842389658
-3.0011199463800763e-05   1.8936804409249927e-05   -0.00021761201842389658
-3.0011199463800763e-05   1.8936804409249927e-05   -0.00021761201842389658
-5.295896073831309e-05   1.5608321972214803e-05   -0.00017736866017082362
-5.295896073831309e-05   1.5608321972214803e-05   -0.00017736866017082362
-5.295896073831309e-05   1.5608321972214803e-05   -0.00017736866017082362
-5.295896073831309e-05   1.5608321972214803e-05   -0.00017736866017082362
-8.080111159516459e-05   9.054369908991118e-06   -0.00012346458003546085
-8.080111159516459e-05   9.054369908991118e-06   -0.00012346458003546085
-8.080111159516459e-05   9.054369908991118e-06   -0.00012346458003546085
-8.080111159516459e-05   9.054369908991118e-06   -0.00012346458003546085
-0.00012249475733185094   1.6670746396369937e-05   -0.00018838416370417846
-0.00012249475733185094   1.6670746396369937e-05   -0.00018838416370417846
-0.00012249475733185094   1.6670746396369937e-05   -0.00018838416370417846
-0.00012249475733185094   1.6670746396369937e-05   -0.00018838416370417846
-0.00011918897008768146   1.4177600694292684e-05   -0.0001163158549569018
-0.00011918897008768146   1.4177600694292684e-05   -0.0001163158549569018
-0.00011918897008768146   1.4177600694292684e-05   -0.0001163158549569018
-0.00011918897008768146   1.4177600694292684e-05   -0.0001163158549569018
-7.790365881582124e-05   2.136828748800293e-05   -0.00018943911915289438
-7.790365881582124e-05   2.136828748800293e-05   -0.00018943911915289438
-7.790365881582124e-05   2.136828748800293e-05   -0.00018943911915289438
-7.790365881582124e-05   2.136828748800293e-05   -0.00018943911915289438
-9.940468823190301e-05   1.593338784066419e-05   -0.00015034313033768752
-9.940468823190301e-05   1.593338784066419e-05   -0.00015034313033768752
-9.940468823190301e-05   1.593338784066419e-05   -0.00015034313033768752
-9.940468823190301e-05   1.593338784066419e-05   -0.00015034313033768752
-7.790365881582136e-05   1.4177600694292684e-05   -0.00012063026703312742
-7.790365881582136e-05   1.4177600694292684e-05   -0.00012063026703312742
-7.790365881582136e-05   1.4177600694292684e-05   -0.00012063026703312742
-7.790365881582136e-05   1.4177600694292684e-05   -0.00012063026703312742
-0.00011918897008768168   2.136828748800293e-05   -0.00018512470707666897
-0.00011918897008768168   2.136828748800293e-05   -0.00018512470707666897
-0.00011918897008768168   2.136828748800293e-05   -0.00018512470707666897
-0.00011918897008768168   2.136828748800293e-05   -0.00018512470707666897
-0.00011524448326465927   1.8908560615403698e-05   -0.00011526843526060357
-0.00011524448326465927   1.8908560615403698e-05   -0.00011526843526060357
-0.00011524448326465927   1.8908560615403698e-05   -0.00011526843526060357
-0.00011524448326465927   1.8908560615403698e-05   -0.00011526843526060357
-7.496240995540127e-05   2.560341014548953e-05   -0.00018642213382741773
-7.496240995540127e-05   2.560341014548953e-05   -0.00018642213382741773
-7.496240995540127e-05   2.560341014548953e-05   -0.00018642213382741773
-7.496240995540127e-05   2.560341014548953e-05   -0.00018642213382741773
-9.607969770942428e-05   1.9638014546348274e-05   -0.0001476474168778971
-9.607969770942428e-05   1.9638014546348274e-05   -0.0001476474168778971
-9.607969770942428e-05   1.9638014546348274e-05   -0.0001476474168778971
-9.607969770942428e-05   1.9638014546348274e-05   -0.0001476474168778971
-7.496240995540121e-05   1.8908560615403698e-05   -0.00011928534497865351
-7.496240995540121e-05   1.8908560615403698e-05   -0.00011928534497865351
-7.496240995540121e-05   1.8908560615403698e-05   -0.00011928534497865351
-7.496240995540121e-05   1.8908560615403698e-05   -0.00011928534497865351
-0.00011524448326465927   2.560341014548953e-05   -0.00018240522410936742
-0.00011524448326465927   2.560341014548953e-05   -0.00018240522410936742
-0.00011524448326465927   2.560341014548953e-05   -0.00018240522410936742
-0.00011524448326465927   2.560341014548953e-05   -0.00018240522410936742
-0.00011195473828498061   2.4217904617008026e-05   -0.00011845751826994582
-0.00011195473828498061   2.4217904617008026e-05   -0.00011845751826994582
-0.00011195473828498061   2.4217904617008026e-05   -0.00011845751826994582
-0.00011195473828498061   2.4217904617008026e-05   -0.00011845751826994582
-7.215722848818304e-05   3.035010814997352e-05   -0.0001884660233843874
-7.215722848818304e-05   3.035010814997352e-05   -0.0001884660233843874
-7.215722848818304e-05   3.035010814997352e-05   -0.0001884660233843874
-7.215722848818304e-05   3.035010814997352e-05   -0.0001884660233843874
-9.38331056140769e-05   2.329345346758528e-05   -0.0001481055686984663
-9.38331056140769e-05   2.329345346758528e-05   -0.0001481055686984663
-9.38331056140769e-05   2.329345346758528e-05   -0.0001481055686984663
-9.38331056140769e-05   2.329345346758528e-05   -0.0001481055686984663
-0.00012249475733185094   1.5186284295226615e-05   -6.392232316409282e-05
-0.00012249475733185094   1.5186284295226615e-05   -6.392232316409282e-05
-0.00012249475733185094   1.5186284295226615e-05   -6.392232316409282e-05
-0.00012249475733185094   1.5186284295226615e-05   -6.392232316409282e-05
-0.00016994563143602078   2.864932693280413e-05   -0.00013492928775516323
-0.00016994563143602078   2.864932693280413e-05   -0.00013492928775516323
-0.00016994563143602078   2.864932693280413e-05   -0.00013492928775516323
-0.00016994563143602078   2.864932693280413e-05   -0.00013492928775516323
-0.0001609454488551165   1.9824477037884772e-05   -4.042219169938296e-05
-0.0001609454488551165   1.9824477037884772e-05   -4.042219169938296e-05
-0.0001609454488551165   1.9824477037884772e-05   -4.042219169938296e-05
-0.0001609454488551165   1.9824477037884772e-05   -4.042219169938296e-05
-0.00011918897008768146   3.3519658715298536e-05   -0.00011823343198488968
-0.00011918897008768146   3.3519658715298536e-05   -0.00011823343198488968
-0.00011918897008768146   3.3519658715298536e-05   -0.00011823343198488968
-0.00011918897008768146   3.3519658715298536e-05   -0.00011823343198488968
-0.00013731851350232534   2.486218580059589e-05   -8.282304254499454e-05
-0.00013731851350232534   2.486218580059589e-05   -8.282304254499454e-05
-0.00013731851350232534   2.486218580059589e-05   -8.282304254499454e-05
-0.00013731851350232534   2.486218580059589e-05   -8.282304254499454e-05
-0.00011918897008768157   1.9824477037884772e-05   -4.863930070583052e-05
-0.00011918897008768157   1.9824477037884772e-05   -4.863930070583052e-05
-0.00011918897008768157   1.9824477037884772e-05   -4.863930070583052e-05
-0.00011918897008768157   1.9824477037884772e-05   -4.863930070583052e-05
-0.00016094544885511585   3.3519658715298536e-05   -0.00011001632297844097
-0.00016094544885511585   3.3519658715298536e-05   -0.00011001632297844097
-0.00016094544885511585   3.3519658715298536e-05   -0.00011001632297844097
-0.00016094544885511585   3.3519658715298536e-05   -0.00011001632297844097
-0.00015350616028340848   2.1948764171651237e-05   -3.334837624393867e-05
-0.00015350616028340848   2.1948764171651237e-05   -3.334837624393867e-05
-0.00015350616028340848   2.1948764171651237e-05   -3.334837624393867e-05
-0.00015350616028340848   2.1948764171651237e-05   -3.334837624393867e-05
-0.00011524448326465905   3.5262546966223496e-05   -0.00010510610761859702
-0.00011524448326465905   3.5262546966223496e-05   -0.00010510610761859702
-0.00011524448326465905   3.5262546966223496e-05   -0.00010510610761859702
-0.00011524448326465905   3.5262546966223496e-05   -0.00010510610761859702
-0.00013397662132807382   2.704310249669866e-05   -6.895421083119167e-05
-0.00013397662132807382   2.704310249669866e-05   -6.895421083119167e-05
-0.00013397662132807382   2.704310249669866e-05   -6.895421083119167e-05
-0.00013397662132807382   2.704310249669866e-05   -6.895421083119167e-05
-0.00011524448326465927   2.1948764171651237e-05   -4.133664592068098e-05
-0.00011524448326465927   2.1948764171651237e-05   -4.133664592068098e-05
-0.00011524448326465927   2.1948764171651237e-05   -4.133664592068098e-05
-0.00011524448326465927   2.1948764171651237e-05   -4.133664592068098e-05
-0.00015350616028340827   3.5262546966223496e-05   -9.711783794185466e-05
-0.00015350616028340827   3.5262546966223496e-05   -9.711783794185466e-05
-0.00015350616028340827   3.5262546966223496e-05   -9.711783794185466e-05
-0.00015350616028340827   3.5262546966223496e-05   -9.711783794185466e-05
-0.00014472605302622585   2.525844155363069e-05   -2.5998306009185606e-05
-0.00014472605302622585   2.525844155363069e-05   -2.5998306009185606e-05
-0.00014472605302622585   2.525844155363069e-05   -2.5998306009185606e-05
-0.00014472605302622585   2.525844155363069e-05   -2.5998306009185606e-05
-0.00011195473828498061   3.749240752073772e-05   -8.795754349152549e-05
-0.00011195473828498061   3.749240752073772e-05   -8.795754349152549e-05
-0.00011195473828498061   3.749240752073772e-05   -8.795754349152549e-05
-0.00011195473828498061   3.749240752073772e-05   -8.795754349152549e-05
-0.00012700368663715584   2.8103381932531417e-05   -5.724254755164475e-05
-0.00012700368663715584   2.8103381932531417e-05   -5.724254755164475e-05
-0.00012700368663715584   2.8103381932531417e-05   -5.724254755164475e-05
-0.00012700368663715584   2.8103381932531417e-05   -5.724254755164475e-05
0.0001296810021772989   -1.703921343523991e-05   -1.6666060592782778e-06
0.0001296810021772989   -1.703921343523991e-05   -1.6666060592782778e-06
0.0001296810021772989   -1.703921343523991e-05   -1.6666060592782778e-06
0.0001296810021772989   -1.703921343523991e-05   -1.6666060592782778e-06
5.538768728285547e-05   -3.082782953445391e-05   -0.00013376196720954556
5.538768728285547e-05   -3.082782953445391e-05   -0.00013376196720954556
5.538768728285547e-05   -3.082782953445391e-05   -0.00013376196720954556
5.538768728285547e-05   -3.082782953445391e-05   -0.00013376196720954556
5.937769701699013e-05   -1.399210162805406e-05   -1.533783436082764e-05
5.937769701699013e-05   -1.399210162805406e-05   -1.533783436082764e-05
5.937769701699013e-05   -1.399210162805406e-05   -1.533783436082764e-05
5.937769701699013e-05   -1.399210162805406e-05   -1.533783436082764e-05
0.00013960238423967974   -2.8659517406184193e-05   -0.00014024519693176538
0.00013960238423967974   -2.8659517406184193e-05   -0.00014024519693176538
0.00013960238423967974   -2.8659517406184193e-05   -0.00014024519693176538
0.00013960238423967974   -2.8659517406184193e-05   -0.00014024519693176538
9.214615099327434e-05   -2.028835166107551e-05   -6.617417430148775e-05
9.214615099327434e-05   -2.028835166107551e-05   -6.617417430148775e-05
9.214615099327434e-05   -2.028835166107551e-05   -6.617417430148775e-05
9.214615099327434e-05   -2.028835166107551e-05   -6.617417430148775e-05
0.00013960238423967996   -1.399210162805406e-05   -6.537384893950081e-06
0.00013960238423967996   -1.399210162805406e-05   -6.537384893950081e-06
0.00013960238423967996   -1.399210162805406e-05   -6.537384893950081e-06
0.00013960238423967996   -1.399210162805406e-05   -6.537384893950081e-06
5.937769701699002e-05   -2.8659517406184193e-05   -0.0001490456463986438
5.937769701699002e-05   -2.8659517406184193e-05   -0.0001490456463986438
5.937769701699002e-05   -2.8659517406184193e-05   -0.0001490456463986438
5.937769701699002e-05   -2.8659517406184193e-05   -0.0001490456463986438
6.379423615496672e-05   -1.1970675519909144e-05   -2.13127662034001e-05
6.379423615496672e-05   -1.1970675519909144e-05   -2.13127662034001e-05
6.379423615496672e-05   -1.1970675519909144e-05   -2.13127662034001e-05
6.379423615496672e-05   -1.1970675519909144e-05   -2.13127662034001e-05
0.00014795119803630145   -2.6809337981794495e-05   -0.00015267117186182518
0.00014795119803630145   -2.6809337981794495e-05   -0.00015267117186182518
0.00014795119803630145   -2.6809337981794495e-05   -0.00015267117186182518
0.00014795119803630145   -2.6809337981794495e-05   -0.00015267117186182518
9.960003692043685e-05   -1.946566945161543e-05   -7.649210445349192e-05
9.960003692043685e-05   -1.946566945161543e-05   -7.649210445349192e-05
9.960003692043685e-05   -1.946566945161543e-05   -7.649210445349192e-05
9.960003692043685e-05   -1.946566945161543e-05   -7.649210445349192e-05
0.00014795119803630145   -1.1970675519909144e-05   -1.240956872626802e-05
0.00014795119803630145   -1.1970675519909144e-05   -1.240956872626802e-05
0.00014795119803630145   -1.1970675519909144e-05   -1.240956872626802e-05
0.00014795119803630145   -1.1970675519909144e-05   -1.240956872626802e-05
6.379423615496661e-05   -2.680933798179623e-05   -0.00016157436933895812
6.379423615496661e-05   -2.680933798179623e-05   -0.00016157436933895812
6.379423615496661e-05   -2.680933798179623e-05   -0.00016157436933895812
6.379423615496661e-05   -2.680933798179623e-05   -0.00016157436933895812
6.74562018430049e-05   -6.867396832048803e-06   -3.514638070681569e-05
6.74562018430049e-05   -6.867396832048803e-06   -3.514638070681569e-05
6.74562018430049e-05   -6.867396832048803e-06   -3.514638070681569e-05
6.74562018430049e-05   -6.867396832048803e-06   -3.514638070681569e-05
0.00015764307219918137   -2.094337534890023e-05   -0.00017701224419033228
0.00015764307219918137   -2.094337534890023e-05   -0.00017701224419033228
0.00015764307219918137   -2.094337534890023e-05   -0.00017701224419033228
0.00015764307219918137   -2.094337534890023e-05   -0.00017701224419033228
0.00010367925486702361   -1.7187365402468804e-05   -8.932615460459912e-05
0.00010367925486702361   -1.7187365402468804e-05   -8.932615460459912e-05
0.00010367925486702361   -1.7187365402468804e-05   -8.932615460459912e-05
0.00010367925486702361   -1.7187365402468804e-05   -8.932615460459912e-05
5.5387687282855576e-05   -6.781100883689398e-06   -9.13753224106922e-05
5.5387687282855576e-05   -6.781100883689398e-06   -9.13753224106922e-05
5.5387687282855576e-05   -6.781100883689398e-06   -9.13753224106922e-05
5.5387687282855576e-05   -6.781100883689398e-06   -9.13753224106922e-05
-2.338392947481133e-05   -1.45059925869169e-05   -0.0002272962853620726
-2.338392947481133e-05   -1.45059925869169e-05   -0.0002272962853620726
-2.338392947481133e-05   -1.45059925869169e-05   -0.0002272962853620726
-2.338392947481133e-05   -1.45059925869169e-05   -0.0002272962853620726
-1.966353068922678e-05   -2.614378343290466e-06   -9.327897788631058e-05
-1.966353068922678e-05   -2.614378343290466e-06   -9.327897788631058e-05
-1.966353068922678e-05   -2.614378343290466e-06   -9.327897788631058e-05
-1.966353068922678e-05   -2.614378343290466e-06   -9.327897788631058e-05
5.937769701699002e-05   -1.1515532505968276e-05   -0.00021967366489906385
5.937769701699002e-05   -1.1515532505968276e-05   -0.00021967366489906385
5.937769701699002e-05   -1.1515532505968276e-05   -0.00021967366489906385
5.937769701699002e-05   -1.1515532505968276e-05   -0.00021967366489906385
1.812940839214717e-05   -7.0267027746529626e-06   -0.00015361981502978392
1.812940839214717e-05   -7.0267027746529626e-06   -0.00015361981502978392
1.812940839214717e-05   -7.0267027746529626e-06   -0.00015361981502978392
1.812940839214717e-05   -7.0267027746529626e-06   -0.00015361981502978392
5.937769701699013e-05   -2.614378343290466e-06   -8.793828538870233e-05
5.937769701699013e-05   -2.614378343290466e-06   -8.793828538870233e-05
5.937769701699013e-05   -2.614378343290466e-06   -8.793828538870233e-05
5.937769701699013e-05   -2.614378343290466e-06   -8.793828538870233e-05
-1.966353068922678e-05   -1.1515532505968276e-05   -0.00022501435739667123
-1.966353068922678e-05   -1.1515532505968276e-05   -0.00022501435739667123
-1.966353068922678e-05   -1.1515532505968276e-05   -0.00022501435739667123
-1.966353068922678e-05   -1.1515532505968276e-05   -0.00022501435739667123
-1.6111027545526917e-05   1.690580526927249e-06   -9.445462875849742e-05
-1.6111027545526917e-05   1.690580526927249e-06   -9.445462875849742e-05
-1.6111027545526917e-05   1.690580526927249e-06   -9.445462875849742e-05
-1.6111027545526917e-05   1.690580526927249e-06   -9.445462875849742e-05
6.379423615496661e-05   -7.858126374639396e-06   -0.00022190084411838058
6.379423615496661e-05   -7.858126374639396e-06   -0.00022190084411838058
6.379423615496661e-05   -7.858126374639396e-06   -0.00022190084411838058
6.379423615496661e-05   -7.858126374639396e-06   -0.00022190084411838058
2.1091405242960653e-05   -4.386825347535428e-06   -0.00015281223988129582
2.1091405242960653e-05   -4.386825347535428e-06   -0.00015281223988129582
2.1091405242960653e-05   -4.386825347535428e-06   -0.00015281223988129582
2.1091405242960653e-05   -4.386825347535428e-06   -0.00015281223988129582
6.379423615496672e-05   1.6905805269289836e-06   -8.872540461755864e-05
6.379423615496672e-05   1.6905805269289836e-06   -8.872540461755864e-05
6.379423615496672e-05   1.6905805269289836e-06   -8.872540461755864e-05
6.379423615496672e-05   1.6905805269289836e-06   -8.872540461755864e-05
-1.6111027545526917e-05   -7.858126374637661e-06   -0.0002276300682593213
-1.6111027545526917e-05   -7.858126374637661e-06   -0.0002276300682593213
-1.6111027545526917e-05   -7.858126374637661e-06   -0.0002276300682593213
-1.6111027545526917e-05   -7.858126374637661e-06   -0.0002276300682593213
-1.277125018737718e-05   6.783327734984773e-06   -9.764148995924753e-05
-1.277125018737718e-05   6.783327734984773e-06   -9.764148995924753e-05
-1.277125018737718e-05   6.783327734984773e-06   -9.764148995924753e-05
-1.277125018737718e-05   6.783327734984773e-06   -9.764148995924753e-05
6.74562018430049e-05   -3.260829654346681e-06   -0.0002253274155762854
6.74562018430049e-05   -3.260829654346681e-06   -0.0002253274155762854
6.74562018430049e-05   -3.260829654346681e-06   -0.0002253274155762854
6.74562018430049e-05   -3.260829654346681e-06   -0.0002253274155762854
2.4770254989762888e-05   -1.134122559256004e-06   -0.00015546019507793997
2.4770254989762888e-05   -1.134122559256004e-06   -0.00015546019507793997
2.4770254989762888e-05   -1.134122559256004e-06   -0.00015546019507793997
2.4770254989762888e-05   -1.134122559256004e-06   -0.00015546019507793997
-2.338392947481133e-05   5.128900846061019e-06   -0.00011731469961087648
-2.338392947481133e-05   5.128900846061019e-06   -0.00011731469961087648
-2.338392947481133e-05   5.128900846061019e-06   -0.00011731469961087648
-2.338392947481133e-05   5.128900846061019e-06   -0.00011731469961087648
-0.00010076861060287801   2.503809603190965e-06   -0.0002478642229033776
-0.00010076861060287801   2.503809603190965e-06   -0.0002478642229033776
-0.00010076861060287801   2.503809603190965e-06   -0.0002478642229033776
-0.00010076861060287801   2.503809603190965e-06   -0.0002478642229033776
-9.676311854552055e-05   9.530334897618967e-06   -0.00011653417539250494
-9.676311854552055e-05   9.530334897618967e-06   -0.00011653417539250494
-9.676311854552055e-05   9.530334897618967e-06   -0.00011653417539250494
-9.676311854552055e-05   9.530334897618967e-06   -0.00011653417539250494
-1.966353068922678e-05   5.857477945819811e-06   -0.0002428297743152473
-1.966353068922678e-05   5.857477945819811e-06   -0.0002428297743152473
-1.966353068922678e-05   5.857477945819811e-06   -0.0002428297743152473
-1.966353068922678e-05   5.857477945819811e-06   -0.0002428297743152473
-5.973030626189284e-05   7.026672086393737e-06   -0.0001767533315118145
-5.973030626189284e-05   7.026672086393737e-06   -0.0001767533315118145
-5.973030626189284e-05   7.026672086393737e-06   -0.0001767533315118145
-5.973030626189284e-05   7.026672086393737e-06   -0.0001767533315118145
-1.966353068922678e-05   9.530334897618967e-06   -0.00011433046122142493
-1.966353068922678e-05   9.530334897618967e-06   -0.00011433046122142493
-1.966353068922678e-05   9.530334897618967e-06   -0.00011433046122142493
-1.966353068922678e-05   9.530334897618967e-06   -0.00011433046122142493
-9.676311854552055e-05   5.857477945819811e-06   -0.0002450334884863282
-9.676311854552055e-05   5.857477945819811e-06   -0.0002450334884863282
-9.676311854552055e-05   5.857477945819811e-06   -0.0002450334884863282
-9.676311854552055e-05   5.857477945819811e-06   -0.0002450334884863282
-9.29015445853514e-05   1.4193449702727332e-05   -0.00011635803705389684
-9.29015445853514e-05   1.4193449702727332e-05   -0.00011635803705389684
-9.29015445853514e-05   1.4193449702727332e-05   -0.00011635803705389684
-9.29015445853514e-05   1.4193449702727332e-05   -0.00011635803705389684
-1.6111027545526917e-05   9.748503588721466e-06   -0.00024167526445186796
-1.6111027545526917e-05   9.748503588721466e-06   -0.00024167526445186796
-1.6111027545526917e-05   9.748503588721466e-06   -0.00024167526445186796
-1.6111027545526917e-05   9.748503588721466e-06   -0.00024167526445186796
-5.6279954317624634e-05   1.016506988515617e-05   -0.00017497699294289964
-5.6279954317624634e-05   1.016506988515617e-05   -0.00017497699294289964
-5.6279954317624634e-05   1.016506988515617e-05   -0.00017497699294289964
-5.6279954317624634e-05   1.016506988515617e-05   -0.00017497699294289964
-1.6111027545526917e-05   1.4193449702727332e-05   -0.00011369106938549384
-1.6111027545526917e-05   1.4193449702727332e-05   -0.00011369106938549384
-1.6111027545526917e-05   1.4193449702727332e-05   -0.00011369106938549384
-1.6111027545526917e-05   1.4193449702727332e-05   -0.00011369106938549384
-9.29015445853514e-05   9.748503588721466e-06   -0.0002443422321202716
-9.29015445853514e-05   9.748503588721466e-06   -0.0002443422321202716
-9.29015445853514e-05   9.748503588721466e-06   -0.0002443422321202716
-9.29015445853514e-05   9.748503588721466e-06   -0.0002443422321202716
-8.933293444805658e-05   1.8936804409251662e-05   -0.00011908038164842524
-8.933293444805658e-05   1.8936804409251662e-05   -0.00011908038164842524
-8.933293444805658e-05   1.8936804409251662e-05   -0.00011908038164842524
-8.933293444805658e-05   1.8936804409251662e-05   -0.00011908038164842524
-1.2771250187377289e-05   1.3771152831614647e-05   -0.00024358379780297658
-1.2771250187377289e-05   1.3771152831614647e-05   -0.00024358379780297658
-1.2771250187377289e-05   1.3771152831614647e-05   -0.00024358379780297658
-1.2771250187377289e-05   1.3771152831614647e-05   -0.00024358379780297658
-5.319413702550384e-05   1.338557802774143e-05   -0.00017598097485711046
-5.319413702550384e-05   1.338557802774143e-05   -0.00017598097485711046
-5.319413702550384e-05   1.338557802774143e-05   -0.00017598097485711046
-5.319413702550384e-05   1.338557802774143e-05   -0.00017598097485711046
-0.00010076861060287818   1.6670746396369937e-05   -9.523759291006195e-05
-0.00010076861060287818   1.6670746396369937e-05   -9.523759291006195e-05
-0.00010076861060287818   1.6670746396369937e-05   -9.523759291006195e-05
-0.00010076861060287818   1.6670746396369937e-05   -9.523759291006195e-05
-0.00017664152078097765   2.011951747351269e-05   -0.00021962318056060765
-0.00017664152078097765   2.011951747351269e-05   -0.00021962318056060765
-0.00017664152078097765   2.011951747351269e-05   -0.00021962318056060765
-0.00017664152078097765   2.011951747351269e-05   -0.00021962318056060765
-0.000171818590662039   2.136828748800293e-05   -8.95660924002074e-05
-0.000171818590662039   2.136828748800293e-05   -8.95660924002074e-05
-0.000171818590662039   2.136828748800293e-05   -8.95660924002074e-05
-0.000171818590662039   2.136828748800293e-05   -8.95660924002074e-05
-9.676311854552074e-05   2.4387589543933483e-05   -0.00021647012716129708
-9.676311854552074e-05   2.4387589543933483e-05   -0.00021647012716129708
-9.676311854552074e-05   2.4387589543933483e-05   -0.00021647012716129708
-9.676311854552074e-05   2.4387589543933483e-05   -0.00021647012716129708
-0.00013549908079052577   2.1538767806139614e-05   -0.0001502008970436122
-0.00013549908079052577   2.1538767806139614e-05   -0.0001502008970436122
-0.00013549908079052577   2.1538767806139614e-05   -0.0001502008970436122
-0.00013549908079052577   2.1538767806139614e-05   -0.0001502008970436122
-9.676311854552074e-05   2.136828748800293e-05   -9.137767363376608e-05
-9.676311854552074e-05   2.136828748800293e-05   -9.137767363376608e-05
-9.676311854552074e-05   2.136828748800293e-05   -9.137767363376608e-05
-9.676311854552074e-05   2.136828748800293e-05   -9.137767363376608e-05
-0.00017181859066203929   2.4387589543933483e-05   -0.00021465854592773916
-0.00017181859066203929   2.4387589543933483e-05   -0.00021465854592773916
-0.00017181859066203929   2.4387589543933483e-05   -0.00021465854592773916
-0.00017181859066203929   2.4387589543933483e-05   -0.00021465854592773916
-0.00016649269128928573   2.560341014548953e-05   -8.641342333771344e-05
-0.00016649269128928573   2.560341014548953e-05   -8.641342333771344e-05
-0.00016649269128928573   2.560341014548953e-05   -8.641342333771344e-05
-0.00016649269128928573   2.560341014548953e-05   -8.641342333771344e-05
-9.290154458535153e-05   2.8064657894271566e-05   -0.0002105420831602063
-9.290154458535153e-05   2.8064657894271566e-05   -0.0002105420831602063
-9.290154458535153e-05   2.8064657894271566e-05   -0.0002105420831602063
-9.290154458535153e-05   2.8064657894271566e-05   -0.0002105420831602063
-0.00013063191260528602   2.4856078752020713e-05   -0.00014573298897496484
-0.00013063191260528602   2.4856078752020713e-05   -0.00014573298897496484
-0.00013063191260528602   2.4856078752020713e-05   -0.00014573298897496484
-0.00013063191260528602   2.4856078752020713e-05   -0.00014573298897496484
-9.290154458535145e-05   2.560341014548953e-05   -8.7890171986983e-05
-9.290154458535145e-05   2.560341014548953e-05   -8.7890171986983e-05
-9.290154458535145e-05   2.560341014548953e-05   -8.7890171986983e-05
-9.290154458535145e-05   2.560341014548953e-05   -8.7890171986983e-05
-0.00016649269128928573   2.8064657894271566e-05   -0.00020906533451093764
-0.00016649269128928573   2.8064657894271566e-05   -0.00020906533451093764
-0.00016649269128928573   2.8064657894271566e-05   -0.00020906533451093764
-0.00016649269128928573   2.8064657894271566e-05   -0.00020906533451093764
-0.00016198945067097748   3.035010814997352e-05   -8.840564015586382e-05
-0.00016198945067097748   3.035010814997352e-05   -8.840564015586382e-05
-0.00016198945067097748   3.035010814997352e-05   -8.840564015586382e-05
-0.00016198945067097748   3.035010814997352e-05   -8.840564015586382e-05
-8.933293444805674e-05   3.21398672424051e-05   -0.00021057368931619145
-8.933293444805674e-05   3.21398672424051e-05   -0.00021057368931619145
-8.933293444805674e-05   3.21398672424051e-05   -0.00021057368931619145
-8.933293444805674e-05   3.21398672424051e-05   -0.00021057368931619145
-0.0001275777473658202   2.791456272270218e-05   -0.00014429715174143131
-0.0001275777473658202   2.791456272270218e-05   -0.00014429715174143131
-0.0001275777473658202   2.791456272270218e-05   -0.00014429715174143131
-0.0001275777473658202   2.791456272270218e-05   -0.00014429715174143131
-0.00017664152078097765   2.864932693280413e-05   -4.7791279897306874e-05
-0.00017664152078097765   2.864932693280413e-05   -4.7791279897306874e-05
-0.00017664152078097765   2.864932693280413e-05   -4.7791279897306874e-05
-0.00017664152078097765   2.864932693280413e-05   -4.7791279897306874e-05
-0.0002564526301673865   3.9652499410128966e-05   -0.0001742078920549282
-0.0002564526301673865   3.9652499410128966e-05   -0.0001742078920549282
-0.0002564526301673865   3.9652499410128966e-05   -0.0001742078920549282
-0.0002564526301673865   3.9652499410128966e-05   -0.0001742078920549282
-0.0002454510020879722   3.3519658715298536e-05   -1.559340608907247e-05
-0.0002454510020879722   3.3519658715298536e-05   -1.559340608907247e-05
-0.0002454510020879722   3.3519658715298536e-05   -1.559340608907247e-05
-0.0002454510020879722   3.3519658715298536e-05   -1.559340608907247e-05
-0.000171818590662039   4.532201074755951e-05   -0.00014539550301831774
-0.000171818590662039   4.532201074755951e-05   -0.00014539550301831774
-0.000171818590662039   4.532201074755951e-05   -0.00014539550301831774
-0.000171818590662039   4.532201074755951e-05   -0.00014539550301831774
-0.0002037974741749486   3.778053416556362e-05   -8.757247788093725e-05
-0.0002037974741749486   3.778053416556362e-05   -8.757247788093725e-05
-0.0002037974741749486   3.778053416556362e-05   -8.757247788093725e-05
-0.0002037974741749486   3.778053416556362e-05   -8.757247788093725e-05
-0.00017181859066203915   3.3519658715298536e-05   -2.2674817308428706e-05
-0.00017181859066203915   3.3519658715298536e-05   -2.2674817308428706e-05
-0.00017181859066203915   3.3519658715298536e-05   -2.2674817308428706e-05
-0.00017181859066203915   3.3519658715298536e-05   -2.2674817308428706e-05
-0.0002454510020879718   4.532201074755951e-05   -0.00013831409179896129
-0.0002454510020879718   4.532201074755951e-05   -0.00013831409179896129
-0.0002454510020879718   4.532201074755951e-05   -0.00013831409179896129
-0.0002454510020879718   4.532201074755951e-05   -0.00013831409179896129
-0.00023639633137696476   3.5262546966223496e-05   -2.1863929911894453e-06
-0.00023639633137696476   3.5262546966223496e-05   -2.1863929911894453e-06
-0.00023639633137696476   3.5262546966223496e-05   -2.1863929911894453e-06
-0.00023639633137696476   3.5262546966223496e-05   -2.1863929911894453e-06
-0.00016649269128928573   4.680907005914954e-05   -0.00012562037365974362
-0.00016649269128928573   4.680907005914954e-05   -0.00012562037365974362
-0.00016649269128928573   4.680907005914954e-05   -0.00012562037365974362
-0.00016649269128928573   4.680907005914954e-05   -0.00012562037365974362
-0.0001999891162876881   4.002494329453238e-05   -6.572252260363468e-05
-0.0001999891162876881   4.002494329453238e-05   -6.572252260363468e-05
-0.0001999891162876881   4.002494329453238e-05   -6.572252260363468e-05
-0.0001999891162876881   4.002494329453238e-05   -6.572252260363468e-05
-0.00016649269128928573   3.5262546966223496e-05   -9.114306846944725e-06
-0.00016649269128928573   3.5262546966223496e-05   -9.114306846944725e-06
-0.00016649269128928573   3.5262546966223496e-05   -9.114306846944725e-06
-0.00016649269128928573   3.5262546966223496e-05   -9.114306846944725e-06
-0.000236396331376964   4.6809070059147806e-05   -0.00011869245980398839
-0.000236396331376964   4.6809070059147806e-05   -0.00011869245980398839
-0.000236396331376964   4.6809070059147806e-05   -0.00011869245980398839
-0.000236396331376964   4.6809070059147806e-05   -0.00011869245980398839
-0.00022664703945450006   3.749240752073772e-05   1.4795608053294954e-05
-0.00022664703945450006   3.749240752073772e-05   1.4795608053294954e-05
-0.00022664703945450006   3.749240752073772e-05   1.4795608053294954e-05
-0.00022664703945450006   3.749240752073772e-05   1.4795608053294954e-05
-0.00016198945067097748   4.811255824753273e-05   -9.933913035531806e-05
-0.00016198945067097748   4.811255824753273e-05   -9.933913035531806e-05
-0.00016198945067097748   4.811255824753273e-05   -9.933913035531806e-05
-0.00016198945067097748   4.811255824753273e-05   -9.933913035531806e-05
-0.00019084310272485423   4.039473230745688e-05   -4.66190147014817e-05
-0.00019084310272485423   4.039473230745688e-05   -4.66190147014817e-05
-0.00019084310272485423   4.039473230745688e-05   -4.66190147014817e-05
-0.00019084310272485423   4.039473230745688e-05   -4.66190147014817e-05
0.00022079231799309348   -3.082782953445391e-05   4.3084470944448894e-05
0.00022079231799309348   -3.082782953445391e-05   4.3084470944448894e-05
0.00022079231799309348   -3.082782953445391e-05   4.3084470944448894e-05
0.00022079231799309348   -3.082782953445391e-05   4.3084470944448894e-05
0.0001065574058931024   -4.575128521810967e-05   -0.00015626112263239598
0.0001065574058931024   -4.575128521810967e-05   -0.00015626112263239598
0.0001065574058931024   -4.575128521810967e-05   -0.00015626112263239598
0.0001065574058931024   -4.575128521810967e-05   -0.00015626112263239598
0.00011098362974587604   -2.8659517406184193e-05   2.0414390038452773e-05
0.00011098362974587604   -2.8659517406184193e-05   2.0414390038452773e-05
0.00011098362974587604   -2.8659517406184193e-05   2.0414390038452773e-05
0.00011098362974587604   -2.8659517406184193e-05   2.0414390038452773e-05
0.00023100683512892366   -4.4670532033471225e-05   -0.00017001767682358888
0.00023100683512892366   -4.4670532033471225e-05   -0.00017001767682358888
0.00023100683512892366   -4.4670532033471225e-05   -0.00017001767682358888
0.00023100683512892366   -4.4670532033471225e-05   -0.00017001767682358888
0.00016053908910149112   -3.3777394314224093e-05   -5.9107316076082925e-05
0.00016053908910149112   -3.3777394314224093e-05   -5.9107316076082925e-05
0.00016053908910149112   -3.3777394314224093e-05   -5.9107316076082925e-05
0.00016053908910149112   -3.3777394314224093e-05   -5.9107316076082925e-05
0.0002310068351289243   -2.8659517406184193e-05   3.0020998814825513e-05
0.0002310068351289243   -2.8659517406184193e-05   3.0020998814825513e-05
0.0002310068351289243   -2.8659517406184193e-05   3.0020998814825513e-05
0.0002310068351289243   -2.8659517406184193e-05   3.0020998814825513e-05
0.00011098362974587583   -4.4670532033471225e-05   -0.00017962428559996097
0.00011098362974587583   -4.4670532033471225e-05   -0.00017962428559996097
0.00011098362974587583   -4.4670532033471225e-05   -0.00017962428559996097
0.00011098362974587583   -4.4670532033471225e-05   -0.00017962428559996097
0.00011538509817547152   -2.680933798179623e-05   9.352067948536352e-06
0.00011538509817547152   -2.680933798179623e-05   9.352067948536352e-06
0.00011538509817547152   -2.680933798179623e-05   9.352067948536352e-06
0.00011538509817547152   -2.680933798179623e-05   9.352067948536352e-06
0.00023885665165886832   -4.312383876307717e-05   -0.00018664515405502182
0.00023885665165886832   -4.312383876307717e-05   -0.00018664515405502182
0.00023885665165886832   -4.312383876307717e-05   -0.00018664515405502182
0.00023885665165886832   -4.312383876307717e-05   -0.00018664515405502182
0.00016913155604598903   -3.366850728753895e-05   -7.61098602522132e-05
0.00016913155604598903   -3.366850728753895e-05   -7.61098602522132e-05
0.00016913155604598903   -3.366850728753895e-05   -7.61098602522132e-05
0.00016913155604598903   -3.366850728753895e-05   -7.61098602522132e-05
0.00023885665165886832   -2.680933798179623e-05   1.9140768417306303e-05
0.00023885665165886832   -2.680933798179623e-05   1.9140768417306303e-05
0.00023885665165886832   -2.680933798179623e-05   1.9140768417306303e-05
0.00023885665165886832   -2.680933798179623e-05   1.9140768417306303e-05
0.00011538509817547152   -4.31238387630789e-05   -0.00019643385452379133
0.00011538509817547152   -4.31238387630789e-05   -0.00019643385452379133
0.00011538509817547152   -4.31238387630789e-05   -0.00019643385452379133
0.00011538509817547152   -4.31238387630789e-05   -0.00019643385452379133
0.00011838513434951278   -2.0943375348901963e-05   -1.2978650036844092e-05
0.00011838513434951278   -2.0943375348901963e-05   -1.2978650036844092e-05
0.00011838513434951278   -2.0943375348901963e-05   -1.2978650036844092e-05
0.00011838513434951278   -2.0943375348901963e-05   -1.2978650036844092e-05
0.0002471538483926447   -3.7075983059426526e-05   -0.0002179136088157473
0.0002471538483926447   -3.7075983059426526e-05   -0.0002179136088157473
0.0002471538483926447   -3.7075983059426526e-05   -0.0002179136088157473
0.0002471538483926447   -3.7075983059426526e-05   -0.0002179136088157473
0.0001715814936941404   -3.108865173811516e-05   -9.55520831110307e-05
0.0001715814936941404   -3.108865173811516e-05   -9.55520831110307e-05
0.0001715814936941404   -3.108865173811516e-05   -9.55520831110307e-05
0.0001715814936941404   -3.108865173811516e-05   -9.55520831110307e-05
0.00010655740589310262   -1.4505992586915165e-05   -5.476898559633476e-05
0.00010655740589310262   -1.4505992586915165e-05   -5.476898559633476e-05
0.00010655740589310262   -1.4505992586915165e-05   -5.476898559633476e-05
0.00010655740589310262   -1.4505992586915165e-05   -5.476898559633476e-05
-6.168988587330242e-06   -2.9818396258844346e-05   -0.00025183375193354746
-6.168988587330242e-06   -2.9818396258844346e-05   -0.00025183375193354746
-6.168988587330242e-06   -2.9818396258844346e-05   -0.00025183375193354746
-6.168988587330242e-06   -2.9818396258844346e-05   -0.00025183375193354746
-1.6193800010960322e-06   -1.1515532505970011e-05   -6.035301355360699e-05
-1.6193800010960322e-06   -1.1515532505970011e-05   -6.035301355360699e-05
-1.6193800010960322e-06   -1.1515532505970011e-05   -6.035301355360699e-05
-1.6193800010960322e-06   -1.1515532505970011e-05   -6.035301355360699e-05
0.00011098362974587604   -2.841450765870071e-05   -0.00023788531137358898
0.00011098362974587604   -2.841450765870071e-05   -0.00023788531137358898
0.00011098362974587604   -2.841450765870071e-05   -0.00023788531137358898
0.00011098362974587604   -2.841450765870071e-05   -0.00023788531137358898
5.260153756706112e-05   -1.803224312488423e-05   -0.0001468111831291869
5.260153756706112e-05   -1.803224312488423e-05   -0.0001468111831291869
5.260153756706112e-05   -1.803224312488423e-05   -0.0001468111831291869
5.260153756706112e-05   -1.803224312488423e-05   -0.0001468111831291869
0.00011098362974587593   -1.1515532505970011e-05   -5.021362846196857e-05
0.00011098362974587593   -1.1515532505970011e-05   -5.021362846196857e-05
0.00011098362974587593   -1.1515532505970011e-05   -5.021362846196857e-05
0.00011098362974587593   -1.1515532505970011e-05   -5.021362846196857e-05
-1.6193800010960322e-06   -2.841450765870071e-05   -0.00024802469646522697
-1.6193800010960322e-06   -2.841450765870071e-05   -0.00024802469646522697
-1.6193800010960322e-06   -2.841450765870071e-05   -0.00024802469646522697
-1.6193800010960322e-06   -2.841450765870071e-05   -0.00024802469646522697
2.390711154269488e-06   -7.858126374637661e-06   -6.172958513856689e-05
2.390711154269488e-06   -7.858126374637661e-06   -6.172958513856689e-05
2.390711154269488e-06   -7.858126374637661e-06   -6.172958513856689e-05
2.390711154269488e-06   -7.858126374637661e-06   -6.172958513856689e-05
0.00011538509817547152   -2.5783423554106427e-05   -0.00023929838519955626
0.00011538509817547152   -2.5783423554106427e-05   -0.00023929838519955626
0.00011538509817547152   -2.5783423554106427e-05   -0.00023929838519955626
0.00011538509817547152   -2.5783423554106427e-05   -0.00023929838519955626
5.5713222960163393e-05   -1.6578050309941708e-05   -0.0001453684837872042
5.5713222960163393e-05   -1.6578050309941708e-05   -0.0001453684837872042
5.5713222960163393e-05   -1.6578050309941708e-05   -0.0001453684837872042
5.5713222960163393e-05   -1.6578050309941708e-05   -0.0001453684837872042
0.00011538509817547152   -7.858126374637661e-06   -5.0974406830886325e-05
0.00011538509817547152   -7.858126374637661e-06   -5.0974406830886325e-05
0.00011538509817547152   -7.858126374637661e-06   -5.0974406830886325e-05
0.00011538509817547152   -7.858126374637661e-06   -5.0974406830886325e-05
2.3907111542695965e-06   -2.5783423554106427e-05   -0.0002500535635072375
2.3907111542695965e-06   -2.5783423554106427e-05   -0.0002500535635072375
2.3907111542695965e-06   -2.5783423554106427e-05   -0.0002500535635072375
2.3907111542695965e-06   -2.5783423554106427e-05   -0.0002500535635072375
5.251275965340919e-06   -3.260829654346681e-06   -6.411653733973902e-05
5.251275965340919e-06   -3.260829654346681e-06   -6.411653733973902e-05
5.251275965340919e-06   -3.260829654346681e-06   -6.411653733973902e-05
5.251275965340919e-06   -3.260829654346681e-06   -6.411653733973902e-05
0.00011838513434951311   -2.204133469943699e-05   -0.00024140466495297243
0.00011838513434951311   -2.204133469943699e-05   -0.00024140466495297243
0.00011838513434951311   -2.204133469943699e-05   -0.00024140466495297243
0.00011838513434951311   -2.204133469943699e-05   -0.00024140466495297243
5.941585491143017e-05   -1.4004775219162921e-05   -0.0001479444682443349
5.941585491143017e-05   -1.4004775219162921e-05   -0.0001479444682443349
5.941585491143017e-05   -1.4004775219162921e-05   -0.0001479444682443349
5.941585491143017e-05   -1.4004775219162921e-05   -0.0001479444682443349
-6.168988587330242e-06   2.5038096031892304e-06   -8.294931059507453e-05
-6.168988587330242e-06   2.5038096031892304e-06   -8.294931059507453e-05
-6.168988587330242e-06   2.5038096031892304e-06   -8.294931059507453e-05
-6.168988587330242e-06   2.5038096031892304e-06   -8.294931059507453e-05
-0.00011722933329808547   -1.5921446201487555e-05   -0.0002791050385958071
-0.00011722933329808547   -1.5921446201487555e-05   -0.0002791050385958071
-0.00011722933329808547   -1.5921446201487555e-05   -0.0002791050385958071
-0.00011722933329808547   -1.5921446201487555e-05   -0.0002791050385958071
-0.00011177294014858897   5.857477945819811e-06   -9.024775206598924e-05
-0.00011177294014858897   5.857477945819811e-06   -9.024775206598924e-05
-0.00011177294014858897   5.857477945819811e-06   -9.024775206598924e-05
-0.00011177294014858897   5.857477945819811e-06   -9.024775206598924e-05
-1.6193800010960322e-06   -1.4274724710524114e-05   -0.0002617576973846711
-1.6193800010960322e-06   -1.4274724710524114e-05   -0.0002617576973846711
-1.6193800010960322e-06   -1.4274724710524114e-05   -0.0002617576973846711
-1.6193800010960322e-06   -1.4274724710524114e-05   -0.0002617576973846711
-5.848519998379997e-05   -3.2507362961453623e-06   -0.00017359572379545924
-5.848519998379997e-05   -3.2507362961453623e-06   -0.00017359572379545924
-5.848519998379997e-05   -3.2507362961453623e-06   -0.00017359572379545924
-5.848519998379997e-05   -3.2507362961453623e-06   -0.00017359572379545924
-1.6193800010960322e-06   5.857477945819811e-06   -7.816843047218306e-05
-1.6193800010960322e-06   5.857477945819811e-06   -7.816843047218306e-05
-1.6193800010960322e-06   5.857477945819811e-06   -7.816843047218306e-05
-1.6193800010960322e-06   5.857477945819811e-06   -7.816843047218306e-05
-0.00011177294014858897   -1.4274724710524114e-05   -0.0002738370189784775
-0.00011177294014858897   -1.4274724710524114e-05   -0.0002738370189784775
-0.00011177294014858897   -1.4274724710524114e-05   -0.0002738370189784775
-0.00011177294014858897   -1.4274724710524114e-05   -0.0002738370189784775
-0.00010676670165797424   9.748503588719731e-06   -8.863559359877874e-05
-0.00010676670165797424   9.748503588719731e-06   -8.863559359877874e-05
-0.00010676670165797424   9.748503588719731e-06   -8.863559359877874e-05
-0.00010676670165797424   9.748503588719731e-06   -8.863559359877874e-05
2.3907111542695965e-06   -1.1686183524052193e-05   -0.0002577038026848541
2.3907111542695965e-06   -1.1686183524052193e-05   -0.0002577038026848541
2.3907111542695965e-06   -1.1686183524052193e-05   -0.0002577038026848541
2.3907111542695965e-06   -1.1686183524052193e-05   -0.0002577038026848541
-5.4035922101636035e-05   -1.356086082390448e-06   -0.00016985747239000887
-5.4035922101636035e-05   -1.356086082390448e-06   -0.00016985747239000887
-5.4035922101636035e-05   -1.356086082390448e-06   -0.00016985747239000887
-5.4035922101636035e-05   -1.356086082390448e-06   -0.00016985747239000887
2.3907111542695965e-06   9.748503588719731e-06   -7.57747813311142e-05
2.3907111542695965e-06   9.748503588719731e-06   -7.57747813311142e-05
2.3907111542695965e-06   9.748503588719731e-06   -7.57747813311142e-05
2.3907111542695965e-06   9.748503588719731e-06   -7.57747813311142e-05
-0.00010676670165797445   -1.1686183524053928e-05   -0.00027056461495251864
-0.00010676670165797445   -1.1686183524053928e-05   -0.00027056461495251864
-0.00010676670165797445   -1.1686183524053928e-05   -0.00027056461495251864
-0.00010676670165797445   -1.1686183524053928e-05   -0.00027056461495251864
-0.00010338910602995089   1.3771152831614647e-05   -9.01501298432323e-05
-0.00010338910602995089   1.3771152831614647e-05   -9.01501298432323e-05
-0.00010338910602995089   1.3771152831614647e-05   -9.01501298432323e-05
-0.00010338910602995089   1.3771152831614647e-05   -9.01501298432323e-05
5.251275965341027e-06   -9.235021685720726e-06   -0.0002574137284583189
5.251275965341027e-06   -9.235021685720726e-06   -0.0002574137284583189
5.251275965341027e-06   -9.235021685720726e-06   -0.0002574137284583189
5.251275965341027e-06   -9.235021685720726e-06   -0.0002574137284583189
-5.0856937076980196e-05   7.740923365640029e-07   -0.0001699055084678231
-5.0856937076980196e-05   7.740923365640029e-07   -0.0001699055084678231
-5.0856937076980196e-05   7.740923365640029e-07   -0.0001699055084678231
-5.0856937076980196e-05   7.740923365640029e-07   -0.0001699055084678231
-0.00011722933329808526   2.011951747351269e-05   -6.783268438139648e-05
-0.00011722933329808526   2.011951747351269e-05   -6.783268438139648e-05
-0.00011722933329808526   2.011951747351269e-05   -6.783268438139648e-05
-0.00011722933329808526   2.011951747351269e-05   -6.783268438139648e-05
-0.00022980328114821953   3.4750990643185597e-06   -0.00026544258184380345
-0.00022980328114821953   3.4750990643185597e-06   -0.00026544258184380345
-0.00022980328114821953   3.4750990643185597e-06   -0.00026544258184380345
-0.00022980328114821953   3.4750990643185597e-06   -0.00026544258184380345
-0.00022203829238659495   2.4387589543933483e-05   -7.238378303233046e-05
-0.00022203829238659495   2.4387589543933483e-05   -7.238378303233046e-05
-0.00022203829238659495   2.4387589543933483e-05   -7.238378303233046e-05
-0.00022203829238659495   2.4387589543933483e-05   -7.238378303233046e-05
-0.00011177294014858881   6.55526905831566e-06   -0.00024545997780430243
-0.00011177294014858881   6.55526905831566e-06   -0.00024545997780430243
-0.00011177294014858881   6.55526905831566e-06   -0.00024545997780430243
-0.00011177294014858881   6.55526905831566e-06   -0.00024545997780430243
-0.0001684305739696167   1.5118641097601818e-05   -0.00015616861132616193
-0.0001684305739696167   1.5118641097601818e-05   -0.00015616861132616193
-0.0001684305739696167   1.5118641097601818e-05   -0.00015616861132616193
-0.0001684305739696167   1.5118641097601818e-05   -0.00015616861132616193
-0.00011177294014858881   2.4387589543933483e-05   -6.16843907409589e-05
-0.00011177294014858881   2.4387589543933483e-05   -6.16843907409589e-05
-0.00011177294014858881   2.4387589543933483e-05   -6.16843907409589e-05
-0.00011177294014858881   2.4387589543933483e-05   -6.16843907409589e-05
-0.00022203829238659533   6.55526905831566e-06   -0.0002561593700956743
-0.00022203829238659533   6.55526905831566e-06   -0.0002561593700956743
-0.00022203829238659533   6.55526905831566e-06   -0.0002561593700956743
-0.00022203829238659533   6.55526905831566e-06   -0.0002561593700956743
-0.00021454372778804872   2.80646578942733e-05   -6.60375741914623e-05
-0.00021454372778804872   2.80646578942733e-05   -6.60375741914623e-05
-0.00021454372778804872   2.80646578942733e-05   -6.60375741914623e-05
-0.00021454372778804872   2.80646578942733e-05   -6.60375741914623e-05
-0.00010676670165797445   9.394441973025261e-06   -0.00023446382152217122
-0.00010676670165797445   9.394441973025261e-06   -0.00023446382152217122
-0.00010676670165797445   9.394441973025261e-06   -0.00023446382152217122
-0.00010676670165797445   9.394441973025261e-06   -0.00023446382152217122
-0.00016143017894990937   1.7798040236990248e-05   -0.00014840018499399314
-0.00016143017894990937   1.7798040236990248e-05   -0.00014840018499399314
-0.00016143017894990937   1.7798040236990248e-05   -0.00014840018499399314
-0.00016143017894990937   1.7798040236990248e-05   -0.00014840018499399314
-0.00010676670165797418   2.80646578942733e-05   -5.4835444638713475e-05
-0.00010676670165797418   2.80646578942733e-05   -5.4835444638713475e-05
-0.00010676670165797418   2.80646578942733e-05   -5.4835444638713475e-05
-0.00010676670165797418   2.80646578942733e-05   -5.4835444638713475e-05
-0.0002145437277880491   9.394441973025261e-06   -0.000245665951074921
-0.0002145437277880491   9.394441973025261e-06   -0.000245665951074921
-0.0002145437277880491   9.394441973025261e-06   -0.000245665951074921
-0.0002145437277880491   9.394441973025261e-06   -0.000245665951074921
-0.0002088414151159964   3.21398672424051e-05   -6.624216741454685e-05
-0.0002088414151159964   3.21398672424051e-05   -6.624216741454685e-05
-0.0002088414151159964   3.21398672424051e-05   -6.624216741454685e-05
-0.0002088414151159964   3.21398672424051e-05   -6.624216741454685e-05
-0.00010338910602995105   1.1803972234603055e-05   -0.00022979447888660904
-0.00010338910602995105   1.1803972234603055e-05   -0.00022979447888660904
-0.00010338910602995105   1.1803972234603055e-05   -0.00022979447888660904
-0.00010338910602995105   1.1803972234603055e-05   -0.00022979447888660904
-0.00015746899288413417   1.9665922747220954e-05   -0.00014437850443720654
-0.00015746899288413417   1.9665922747220954e-05   -0.00014437850443720654
-0.00015746899288413417   1.9665922747220954e-05   -0.00014437850443720654
-0.00015746899288413417   1.9665922747220954e-05   -0.00014437850443720654
-0.00022980328114821953   3.96524994101307e-05   -3.900595040762754e-05
-0.00022980328114821953   3.96524994101307e-05   -3.900595040762754e-05
-0.00022980328114821953   3.96524994101307e-05   -3.900595040762754e-05
-0.00022980328114821953   3.96524994101307e-05   -3.900595040762754e-05
-0.00034731745576095164   3.73252951865119e-05   -0.00023625923062968544
-0.00034731745576095164   3.73252951865119e-05   -0.00023625923062968544
-0.00034731745576095164   3.73252951865119e-05   -0.00023625923062968544
-0.00034731745576095164   3.73252951865119e-05   -0.00023625923062968544
-0.00033209325865485924   4.532201074755951e-05   -1.8734982340793196e-06
-0.00033209325865485924   4.532201074755951e-05   -1.8734982340793196e-06
-0.00033209325865485924   4.532201074755951e-05   -1.8734982340793196e-06
-0.00033209325865485924   4.532201074755951e-05   -1.8734982340793196e-06
-0.00022203829238659454   4.740074722894144e-05   -0.00018654568390335052
-0.00022203829238659454   4.740074722894144e-05   -0.00018654568390335052
-0.00022203829238659454   4.740074722894144e-05   -0.00018654568390335052
-0.00022203829238659454   4.740074722894144e-05   -0.00018654568390335052
-0.00027061013366177513   4.471392011301187e-05   -0.00010398051884182545
-0.00027061013366177513   4.471392011301187e-05   -0.00010398051884182545
-0.00027061013366177513   4.471392011301187e-05   -0.00010398051884182545
-0.00027061013366177513   4.471392011301187e-05   -0.00010398051884182545
-0.0002220382923865951   4.532201074755951e-05   -3.1207401229079584e-06
-0.0002220382923865951   4.532201074755951e-05   -3.1207401229079584e-06
-0.0002220382923865951   4.532201074755951e-05   -3.1207401229079584e-06
-0.0002220382923865951   4.532201074755951e-05   -3.1207401229079584e-06
-0.00033209325865485924   4.740074722894144e-05   -0.00018529844201452088
-0.00033209325865485924   4.740074722894144e-05   -0.00018529844201452088
-0.00033209325865485924   4.740074722894144e-05   -0.00018529844201452088
-0.00033209325865485924   4.740074722894144e-05   -0.00018529844201452088
-0.00031945218074605063   4.6809070059147806e-05   1.91169380084023e-05
-0.00031945218074605063   4.6809070059147806e-05   1.91169380084023e-05
-0.00031945218074605063   4.6809070059147806e-05   1.91169380084023e-05
-0.00031945218074605063   4.6809070059147806e-05   1.91169380084023e-05
-0.00021454372778804872   4.9658322306933914e-05   -0.00015744003493693871
-0.00021454372778804872   4.9658322306933914e-05   -0.00015744003493693871
-0.00021454372778804872   4.9658322306933914e-05   -0.00015744003493693871
-0.00021454372778804872   4.9658322306933914e-05   -0.00015744003493693871
-0.0002647625061653817   4.797824328794248e-05   -7.273402356332065e-05
-0.0002647625061653817   4.797824328794248e-05   -7.273402356332065e-05
-0.0002647625061653817   4.797824328794248e-05   -7.273402356332065e-05
-0.0002647625061653817   4.797824328794248e-05   -7.273402356332065e-05
-0.0002145437277880491   4.680907005914954e-05   1.7407386659732543e-05
-0.0002145437277880491   4.680907005914954e-05   1.7407386659732543e-05
-0.0002145437277880491   4.680907005914954e-05   1.7407386659732543e-05
-0.0002145437277880491   4.680907005914954e-05   1.7407386659732543e-05
-0.0003194521807460501   4.9658322306933914e-05   -0.00015573048358826815
-0.0003194521807460501   4.9658322306933914e-05   -0.00015573048358826815
-0.0003194521807460501   4.9658322306933914e-05   -0.00015573048358826815
-0.0003194521807460501   4.9658322306933914e-05   -0.00015573048358826815
-0.00030624652585640907   4.8112558247530995e-05   4.7199220025531154e-05
-0.00030624652585640907   4.8112558247530995e-05   4.7199220025531154e-05
-0.00030624652585640907   4.8112558247530995e-05   4.7199220025531154e-05
-0.00030624652585640907   4.8112558247530995e-05   4.7199220025531154e-05
-0.0002088414151159964   5.358036480530674e-05   -0.00011842331514315678
-0.0002088414151159964   5.358036480530674e-05   -0.00011842331514315678
-0.0002088414151159964   5.358036480530674e-05   -0.00011842331514315678
-0.0002088414151159964   5.358036480530674e-05   -0.00011842331514315678
-0.00025204533852311227   4.9093485571733916e-05   -4.3724648591154935e-05
-0.00025204533852311227   4.9093485571733916e-05   -4.3724648591154935e-05
-0.00025204533852311227   4.9093485571733916e-05   -4.3724648591154935e-05
-0.00025204533852311227   4.9093485571733916e-05   -4.3724648591154935e-05
0.00030409869157302686   -4.575128521810967e-05   0.00010319824930161287
0.00030409869157302686   -4.575128521810967e-05   0.00010319824930161287
0.00030409869157302686   -4.575128521810967e-05   0.00010319824930161287
0.00030409869157302686   -4.575128521810967e-05   0.00010319824930161287
0.0001530244721009462   -5.794149503064727e-05   -0.00015590624237271124
0.0001530244721009462   -5.794149503064727e-05   -0.00015590624237271124
0.0001530244721009462   -5.794149503064727e-05   -0.00015590624237271124
0.0001530244721009462   -5.794149503064727e-05   -0.00015590624237271124
0.00015681862192196562   -4.4670532033471225e-05   7.38906161983962e-05
0.00015681862192196562   -4.4670532033471225e-05   7.38906161983962e-05
0.00015681862192196562   -4.4670532033471225e-05   7.38906161983962e-05
0.00015681862192196562   -4.4670532033471225e-05   7.38906161983962e-05
0.0003117481879668834   -5.939039871032288e-05   -0.00017549340720368948
0.0003117481879668834   -5.939039871032288e-05   -0.00017549340720368948
0.0003117481879668834   -5.939039871032288e-05   -0.00017549340720368948
0.0003117481879668834   -5.939039871032288e-05   -0.00017549340720368948
0.00022221562533797427   -4.673662674091125e-05   -3.386473267048872e-05
0.00022221562533797427   -4.673662674091125e-05   -3.386473267048872e-05
0.00022221562533797427   -4.673662674091125e-05   -3.386473267048872e-05
0.00022221562533797427   -4.673662674091125e-05   -3.386473267048872e-05
0.0003117481879668834   -4.4670532033471225e-05   8.272253620450736e-05
0.0003117481879668834   -4.4670532033471225e-05   8.272253620450736e-05
0.0003117481879668834   -4.4670532033471225e-05   8.272253620450736e-05
0.0003117481879668834   -4.4670532033471225e-05   8.272253620450736e-05
0.00015681862192196562   -5.939039871032288e-05   -0.00018432532720980173
0.00015681862192196562   -5.939039871032288e-05   -0.00018432532720980173
0.00015681862192196562   -5.939039871032288e-05   -0.00018432532720980173
0.00015681862192196562   -5.939039871032288e-05   -0.00018432532720980173
0.00016002691287666528   -4.31238387630789e-05   5.8232551803760746e-05
0.00016002691287666528   -4.31238387630789e-05   5.8232551803760746e-05
0.00016002691287666528   -4.31238387630789e-05   5.8232551803760746e-05
0.00016002691287666528   -4.31238387630789e-05   5.8232551803760746e-05
0.0003165210612371302   -5.886314931515327e-05   -0.00019314744246576895
0.0003165210612371302   -5.886314931515327e-05   -0.00019314744246576895
0.0003165210612371302   -5.886314931515327e-05   -0.00019314744246576895
0.0003165210612371302   -5.886314931515327e-05   -0.00019314744246576895
0.0002300989657653912   -4.8226103908942386e-05   -5.549284392326404e-05
0.0002300989657653912   -4.8226103908942386e-05   -5.549284392326404e-05
0.0002300989657653912   -4.8226103908942386e-05   -5.549284392326404e-05
0.0002300989657653912   -4.8226103908942386e-05   -5.549284392326404e-05
0.0003165210612371302   -4.31238387630789e-05   6.767613813500606e-05
0.0003165210612371302   -4.31238387630789e-05   6.767613813500606e-05
0.0003165210612371302   -4.31238387630789e-05   6.767613813500606e-05
0.0003165210612371302   -4.31238387630789e-05   6.767613813500606e-05
0.00016002691287666528   -5.886314931515327e-05   -0.00020259102879701535
0.00016002691287666528   -5.886314931515327e-05   -0.00020259102879701535
0.00016002691287666528   -5.886314931515327e-05   -0.00020259102879701535
0.00016002691287666528   -5.886314931515327e-05   -0.00020259102879701535
0.00016338696908057334   -3.7075983059426526e-05   2.778710482442305e-05
0.00016338696908057334   -3.7075983059426526e-05   2.778710482442305e-05
0.00016338696908057334   -3.7075983059426526e-05   2.778710482442305e-05
0.00016338696908057334   -3.7075983059426526e-05   2.778710482442305e-05
0.00032122003563201165   -5.5619906225932644e-05   -0.00022414165219473633
0.00032122003563201165   -5.5619906225932644e-05   -0.00022414165219473633
0.00032122003563201165   -5.5619906225932644e-05   -0.00022414165219473633
0.00032122003563201165   -5.5619906225932644e-05   -0.00022414165219473633
0.00023026603556893367   -4.642971758696615e-05   -7.806576527298733e-05
0.00023026603556893367   -4.642971758696615e-05   -7.806576527298733e-05
0.00023026603556893367   -4.642971758696615e-05   -7.806576527298733e-05
0.00023026603556893367   -4.642971758696615e-05   -7.806576527298733e-05
0.0001530244721009462   -2.9818396258844346e-05   9.498936316095115e-06
0.0001530244721009462   -2.9818396258844346e-05   9.498936316095115e-06
0.0001530244721009462   -2.9818396258844346e-05   9.498936316095115e-06
0.0001530244721009462   -2.9818396258844346e-05   9.498936316095115e-06
1.8603198806616634e-05   -5.8539252963467694e-05   -0.0002317690331972268
1.8603198806616634e-05   -5.8539252963467694e-05   -0.0002317690331972268
1.8603198806616634e-05   -5.8539252963467694e-05   -0.0002317690331972268
1.8603198806616634e-05   -5.8539252963467694e-05   -0.0002317690331972268
2.3030558640593475e-05   -2.841450765870071e-05   -2.277525441555031e-06
2.3030558640593475e-05   -2.841450765870071e-05   -2.277525441555031e-06
2.3030558640593475e-05   -2.841450765870071e-05   -2.277525441555031e-06
2.3030558640593475e-05   -2.841450765870071e-05   -2.277525441555031e-06
0.00015681862192196594   -5.825970076923925e-05   -0.00020735051504418593
0.00015681862192196594   -5.825970076923925e-05   -0.00020735051504418593
0.00015681862192196594   -5.825970076923925e-05   -0.00020735051504418593
0.00015681862192196594   -5.825970076923925e-05   -0.00020735051504418593
8.822173235855806e-05   -3.9469661722893803e-05   -0.00010429638919964672
8.822173235855806e-05   -3.9469661722893803e-05   -0.00010429638919964672
8.822173235855806e-05   -3.9469661722893803e-05   -0.00010429638919964672
8.822173235855806e-05   -3.9469661722893803e-05   -0.00010429638919964672
0.0001568186219219655   -2.8414507658702445e-05   1.5629590424768615e-05
0.0001568186219219655   -2.8414507658702445e-05   1.5629590424768615e-05
0.0001568186219219655   -2.8414507658702445e-05   1.5629590424768615e-05
0.0001568186219219655   -2.8414507658702445e-05   1.5629590424768615e-05
2.3030558640593475e-05   -5.825970076923925e-05   -0.00022525763091050827
2.3030558640593475e-05   -5.825970076923925e-05   -0.00022525763091050827
2.3030558640593475e-05   -5.825970076923925e-05   -0.00022525763091050827
2.3030558640593475e-05   -5.825970076923925e-05   -0.00022525763091050827
2.7027646448155528e-05   -2.5783423554106427e-05   -3.6653073173884693e-06
2.7027646448155528e-05   -2.5783423554106427e-05   -3.6653073173884693e-06
2.7027646448155528e-05   -2.5783423554106427e-05   -3.6653073173884693e-06
2.7027646448155528e-05   -2.5783423554106427e-05   -3.6653073173884693e-06
0.00016002691287666528   -5.750563762974524e-05   -0.00020629742291952127
0.00016002691287666528   -5.750563762974524e-05   -0.00020629742291952127
0.00016002691287666528   -5.750563762974524e-05   -0.00020629742291952127
0.00016002691287666528   -5.750563762974524e-05   -0.00020629742291952127
9.075349805803644e-05   -3.9929057816466204e-05   -0.00010138767944310343
9.075349805803644e-05   -3.9929057816466204e-05   -0.00010138767944310343
9.075349805803644e-05   -3.9929057816466204e-05   -0.00010138767944310343
9.075349805803644e-05   -3.9929057816466204e-05   -0.00010138767944310343
0.00016002691287666528   -2.5783423554106427e-05   1.5368021127995166e-05
0.00016002691287666528   -2.5783423554106427e-05   1.5368021127995166e-05
0.00016002691287666528   -2.5783423554106427e-05   1.5368021127995166e-05
0.00016002691287666528   -2.5783423554106427e-05   1.5368021127995166e-05
2.702764644815542e-05   -5.750563762974524e-05   -0.00022533075136490534
2.702764644815542e-05   -5.750563762974524e-05   -0.00022533075136490534
2.702764644815542e-05   -5.750563762974524e-05   -0.00022533075136490534
2.702764644815542e-05   -5.750563762974524e-05   -0.00022533075136490534
3.298872753464252e-05   -2.204133469943699e-05   -6.38819309181117e-06
3.298872753464252e-05   -2.204133469943699e-05   -6.38819309181117e-06
3.298872753464252e-05   -2.204133469943699e-05   -6.38819309181117e-06
3.298872753464252e-05   -2.204133469943699e-05   -6.38819309181117e-06
0.00016338696908057312   -5.598101204164728e-05   -0.00020335478926303708
0.00016338696908057312   -5.598101204164728e-05   -0.00020335478926303708
0.00016338696908057312   -5.598101204164728e-05   -0.00020335478926303708
0.00016338696908057312   -5.598101204164728e-05   -0.00020335478926303708
9.553575236519288e-05   -3.934236919755224e-05   -0.00010025261377719346
9.553575236519288e-05   -3.934236919755224e-05   -0.00010025261377719346
9.553575236519288e-05   -3.934236919755224e-05   -0.00010025261377719346
9.553575236519288e-05   -3.934236919755224e-05   -0.00010025261377719346
1.8603198806616634e-05   -1.5921446201487555e-05   -2.3949710886130016e-05
1.8603198806616634e-05   -1.5921446201487555e-05   -2.3949710886130016e-05
1.8603198806616634e-05   -1.5921446201487555e-05   -2.3949710886130016e-05
1.8603198806616634e-05   -1.5921446201487555e-05   -2.3949710886130016e-05
-0.00011444680623756752   -7.105488879844551e-05   -0.0002787797848512793
-0.00011444680623756752   -7.105488879844551e-05   -0.0002787797848512793
-0.00011444680623756752   -7.105488879844551e-05   -0.0002787797848512793
-0.00011444680623756752   -7.105488879844551e-05   -0.0002787797848512793
-0.00010755520169957101   -1.4274724710524114e-05   -5.1040780036600876e-05
-0.00010755520169957101   -1.4274724710524114e-05   -5.1040780036600876e-05
-0.00010755520169957101   -1.4274724710524114e-05   -5.1040780036600876e-05
-0.00010755520169957101   -1.4274724710524114e-05   -5.1040780036600876e-05
2.3030558640593475e-05   -7.265848083652833e-05   -0.00023365346026127224
2.3030558640593475e-05   -7.265848083652833e-05   -0.00023365346026127224
2.3030558640593475e-05   -7.265848083652833e-05   -0.00023365346026127224
2.3030558640593475e-05   -7.265848083652833e-05   -0.00023365346026127224
-4.353684478068651e-05   -4.028274493081754e-05   -0.00014213322943589955
-4.353684478068651e-05   -4.028274493081754e-05   -0.00014213322943589955
-4.353684478068651e-05   -4.028274493081754e-05   -0.00014213322943589955
-4.353684478068651e-05   -4.028274493081754e-05   -0.00014213322943589955
2.3030558640593475e-05   -1.4274724710524114e-05   -1.601052636099852e-05
2.3030558640593475e-05   -1.4274724710524114e-05   -1.601052636099852e-05
2.3030558640593475e-05   -1.4274724710524114e-05   -1.601052636099852e-05
2.3030558640593475e-05   -1.4274724710524114e-05   -1.601052636099852e-05
-0.00010755520169957123   -7.265848083653006e-05   -0.00026868371393687536
-0.00010755520169957123   -7.265848083653006e-05   -0.00026868371393687536
-0.00010755520169957123   -7.265848083653006e-05   -0.00026868371393687536
-0.00010755520169957123   -7.265848083653006e-05   -0.00026868371393687536
-0.00010162212078911878   -1.1686183524052193e-05   -4.771828094663876e-05
-0.00010162212078911878   -1.1686183524052193e-05   -4.771828094663876e-05
-0.00010162212078911878   -1.1686183524052193e-05   -4.771828094663876e-05
-0.00010162212078911878   -1.1686183524052193e-05   -4.771828094663876e-05
2.702764644815542e-05   -7.235740761011092e-05   -0.0002257318252237956
2.702764644815542e-05   -7.235740761011092e-05   -0.0002257318252237956
2.702764644815542e-05   -7.235740761011092e-05   -0.0002257318252237956
2.702764644815542e-05   -7.235740761011092e-05   -0.0002257318252237956
-3.864058867873908e-05   -4.122356181511001e-05   -0.00013496507415597077
-3.864058867873908e-05   -4.122356181511001e-05   -0.00013496507415597077
-3.864058867873908e-05   -4.122356181511001e-05   -0.00013496507415597077
-3.864058867873908e-05   -4.122356181511001e-05   -0.00013496507415597077
2.702764644815542e-05   -1.1686183524052193e-05   -1.1315546495005088e-05
2.702764644815542e-05   -1.1686183524052193e-05   -1.1315546495005088e-05
2.702764644815542e-05   -1.1686183524052193e-05   -1.1315546495005088e-05
2.702764644815542e-05   -1.1686183524052193e-05   -1.1315546495005088e-05
-0.0001016221207891191   -7.235740761010918e-05   -0.00026213455967542994
-0.0001016221207891191   -7.235740761010918e-05   -0.00026213455967542994
-0.0001016221207891191   -7.235740761010918e-05   -0.00026213455967542994
-0.0001016221207891191   -7.235740761010918e-05   -0.00026213455967542994
-9.138886600790224e-05   -9.235021685718992e-06   -4.750733866218208e-05
-9.138886600790224e-05   -9.235021685718992e-06   -4.750733866218208e-05
-9.138886600790224e-05   -9.235021685718992e-06   -4.750733866218208e-05
-9.138886600790224e-05   -9.235021685718992e-06   -4.750733866218208e-05
3.298872753464263e-05   -6.986566350585151e-05   -0.00021842494280767833
3.298872753464263e-05   -6.986566350585151e-05   -0.00021842494280767833
3.298872753464263e-05   -6.986566350585151e-05   -0.00021842494280767833
3.298872753464263e-05   -6.986566350585151e-05   -0.00021842494280767833
-3.2279834010537085e-05   -4.0344806547912976e-05   -0.00012735652107380858
-3.2279834010537085e-05   -4.0344806547912976e-05   -0.00012735652107380858
-3.2279834010537085e-05   -4.0344806547912976e-05   -0.00012735652107380858
-3.2279834010537085e-05   -4.0344806547912976e-05   -0.00012735652107380858
-0.00011444680623756736   3.4750990643185597e-06   -3.33806686467859e-05
-0.00011444680623756736   3.4750990643185597e-06   -3.33806686467859e-05
-0.00011444680623756736   3.4750990643185597e-06   -3.33806686467859e-05
-0.00011444680623756736   3.4750990643185597e-06   -3.33806686467859e-05
-0.0002630628887335018   -8.902048073454287e-05   -0.0003365714873526599
-0.0002630628887335018   -8.902048073454287e-05   -0.0003365714873526599
-0.0002630628887335018   -8.902048073454287e-05   -0.0003365714873526599
-0.0002630628887335018   -8.902048073454287e-05   -0.0003365714873526599
-0.0002548660774023972   6.55526905831566e-06   -8.613278076836841e-05
-0.0002548660774023972   6.55526905831566e-06   -8.613278076836841e-05
-0.0002548660774023972   6.55526905831566e-06   -8.613278076836841e-05
-0.0002548660774023972   6.55526905831566e-06   -8.613278076836841e-05
-0.00010755520169957101   -9.922646745158699e-05   -0.0002681818650338017
-0.00010755520169957101   -9.922646745158699e-05   -0.0002681818650338017
-0.00010755520169957101   -9.922646745158699e-05   -0.0002681818650338017
-0.00010755520169957101   -9.922646745158699e-05   -0.0002681818650338017
-0.0001822989051411948   -4.549362236996521e-05   -0.00017584873301340186
-0.0001822989051411948   -4.549362236996521e-05   -0.00017584873301340186
-0.0001822989051411948   -4.549362236996521e-05   -0.00017584873301340186
-0.0001822989051411948   -4.549362236996521e-05   -0.00017584873301340186
-0.00010755520169957101   6.55526905831566e-06   -2.2663738862426126e-05
-0.00010755520169957101   6.55526905831566e-06   -2.2663738862426126e-05
-0.00010755520169957101   6.55526905831566e-06   -2.2663738862426126e-05
-0.00010755520169957101   6.55526905831566e-06   -2.2663738862426126e-05
-0.0002548660774023972   -9.922646745158699e-05   -0.00033165090693974397
-0.0002548660774023972   -9.922646745158699e-05   -0.00033165090693974397
-0.0002548660774023972   -9.922646745158699e-05   -0.00033165090693974397
-0.0002548660774023972   -9.922646745158699e-05   -0.00033165090693974397
-0.0002470049513366156   9.394441973023526e-06   -7.714580280512601e-05
-0.0002470049513366156   9.394441973023526e-06   -7.714580280512601e-05
-0.0002470049513366156   9.394441973023526e-06   -7.714580280512601e-05
-0.0002470049513366156   9.394441973023526e-06   -7.714580280512601e-05
-0.00010162212078911894   -9.981941684169757e-05   -0.00025392220509545284
-0.00010162212078911894   -9.981941684169757e-05   -0.00025392220509545284
-0.00010162212078911894   -9.981941684169757e-05   -0.00025392220509545284
-0.00010162212078911894   -9.981941684169757e-05   -0.00025392220509545284
-0.0001743077584457181   -4.5683303526510705e-05   -0.00016526114365690093
-0.0001743077584457181   -4.5683303526510705e-05   -0.00016526114365690093
-0.0001743077584457181   -4.5683303526510705e-05   -0.00016526114365690093
-0.0001743077584457181   -4.5683303526510705e-05   -0.00016526114365690093
-0.00010162212078911883   9.394441973023526e-06   -1.1617487516292317e-05
-0.00010162212078911883   9.394441973023526e-06   -1.1617487516292317e-05
-0.00010162212078911883   9.394441973023526e-06   -1.1617487516292317e-05
-0.00010162212078911883   9.394441973023526e-06   -1.1617487516292317e-05
-0.00024700495133661603   -9.98194168416993e-05   -0.0003194505203842875
-0.00024700495133661603   -9.98194168416993e-05   -0.0003194505203842875
-0.00024700495133661603   -9.98194168416993e-05   -0.0003194505203842875
-0.00024700495133661603   -9.98194168416993e-05   -0.0003194505203842875
-0.00023414564205182937   1.1803972234603055e-05   -6.796520438078022e-05
-0.00023414564205182937   1.1803972234603055e-05   -6.796520438078022e-05
-0.00023414564205182937   1.1803972234603055e-05   -6.796520438078022e-05
-0.00023414564205182937   1.1803972234603055e-05   -6.796520438078022e-05
-9.138886600790257e-05   -9.133072776657848e-05   -0.00024401234445328365
-9.138886600790257e-05   -9.133072776657848e-05   -0.00024401234445328365
-9.138886600790257e-05   -9.133072776657848e-05   -0.00024401234445328365
-9.138886600790257e-05   -9.133072776657848e-05   -0.00024401234445328365
-0.00016638645739560845   -4.051673479677463e-05   -0.000149504754588985
-0.00016638645739560845   -4.051673479677463e-05   -0.000149504754588985
-0.00016638645739560845   -4.051673479677463e-05   -0.000149504754588985
-0.00016638645739560845   -4.051673479677463e-05   -0.000149504754588985
-0.0002630628887335018   3.73252951865119e-05   -5.829834277781658e-05
-0.0002630628887335018   3.73252951865119e-05   -5.829834277781658e-05
-0.0002630628887335018   3.73252951865119e-05   -5.829834277781658e-05
-0.0002630628887335018   3.73252951865119e-05   -5.829834277781658e-05
-0.00045385328616752717   0.0   -0.0003986775156131009
-0.00045385328616752717   0.0   -0.0003986775156131009
-0.00045385328616752717   0.0   -0.0003986775156131009
-0.00045385328616752717   0.0   -0.0003986775156131009
-0.00044182958813491645   4.740074722894318e-05   -4.495954291341021e-05
-0.00044182958813491645   4.740074722894318e-05   -4.495954291341021e-05
-0.00044182958813491645   4.740074722894318e-05   -4.495954291341021e-05
-0.00044182958813491645   4.740074722894318e-05   -4.495954291341021e-05
-0.0002548660774023968   0.0   -0.0003281249457969111
-0.0002548660774023968   0.0   -0.0003281249457969111
-0.0002548660774023968   0.0   -0.0003281249457969111
-0.0002548660774023968   0.0   -0.0003281249457969111
-0.00033837849802221046   1.4401631061405212e-05   -0.00019757855673406413
-0.00033837849802221046   1.4401631061405212e-05   -0.00019757855673406413
-0.00033837849802221046   1.4401631061405212e-05   -0.00019757855673406413
-0.00033837849802221046   1.4401631061405212e-05   -0.00019757855673406413
-0.000254866077402397   4.740074722894318e-05   -1.6519094576043607e-05
-0.000254866077402397   4.740074722894318e-05   -1.6519094576043607e-05
-0.000254866077402397   4.740074722894318e-05   -1.6519094576043607e-05
-0.000254866077402397   4.740074722894318e-05   -1.6519094576043607e-05
-0.0004418295881349157   0.0   -0.0003565653941342752
-0.0004418295881349157   0.0   -0.0003565653941342752
-0.0004418295881349157   0.0   -0.0003565653941342752
-0.0004418295881349157   0.0   -0.0003565653941342752
-0.00043167745601067344   4.9658322306933914e-05   -1.871488005130567e-05
-0.00043167745601067344   4.9658322306933914e-05   -1.871488005130567e-05
-0.00043167745601067344   4.9658322306933914e-05   -1.871488005130567e-05
-0.00043167745601067344   4.9658322306933914e-05   -1.871488005130567e-05
-0.00024700495133661603   0.0   -0.00029670739445724183
-0.00024700495133661603   0.0   -0.00029670739445724183
-0.00024700495133661603   0.0   -0.00029670739445724183
-0.00024700495133661603   0.0   -0.00029670739445724183
-0.0003347157796504623   2.293308282724088e-05   -0.0001642825302971716
-0.0003347157796504623   2.293308282724088e-05   -0.0001642825302971716
-0.0003347157796504623   2.293308282724088e-05   -0.0001642825302971716
-0.0003347157796504623   2.293308282724088e-05   -0.0001642825302971716
-0.00024700495133661603   4.9658322306933914e-05   1.1080113332854503e-05
-0.00024700495133661603   4.9658322306933914e-05   1.1080113332854503e-05
-0.00024700495133661603   4.9658322306933914e-05   1.1080113332854503e-05
-0.00024700495133661603   4.9658322306933914e-05   1.1080113332854503e-05
-0.0004316774560106727   0.0   -0.0003265023878414007
-0.0004316774560106727   0.0   -0.0003265023878414007
-0.0004316774560106727   0.0   -0.0003265023878414007
-0.0004316774560106727   0.0   -0.0003265023878414007
-0.0004114416050513708   5.358036480530674e-05   2.3459277484169302e-05
-0.0004114416050513708   5.358036480530674e-05   2.3459277484169302e-05
-0.0004114416050513708   5.358036480530674e-05   2.3459277484169302e-05
-0.0004114416050513708   5.358036480530674e-05   2.3459277484169302e-05
-0.00023414564205182978   0.0   -0.00023988577529854922
-0.00023414564205182978   0.0   -0.00023988577529854922
-0.00023414564205182978   0.0   -0.00023988577529854922
-0.00023414564205182978   0.0   -0.00023988577529854922
-0.000317121818786082   2.8320148660238714e-05   -0.0001185842366042719
-0.000317121818786082   2.8320148660238714e-05   -0.0001185842366042719
-0.000317121818786082   2.8320148660238714e-05   -0.0001185842366042719
-0.000317121818786082   2.8320148660238714e-05   -0.0001185842366042719
0.0003364501999236412   -5.794149503064727e-05   0.0002011431392693521
0.0003364501999236412   -5.794149503064727e-05   0.0002011431392693521
0.0003364501999236412   -5.794149503064727e-05   0.0002011431392693521
0.0003364501999236412   -5.794149503064727e-05   0.0002011431392693521
0.00017476433755628186   -4.4492573067539745e-05   -6.0263944831715106e-05
0.00017476433755628186   -4.4492573067539745e-05   -6.0263944831715106e-05
0.00017476433755628186   -4.4492573067539745e-05   -6.0263944831715106e-05
0.00017476433755628186   -4.4492573067539745e-05   -6.0263944831715106e-05
0.00017032638382117476   -5.939039871032288e-05   0.000177828606176959
0.00017032638382117476   -5.939039871032288e-05   0.000177828606176959
0.00017032638382117476   -5.939039871032288e-05   0.000177828606176959
0.00017032638382117476   -5.939039871032288e-05   0.000177828606176959
0.0003327945228996972   -4.8947102849137766e-05   -9.92176031372903e-05
0.0003327945228996972   -4.8947102849137766e-05   -9.92176031372903e-05
0.0003327945228996972   -4.8947102849137766e-05   -9.92176031372903e-05
0.0003327945228996972   -4.8947102849137766e-05   -9.92176031372903e-05
0.00024321758717646744   -4.984276695875825e-05   5.061468820053046e-05
0.00024321758717646744   -4.984276695875825e-05   5.061468820053046e-05
0.00024321758717646744   -4.984276695875825e-05   5.061468820053046e-05
0.00024321758717646744   -4.984276695875825e-05   5.061468820053046e-05
0.0003327945228996972   -5.939039871032288e-05   0.00017156262866024723
0.0003327945228996972   -5.939039871032288e-05   0.00017156262866024723
0.0003327945228996972   -5.939039871032288e-05   0.00017156262866024723
0.0003327945228996972   -5.939039871032288e-05   0.00017156262866024723
0.00017032638382117476   -4.8947102849137766e-05   -9.295162562057875e-05
0.00017032638382117476   -4.8947102849137766e-05   -9.295162562057875e-05
0.00017032638382117476   -4.8947102849137766e-05   -9.295162562057875e-05
0.00017032638382117476   -4.8947102849137766e-05   -9.295162562057875e-05
0.00016631556473674814   -5.886314931515327e-05   0.0001597520330097451
0.00016631556473674814   -5.886314931515327e-05   0.0001597520330097451
0.00016631556473674814   -5.886314931515327e-05   0.0001597520330097451
0.00016631556473674814   -5.886314931515327e-05   0.0001597520330097451
0.000328581466843622   -4.936869644504849e-05   -0.0001163878088904426
0.000328581466843622   -4.936869644504849e-05   -0.0001163878088904426
0.000328581466843622   -4.936869644504849e-05   -0.0001163878088904426
0.000328581466843622   -4.936869644504849e-05   -0.0001163878088904426
0.00024298416800406594   -5.071650423772202e-05   2.7083040517755612e-05
0.00024298416800406594   -5.071650423772202e-05   2.7083040517755612e-05
0.00024298416800406594   -5.071650423772202e-05   2.7083040517755612e-05
0.00024298416800406594   -5.071650423772202e-05   2.7083040517755612e-05
0.00032858146684362256   -5.886314931515327e-05   0.00015405536128767962
0.00032858146684362256   -5.886314931515327e-05   0.00015405536128767962
0.00032858146684362256   -5.886314931515327e-05   0.00015405536128767962
0.00032858146684362256   -5.886314931515327e-05   0.00015405536128767962
0.00016631556473674814   -4.936869644504849e-05   -0.00011069113716837952
0.00016631556473674814   -4.936869644504849e-05   -0.00011069113716837952
0.00016631556473674814   -4.936869644504849e-05   -0.00011069113716837952
0.00016631556473674814   -4.936869644504849e-05   -0.00011069113716837952
0.00016142434290692103   -5.5619906225932644e-05   0.0001303435401272899
0.00016142434290692103   -5.5619906225932644e-05   0.0001303435401272899
0.00016142434290692103   -5.5619906225932644e-05   0.0001303435401272899
0.00016142434290692103   -5.5619906225932644e-05   0.0001303435401272899
0.000321981715120843   -4.837837502803463e-05   -0.0001415969989479838
0.000321981715120843   -4.837837502803463e-05   -0.0001415969989479838
0.000321981715120843   -4.837837502803463e-05   -0.0001415969989479838
0.000321981715120843   -4.837837502803463e-05   -0.0001415969989479838
0.0002346454661898668   -4.823071572252098e-05   3.874820353667874e-06
0.0002346454661898668   -4.823071572252098e-05   3.874820353667874e-06
0.0002346454661898668   -4.823071572252098e-05   3.874820353667874e-06
0.0002346454661898668   -4.823071572252098e-05   3.874820353667874e-06
0.00017476433755628186   -5.8539252963467694e-05   0.00015058221564547437
0.00017476433755628186   -5.8539252963467694e-05   0.00015058221564547437
0.00017476433755628186   -5.8539252963467694e-05   0.00015058221564547437
0.00017476433755628186   -5.8539252963467694e-05   0.00015058221564547437
3.779771070681057e-05   -2.7689475365326108e-05   -5.918562921142668e-05
3.779771070681057e-05   -2.7689475365326108e-05   -5.918562921142668e-05
3.779771070681057e-05   -2.7689475365326108e-05   -5.918562921142668e-05
3.779771070681057e-05   -2.7689475365326108e-05   -5.918562921142668e-05
3.077312714274154e-05   -5.825970076923925e-05   0.0001721306210021225
3.077312714274154e-05   -5.825970076923925e-05   0.0001721306210021225
3.077312714274154e-05   -5.825970076923925e-05   0.0001721306210021225
3.077312714274154e-05   -5.825970076923925e-05   0.0001721306210021225
0.00017032638382117476   -2.9381029669992356e-05   -7.77853427881474e-05
0.00017032638382117476   -2.9381029669992356e-05   -7.77853427881474e-05
0.00017032638382117476   -2.9381029669992356e-05   -7.77853427881474e-05
0.00017032638382117476   -2.9381029669992356e-05   -7.77853427881474e-05
0.00010327955434377863   -4.186142238655349e-05   4.144760863744991e-05
0.00010327955434377863   -4.186142238655349e-05   4.144760863744991e-05
0.00010327955434377863   -4.186142238655349e-05   4.144760863744991e-05
0.00010327955434377863   -4.186142238655349e-05   4.144760863744991e-05
0.00017032638382117487   -5.825970076923925e-05   0.00015480341834257436
0.00017032638382117487   -5.825970076923925e-05   0.00015480341834257436
0.00017032638382117487   -5.825970076923925e-05   0.00015480341834257436
0.00017032638382117487   -5.825970076923925e-05   0.00015480341834257436
3.077312714274154e-05   -2.9381029669992356e-05   -6.0458140128600776e-05
3.077312714274154e-05   -2.9381029669992356e-05   -6.0458140128600776e-05
3.077312714274154e-05   -2.9381029669992356e-05   -6.0458140128600776e-05
3.077312714274154e-05   -2.9381029669992356e-05   -6.0458140128600776e-05
2.5770109883878952e-05   -5.750563762974524e-05   0.00017245978708033995
2.5770109883878952e-05   -5.750563762974524e-05   0.00017245978708033995
2.5770109883878952e-05   -5.750563762974524e-05   0.00017245978708033995
2.5770109883878952e-05   -5.750563762974524e-05   0.00017245978708033995
0.00016631556473674814   -3.0148723974573674e-05   -7.819678586754334e-05
0.00016631556473674814   -3.0148723974573674e-05   -7.819678586754334e-05
0.00016631556473674814   -3.0148723974573674e-05   -7.819678586754334e-05
0.00016631556473674814   -3.0148723974573674e-05   -7.819678586754334e-05
9.727300915193381e-05   -4.1015590527482965e-05   4.339426003889535e-05
9.727300915193381e-05   -4.1015590527482965e-05   4.339426003889535e-05
9.727300915193381e-05   -4.1015590527482965e-05   4.339426003889535e-05
9.727300915193381e-05   -4.1015590527482965e-05   4.339426003889535e-05
0.00016631556473674835   -5.7505637629746975e-05   0.0001560456388872396
0.00016631556473674835   -5.7505637629746975e-05   0.0001560456388872396
0.00016631556473674835   -5.7505637629746975e-05   0.0001560456388872396
0.00016631556473674835   -5.7505637629746975e-05   0.0001560456388872396
2.5770109883878952e-05   -3.0148723974573674e-05   -6.17826376744417e-05
2.5770109883878952e-05   -3.0148723974573674e-05   -6.17826376744417e-05
2.5770109883878952e-05   -3.0148723974573674e-05   -6.17826376744417e-05
2.5770109883878952e-05   -3.0148723974573674e-05   -6.17826376744417e-05
2.0202143471092734e-05   -5.598101204164728e-05   0.00017814744368114133
2.0202143471092734e-05   -5.598101204164728e-05   0.00017814744368114133
2.0202143471092734e-05   -5.598101204164728e-05   0.00017814744368114133
2.0202143471092734e-05   -5.598101204164728e-05   0.00017814744368114133
0.00016142434290692092   -2.9496534171235406e-05   -7.3113575434153e-05
0.00016142434290692092   -2.9496534171235406e-05   -7.3113575434153e-05
0.00016142434290692092   -2.9496534171235406e-05   -7.3113575434153e-05
0.00016142434290692092   -2.9496534171235406e-05   -7.3113575434153e-05
9.358729870474899e-05   -3.923750028752247e-05   4.579274457257266e-05
9.358729870474899e-05   -3.923750028752247e-05   4.579274457257266e-05
9.358729870474899e-05   -3.923750028752247e-05   4.579274457257266e-05
9.358729870474899e-05   -3.923750028752247e-05   4.579274457257266e-05
3.779771070681057e-05   -7.105488879844551e-05   0.00015516139610848283
3.779771070681057e-05   -7.105488879844551e-05   0.00015516139610848283
3.779771070681057e-05   -7.105488879844551e-05   0.00015516139610848283
3.779771070681057e-05   -7.105488879844551e-05   0.00015516139610848283
-9.373505305162002e-05   -1.191933679948326e-05   -2.857854562285725e-05
-9.373505305162002e-05   -1.191933679948326e-05   -2.857854562285725e-05
-9.373505305162002e-05   -1.191933679948326e-05   -2.857854562285725e-05
-9.373505305162002e-05   -1.191933679948326e-05   -2.857854562285725e-05
-0.0001046673358876169   -7.265848083653006e-05   0.00019977292016649505
-0.0001046673358876169   -7.265848083653006e-05   0.00019977292016649505
-0.0001046673358876169   -7.265848083653006e-05   0.00019977292016649505
-0.0001046673358876169   -7.265848083653006e-05   0.00019977292016649505
3.0773127142741646e-05   -1.2594933311299225e-05   -6.199931339923915e-05
3.0773127142741646e-05   -1.2594933311299225e-05   -6.199931339923915e-05
3.0773127142741646e-05   -1.2594933311299225e-05   -6.199931339923915e-05
3.0773127142741646e-05   -1.2594933311299225e-05   -6.199931339923915e-05
-3.126353357260262e-05   -4.071174537414492e-05   5.826520836404092e-05
-3.126353357260262e-05   -4.071174537414492e-05   5.826520836404092e-05
-3.126353357260262e-05   -4.071174537414492e-05   5.826520836404092e-05
-3.126353357260262e-05   -4.071174537414492e-05   5.826520836404092e-05
3.077312714274154e-05   -7.265848083652833e-05   0.0001637347916513569
3.077312714274154e-05   -7.265848083652833e-05   0.0001637347916513569
3.077312714274154e-05   -7.265848083652833e-05   0.0001637347916513569
3.077312714274154e-05   -7.265848083652833e-05   0.0001637347916513569
-0.00010466733588761668   -1.2594933311299225e-05   -2.5961184884101644e-05
-0.00010466733588761668   -1.2594933311299225e-05   -2.5961184884101644e-05
-0.00010466733588761668   -1.2594933311299225e-05   -2.5961184884101644e-05
-0.00010466733588761668   -1.2594933311299225e-05   -2.5961184884101644e-05
-0.00011133880521967804   -7.235740761010918e-05   0.0002074222224390989
-0.00011133880521967804   -7.235740761010918e-05   0.0002074222224390989
-0.00011133880521967804   -7.235740761010918e-05   0.0002074222224390989
-0.00011133880521967804   -7.235740761010918e-05   0.0002074222224390989
2.5770109883878952e-05   -1.34182255806959e-05   -5.6456145284479843e-05
2.5770109883878952e-05   -1.34182255806959e-05   -5.6456145284479843e-05
2.5770109883878952e-05   -1.34182255806959e-05   -5.6456145284479843e-05
2.5770109883878952e-05   -1.34182255806959e-05   -5.6456145284479843e-05
-3.865965009149948e-05   -4.061061008622455e-05   6.724221871113809e-05
-3.865965009149948e-05   -4.061061008622455e-05   6.724221871113809e-05
-3.865965009149948e-05   -4.061061008622455e-05   6.724221871113809e-05
-3.865965009149948e-05   -4.061061008622455e-05   6.724221871113809e-05
2.5770109883878952e-05   -7.235740761010918e-05   0.00017205871322144815
2.5770109883878952e-05   -7.235740761010918e-05   0.00017205871322144815
2.5770109883878952e-05   -7.235740761010918e-05   0.00017205871322144815
2.5770109883878952e-05   -7.235740761010918e-05   0.00017205871322144815
-0.00011133880521967777   -1.34182255806959e-05   -2.1092636066829748e-05
-0.00011133880521967777   -1.34182255806959e-05   -2.1092636066829748e-05
-0.00011133880521967777   -1.34182255806959e-05   -2.1092636066829748e-05
-0.00011133880521967777   -1.34182255806959e-05   -2.1092636066829748e-05
-0.0001191977616848288   -6.986566350585151e-05   0.0002173436737572523
-0.0001191977616848288   -6.986566350585151e-05   0.0002173436737572523
-0.0001191977616848288   -6.986566350585151e-05   0.0002173436737572523
-0.0001191977616848288   -6.986566350585151e-05   0.0002173436737572523
2.0202143471092734e-05   -1.3361368146808106e-05   -4.8892078718043726e-05
2.0202143471092734e-05   -1.3361368146808106e-05   -4.8892078718043726e-05
2.0202143471092734e-05   -1.3361368146808106e-05   -4.8892078718043726e-05
2.0202143471092734e-05   -1.3361368146808106e-05   -4.8892078718043726e-05
-4.467696328377363e-05   -3.9032020157869773e-05   7.464215708003841e-05
-4.467696328377363e-05   -3.9032020157869773e-05   7.464215708003841e-05
-4.467696328377363e-05   -3.9032020157869773e-05   7.464215708003841e-05
-4.467696328377363e-05   -3.9032020157869773e-05   7.464215708003841e-05
-9.373505305162024e-05   -8.902048073454287e-05   0.0001883483726857968
-9.373505305162024e-05   -8.902048073454287e-05   0.0001883483726857968
-9.373505305162024e-05   -8.902048073454287e-05   0.0001883483726857968
-9.373505305162024e-05   -8.902048073454287e-05   0.0001883483726857968
-0.0002438248536125711   1.202948683223272e-05   -1.1713143757237018e-06
-0.0002438248536125711   1.202948683223272e-05   -1.1713143757237018e-06
-0.0002438248536125711   1.202948683223272e-05   -1.1713143757237018e-06
-0.0002438248536125711   1.202948683223272e-05   -1.1713143757237018e-06
-0.00025692330627031536   -9.922646745158699e-05   0.00026655443893591584
-0.00025692330627031536   -9.922646745158699e-05   0.00026655443893591584
-0.00025692330627031536   -9.922646745158699e-05   0.00026655443893591584
-0.00025692330627031536   -9.922646745158699e-05   0.00026655443893591584
-0.00010466733588761668   1.1239648992326587e-05   -5.348518156826263e-05
-0.00010466733588761668   1.1239648992326587e-05   -5.348518156826263e-05
-0.00010466733588761668   1.1239648992326587e-05   -5.348518156826263e-05
-0.00010466733588761668   1.1239648992326587e-05   -5.348518156826263e-05
-0.00017231903958562635   -3.7313252427246396e-05   8.839939878016326e-05
-0.00017231903958562635   -3.7313252427246396e-05   8.839939878016326e-05
-0.00017231903958562635   -3.7313252427246396e-05   8.839939878016326e-05
-0.00017231903958562635   -3.7313252427246396e-05   8.839939878016326e-05
-0.0001046673358876169   -9.922646745158699e-05   0.00020027476906956873
-0.0001046673358876169   -9.922646745158699e-05   0.00020027476906956873
-0.0001046673358876169   -9.922646745158699e-05   0.00020027476906956873
-0.0001046673358876169   -9.922646745158699e-05   0.00020027476906956873
-0.00025692330627031536   1.1239648992326587e-05   1.2794488298085993e-05
-0.00025692330627031536   1.1239648992326587e-05   1.2794488298085993e-05
-0.00025692330627031536   1.1239648992326587e-05   1.2794488298085993e-05
-0.00025692330627031536   1.1239648992326587e-05   1.2794488298085993e-05
-0.0002649146609554138   -9.98194168416993e-05   0.000281426266070214
-0.0002649146609554138   -9.98194168416993e-05   0.000281426266070214
-0.0002649146609554138   -9.98194168416993e-05   0.000281426266070214
-0.0002649146609554138   -9.98194168416993e-05   0.000281426266070214
-0.00011133880521967777   9.83339824353266e-06   -4.032518254048481e-05
-0.00011133880521967777   9.83339824353266e-06   -4.032518254048481e-05
-0.00011133880521967777   9.83339824353266e-06   -4.032518254048481e-05
-0.00011133880521967777   9.83339824353266e-06   -4.032518254048481e-05
-0.00018085465777147527   -4.2830974229548374e-05   0.00010713319519635965
-0.00018085465777147527   -4.2830974229548374e-05   0.00010713319519635965
-0.00018085465777147527   -4.2830974229548374e-05   0.00010713319519635965
-0.00018085465777147527   -4.2830974229548374e-05   0.00010713319519635965
-0.00011133880521967777   -9.981941684169757e-05   0.00021563457701907415
-0.00011133880521967777   -9.981941684169757e-05   0.00021563457701907415
-0.00011133880521967777   -9.981941684169757e-05   0.00021563457701907415
-0.00011133880521967777   -9.981941684169757e-05   0.00021563457701907415
-0.0002649146609554134   9.83339824353266e-06   2.5466506510653762e-05
-0.0002649146609554134   9.83339824353266e-06   2.5466506510653762e-05
-0.0002649146609554134   9.83339824353266e-06   2.5466506510653762e-05
-0.0002649146609554134   9.83339824353266e-06   2.5466506510653762e-05
-0.00027351609363485086   -9.133072776657848e-05   0.0002878816931320633
-0.00027351609363485086   -9.133072776657848e-05   0.0002878816931320633
-0.00027351609363485086   -9.133072776657848e-05   0.0002878816931320633
-0.00027351609363485086   -9.133072776657848e-05   0.0002878816931320633
-0.00011919776168482836   8.247665447318198e-06   -2.906256271297718e-05
-0.00011919776168482836   8.247665447318198e-06   -2.906256271297718e-05
-0.00011919776168482836   8.247665447318198e-06   -2.906256271297718e-05
-0.00011919776168482836   8.247665447318198e-06   -2.906256271297718e-05
-0.00018961699815061336   -4.317595131178749e-05   0.00011915700145213133
-0.00018961699815061336   -4.317595131178749e-05   0.00011915700145213133
-0.00018961699815061336   -4.317595131178749e-05   0.00011915700145213133
-0.00018961699815061336   -4.317595131178749e-05   0.00011915700145213133
-0.00024382485361257035   0.0   0.000209267502077325
-0.00024382485361257035   0.0   0.000209267502077325
-0.00024382485361257035   0.0   0.000209267502077325
-0.00024382485361257035   0.0   0.000209267502077325
-0.0004303481418635159   5.6321599818384e-05   -6.781168511655385e-05
-0.0004303481418635159   5.6321599818384e-05   -6.781168511655385e-05
-0.0004303481418635159   5.6321599818384e-05   -6.781168511655385e-05
-0.0004303481418635159   5.6321599818384e-05   -6.781168511655385e-05
-0.00044848538490613207   0.0   0.000302643771367358
-0.00044848538490613207   0.0   0.000302643771367358
-0.00044848538490613207   0.0   0.000302643771367358
-0.00044848538490613207   0.0   0.000302643771367358
-0.0002569233062703148   5.4272285481016605e-05   -4.918973098094748e-05
-0.0002569233062703148   5.4272285481016605e-05   -4.918973098094748e-05
-0.0002569233062703148   5.4272285481016605e-05   -4.918973098094748e-05
-0.0002569233062703148   5.4272285481016605e-05   -4.918973098094748e-05
-0.0003301739354965999   3.342138062293991e-05   8.54051939777065e-05
-0.0003301739354965999   3.342138062293991e-05   8.54051939777065e-05
-0.0003301739354965999   3.342138062293991e-05   8.54051939777065e-05
-0.0003301739354965999   3.342138062293991e-05   8.54051939777065e-05
-0.00025692330627031466   0.0   0.0002700804000787486
-0.00025692330627031466   0.0   0.0002700804000787486
-0.00025692330627031466   0.0   0.0002700804000787486
-0.00025692330627031466   0.0   0.0002700804000787486
-0.00044848538490613283   5.4272285481016605e-05   -1.6626359692338034e-05
-0.00044848538490613283   5.4272285481016605e-05   -1.6626359692338034e-05
-0.00044848538490613283   5.4272285481016605e-05   -1.6626359692338034e-05
-0.00044848538490613283   5.4272285481016605e-05   -1.6626359692338034e-05
-0.0004576288666793129   0.0   0.0003358782798954761
-0.0004576288666793129   0.0   0.0003358782798954761
-0.0004576288666793129   0.0   0.0003358782798954761
-0.0004576288666793129   0.0   0.0003358782798954761
-0.0002649146609554134   5.284814649702922e-05   -1.7020950875908363e-05
-0.0002649146609554134   5.284814649702922e-05   -1.7020950875908363e-05
-0.0002649146609554134   5.284814649702922e-05   -1.7020950875908363e-05
-0.0002649146609554134   5.284814649702922e-05   -1.7020950875908363e-05
-0.0003475745963895103   2.788298294365346e-05   0.0001357247063129498
-0.0003475745963895103   2.788298294365346e-05   0.0001357247063129498
-0.0003475745963895103   2.788298294365346e-05   0.0001357247063129498
-0.0003475745963895103   2.788298294365346e-05   0.0001357247063129498
-0.0002649146609554134   0.0   0.0003041693919972584
-0.0002649146609554134   0.0   0.0003041693919972584
-0.0002649146609554134   0.0   0.0003041693919972584
-0.0002649146609554134   0.0   0.0003041693919972584
-0.0004576288666793145   5.284814649702922e-05   1.4687937022309777e-05
-0.0004576288666793145   5.284814649702922e-05   1.4687937022309777e-05
-0.0004576288666793145   5.284814649702922e-05   1.4687937022309777e-05
-0.0004576288666793145   5.284814649702922e-05   1.4687937022309777e-05
-0.0004678451136172715   0.0   0.00038021393372025467
-0.0004678451136172715   0.0   0.00038021393372025467
-0.0004678451136172715   0.0   0.00038021393372025467
-0.0004678451136172715   0.0   0.00038021393372025467
-0.00027351609363485086   4.3874752387916896e-05   3.000738231680243e-05
-0.00027351609363485086   4.3874752387916896e-05   3.000738231680243e-05
-0.00027351609363485086   4.3874752387916896e-05   3.000738231680243e-05
-0.00027351609363485086   4.3874752387916896e-05   3.000738231680243e-05
-0.0003505901570411734   1.9510089643692136e-05   0.00017308295230720767
-0.0003505901570411734   1.9510089643692136e-05   0.00017308295230720767
-0.0003505901570411734   1.9510089643692136e-05   0.00017308295230720767
-0.0003505901570411734   1.9510089643692136e-05   0.00017308295230720767
0.0002952457869663225   -4.4492573067539745e-05   0.0002102081876975961
0.0002952457869663225   -4.4492573067539745e-05   0.0002102081876975961
0.0002952457869663225   -4.4492573067539745e-05   0.0002102081876975961
0.0002952457869663225   -4.4492573067539745e-05   0.0002102081876975961
0.0001494650284380032   -3.342838404745037e-05   -2.6121229770883353e-05
0.0001494650284380032   -3.342838404745037e-05   -2.6121229770883353e-05
0.0001494650284380032   -3.342838404745037e-05   -2.6121229770883353e-05
0.0001494650284380032   -3.342838404745037e-05   -2.6121229770883353e-05
0.00014548097343811594   -4.8947102849137766e-05   0.00018361712987787718
0.00014548097343811594   -4.8947102849137766e-05   0.00018361712987787718
0.00014548097343811594   -4.8947102849137766e-05   0.00018361712987787718
0.00014548097343811594   -4.8947102849137766e-05   0.00018361712987787718
0.00028811543404401473   -3.792147720348832e-05   -6.072234651934374e-05
0.00028811543404401473   -3.792147720348832e-05   -6.072234651934374e-05
0.00028811543404401473   -3.792147720348832e-05   -6.072234651934374e-05
0.00028811543404401473   -3.792147720348832e-05   -6.072234651934374e-05
0.00020980153715069726   -3.9540599887206984e-05   7.077228857975144e-05
0.00020980153715069726   -3.9540599887206984e-05   7.077228857975144e-05
0.00020980153715069726   -3.9540599887206984e-05   7.077228857975144e-05
0.00020980153715069726   -3.9540599887206984e-05   7.077228857975144e-05
0.0002881154340440142   -4.8947102849137766e-05   0.000177001754490487
0.0002881154340440142   -4.8947102849137766e-05   0.000177001754490487
0.0002881154340440142   -4.8947102849137766e-05   0.000177001754490487
0.0002881154340440142   -4.8947102849137766e-05   0.000177001754490487
0.00014548097343811627   -3.792147720348832e-05   -5.4106971131953445e-05
0.00014548097343811627   -3.792147720348832e-05   -5.4106971131953445e-05
0.00014548097343811627   -3.792147720348832e-05   -5.4106971131953445e-05
0.00014548097343811627   -3.792147720348832e-05   -5.4106971131953445e-05
0.0001403465020304597   -4.936869644504675e-05   0.00016489510270145582
0.0001403465020304597   -4.936869644504675e-05   0.00016489510270145582
0.0001403465020304597   -4.936869644504675e-05   0.00016489510270145582
0.0001403465020304597   -4.936869644504675e-05   0.00016489510270145582
0.0002809121576733528   -3.859762621625899e-05   -7.584363217397216e-05
0.0002809121576733528   -3.859762621625899e-05   -7.584363217397216e-05
0.0002809121576733528   -3.859762621625899e-05   -7.584363217397216e-05
0.0002809121576733528   -3.859762621625899e-05   -7.584363217397216e-05
0.00020776121070890434   -4.127522800369439e-05   4.7681173839235914e-05
0.00020776121070890434   -4.127522800369439e-05   4.7681173839235914e-05
0.00020776121070890434   -4.127522800369439e-05   4.7681173839235914e-05
0.00020776121070890434   -4.127522800369439e-05   4.7681173839235914e-05
0.0002809121576733528   -4.936869644504849e-05   0.00015843246056418403
0.0002809121576733528   -4.936869644504849e-05   0.00015843246056418403
0.0002809121576733528   -4.936869644504849e-05   0.00015843246056418403
0.0002809121576733528   -4.936869644504849e-05   0.00015843246056418403
0.0001403465020304597   -3.859762621625899e-05   -6.938099003669929e-05
0.0001403465020304597   -3.859762621625899e-05   -6.938099003669929e-05
0.0001403465020304597   -3.859762621625899e-05   -6.938099003669929e-05
0.0001403465020304597   -3.859762621625899e-05   -6.938099003669929e-05
0.00013496253838362585   -4.837837502803463e-05   0.00013715498137520116
0.00013496253838362585   -4.837837502803463e-05   0.00013715498137520116
0.00013496253838362585   -4.837837502803463e-05   0.00013715498137520116
0.00013496253838362585   -4.837837502803463e-05   0.00013715498137520116
0.0002718976957476508   -3.8390344929254555e-05   -9.706309895744268e-05
0.0002718976957476508   -3.8390344929254555e-05   -9.706309895744268e-05
0.0002718976957476508   -3.8390344929254555e-05   -9.706309895744268e-05
0.0002718976957476508   -3.8390344929254555e-05   -9.706309895744268e-05
0.00019843417428956102   -4.0207063563665185e-05   2.646613465335677e-05
0.00019843417428956102   -4.0207063563665185e-05   2.646613465335677e-05
0.00019843417428956102   -4.0207063563665185e-05   2.646613465335677e-05
0.00019843417428956102   -4.0207063563665185e-05   2.646613465335677e-05
0.00014946502843800352   -2.7689475365326108e-05   0.0001994151501710532
0.00014946502843800352   -2.7689475365326108e-05   0.0001994151501710532
0.00014946502843800352   -2.7689475365326108e-05   0.0001994151501710532
0.00014946502843800352   -2.7689475365326108e-05   0.0001994151501710532
1.6729989949592836e-05   -1.1839603341137067e-05   -1.2299990761784584e-05
1.6729989949592836e-05   -1.1839603341137067e-05   -1.2299990761784584e-05
1.6729989949592836e-05   -1.1839603341137067e-05   -1.2299990761784584e-05
1.6729989949592836e-05   -1.1839603341137067e-05   -1.2299990761784584e-05
1.2776316675013836e-05   -2.9381029669992356e-05   0.00020785477639066307
1.2776316675013836e-05   -2.9381029669992356e-05   0.00020785477639066307
1.2776316675013836e-05   -2.9381029669992356e-05   0.00020785477639066307
1.2776316675013836e-05   -2.9381029669992356e-05   0.00020785477639066307
0.00014548097343811627   -1.4262090202735167e-05   -2.2391015228196494e-05
0.00014548097343811627   -1.4262090202735167e-05   -2.2391015228196494e-05
0.00014548097343811627   -1.4262090202735167e-05   -2.2391015228196494e-05
0.00014548097343811627   -1.4262090202735167e-05   -2.2391015228196494e-05
8.033817963629431e-05   -1.932863922294442e-05   8.922023718696721e-05
8.033817963629431e-05   -1.932863922294442e-05   8.922023718696721e-05
8.033817963629431e-05   -1.932863922294442e-05   8.922023718696721e-05
8.033817963629431e-05   -1.932863922294442e-05   8.922023718696721e-05
0.00014548097343811605   -2.9381029669992356e-05   0.0001987834127103079
0.00014548097343811605   -2.9381029669992356e-05   0.0001987834127103079
0.00014548097343811605   -2.9381029669992356e-05   0.0001987834127103079
0.00014548097343811605   -2.9381029669992356e-05   0.0001987834127103079
1.2776316675013836e-05   -1.4262090202735167e-05   -1.3319651547840337e-05
1.2776316675013836e-05   -1.4262090202735167e-05   -1.3319651547840337e-05
1.2776316675013836e-05   -1.4262090202735167e-05   -1.3319651547840337e-05
1.2776316675013836e-05   -1.4262090202735167e-05   -1.3319651547840337e-05
7.724993744121032e-06   -3.014872397457541e-05   0.00020596170541702704
7.724993744121032e-06   -3.014872397457541e-05   0.00020596170541702704
7.724993744121032e-06   -3.014872397457541e-05   0.00020596170541702704
7.724993744121032e-06   -3.014872397457541e-05   0.00020596170541702704
0.0001403465020304597   -1.5861638283348745e-05   -2.364639314160759e-05
0.0001403465020304597   -1.5861638283348745e-05   -2.364639314160759e-05
0.0001403465020304597   -1.5861638283348745e-05   -2.364639314160759e-05
0.0001403465020304597   -1.5861638283348745e-05   -2.364639314160759e-05
7.533164680330762e-05   -2.025147515609914e-05   8.734560102729907e-05
7.533164680330762e-05   -2.025147515609914e-05   8.734560102729907e-05
7.533164680330762e-05   -2.025147515609914e-05   8.734560102729907e-05
7.533164680330762e-05   -2.025147515609914e-05   8.734560102729907e-05
0.00014034650203045954   -3.014872397457541e-05   0.0001973894540022907
0.00014034650203045954   -3.014872397457541e-05   0.0001973894540022907
0.00014034650203045954   -3.014872397457541e-05   0.0001973894540022907
0.00014034650203045954   -3.014872397457541e-05   0.0001973894540022907
7.724993744121032e-06   -1.5861638283348745e-05   -1.5074141726871895e-05
7.724993744121032e-06   -1.5861638283348745e-05   -1.5074141726871895e-05
7.724993744121032e-06   -1.5861638283348745e-05   -1.5074141726871895e-05
7.724993744121032e-06   -1.5861638283348745e-05   -1.5074141726871895e-05
2.1443712789755934e-06   -2.949653417123714e-05   0.00020905362992365128
2.1443712789755934e-06   -2.949653417123714e-05   0.00020905362992365128
2.1443712789755934e-06   -2.949653417123714e-05   0.00020905362992365128
2.1443712789755934e-06   -2.949653417123714e-05   0.00020905362992365128
0.0001349625383836258   -1.656296124897226e-05   -2.007012567079025e-05
0.0001349625383836258   -1.656296124897226e-05   -2.007012567079025e-05
0.0001349625383836258   -1.656296124897226e-05   -2.007012567079025e-05
0.0001349625383836258   -1.656296124897226e-05   -2.007012567079025e-05
7.123550896406648e-05   -2.0074905553292208e-05   8.824875661106978e-05
7.123550896406648e-05   -2.0074905553292208e-05   8.824875661106978e-05
7.123550896406648e-05   -2.0074905553292208e-05   8.824875661106978e-05
7.123550896406648e-05   -2.0074905553292208e-05   8.824875661106978e-05
1.6729989949592836e-05   -1.1919336799484995e-05   0.00020405082577475836
1.6729989949592836e-05   -1.1919336799484995e-05   0.00020405082577475836
1.6729989949592836e-05   -1.1919336799484995e-05   0.00020405082577475836
1.6729989949592836e-05   -1.1919336799484995e-05   0.00020405082577475836
-0.00011182811626197554   1.042577389654721e-05   3.1943818397627e-06
-0.00011182811626197554   1.042577389654721e-05   3.1943818397627e-06
-0.00011182811626197554   1.042577389654721e-05   3.1943818397627e-06
-0.00011182811626197554   1.042577389654721e-05   3.1943818397627e-06
-0.0001162811492845245   -1.259493331130096e-05   0.00021900498443022057
-0.0001162811492845245   -1.259493331130096e-05   0.00021900498443022057
-0.0001162811492845245   -1.259493331130096e-05   0.00021900498443022057
-0.0001162811492845245   -1.259493331130096e-05   0.00021900498443022057
1.2776316675013836e-05   8.55736887236079e-06   -8.782173479206516e-06
1.2776316675013836e-05   8.55736887236079e-06   -8.782173479206516e-06
1.2776316675013836e-05   8.55736887236079e-06   -8.782173479206516e-06
1.2776316675013836e-05   8.55736887236079e-06   -8.782173479206516e-06
-4.955815028562916e-05   -3.9930668094094457e-07   0.00010048261012051297
-4.955815028562916e-05   -3.9930668094094457e-07   0.00010048261012051297
-4.955815028562916e-05   -3.9930668094094457e-07   0.00010048261012051297
-4.955815028562916e-05   -3.9930668094094457e-07   0.00010048261012051297
1.2776316675013836e-05   -1.259493331130096e-05   0.0002063136031200249
1.2776316675013836e-05   -1.259493331130096e-05   0.0002063136031200249
1.2776316675013836e-05   -1.259493331130096e-05   0.0002063136031200249
1.2776316675013836e-05   -1.259493331130096e-05   0.0002063136031200249
-0.0001162811492845245   8.557368872359056e-06   3.9092078309892545e-06
-0.0001162811492845245   8.557368872359056e-06   3.9092078309892545e-06
-0.0001162811492845245   8.557368872359056e-06   3.9092078309892545e-06
-0.0001162811492845245   8.557368872359056e-06   3.9092078309892545e-06
-0.0001222608302535312   -1.3418225580694165e-05   0.00022342992196254866
-0.0001222608302535312   -1.3418225580694165e-05   0.00022342992196254866
-0.0001222608302535312   -1.3418225580694165e-05   0.00022342992196254866
-0.0001222608302535312   -1.3418225580694165e-05   0.00022342992196254866
7.724993744121032e-06   6.817981345235216e-06   -5.354842189096948e-06
7.724993744121032e-06   6.817981345235216e-06   -5.354842189096948e-06
7.724993744121032e-06   6.817981345235216e-06   -5.354842189096948e-06
7.724993744121032e-06   6.817981345235216e-06   -5.354842189096948e-06
-5.3953293878889245e-05   -9.345440504758551e-07   0.00010209381908668057
-5.3953293878889245e-05   -9.345440504758551e-07   0.00010209381908668057
-5.3953293878889245e-05   -9.345440504758551e-07   0.00010209381908668057
-5.3953293878889245e-05   -9.345440504758551e-07   0.00010209381908668057
7.724993744121032e-06   -1.34182255806959e-05   0.00021128819780698999
7.724993744121032e-06   -1.34182255806959e-05   0.00021128819780698999
7.724993744121032e-06   -1.34182255806959e-05   0.00021128819780698999
7.724993744121032e-06   -1.34182255806959e-05   0.00021128819780698999
-0.00012226083025353109   6.817981345235216e-06   6.786881966460746e-06
-0.00012226083025353109   6.817981345235216e-06   6.786881966460746e-06
-0.00012226083025353109   6.817981345235216e-06   6.786881966460746e-06
-0.00012226083025353109   6.817981345235216e-06   6.786881966460746e-06
-0.00012863199542673446   -1.3361368146808106e-05   0.00022873820076798994
-0.00012863199542673446   -1.3361368146808106e-05   0.00022873820076798994
-0.00012863199542673446   -1.3361368146808106e-05   0.00022873820076798994
-0.00012863199542673446   -1.3361368146808106e-05   0.00022873820076798994
2.1443712789755934e-06   5.561566603981896e-06   -5.76171258667474e-07
2.1443712789755934e-06   5.561566603981896e-06   -5.76171258667474e-07
2.1443712789755934e-06   5.561566603981896e-06   -5.76171258667474e-07
2.1443712789755934e-06   5.561566603981896e-06   -5.76171258667474e-07
-5.956213325078772e-05   -1.324148814353665e-06   0.00010639943220860969
-5.956213325078772e-05   -1.324148814353665e-06   0.00010639943220860969
-5.956213325078772e-05   -1.324148814353665e-06   0.00010639943220860969
-5.956213325078772e-05   -1.324148814353665e-06   0.00010639943220860969
-0.00011182811626197521   1.202948683223272e-05   0.0001842351428994445
-0.00011182811626197521   1.202948683223272e-05   0.0001842351428994445
-0.00011182811626197521   1.202948683223272e-05   0.0001842351428994445
-0.00011182811626197521   1.202948683223272e-05   0.0001842351428994445
-0.00023766078174296897   3.4089768629683506e-05   -1.2249797157073625e-05
-0.00023766078174296897   3.4089768629683506e-05   -1.2249797157073625e-05
-0.00023766078174296897   3.4089768629683506e-05   -1.2249797157073625e-05
-0.00023766078174296897   3.4089768629683506e-05   -1.2249797157073625e-05
-0.0002441669033787369   1.1239648992326587e-05   0.0002040624338577766
-0.0002441669033787369   1.1239648992326587e-05   0.0002040624338577766
-0.0002441669033787369   1.1239648992326587e-05   0.0002040624338577766
-0.0002441669033787369   1.1239648992326587e-05   0.0002040624338577766
-0.00011628114928452407   3.220872584518836e-05   -2.1661935744293976e-05
-0.00011628114928452407   3.220872584518836e-05   -2.1661935744293976e-05
-0.00011628114928452407   3.220872584518836e-05   -2.1661935744293976e-05
-0.00011628114928452407   3.220872584518836e-05   -2.1661935744293976e-05
-0.00017607045465588826   2.2804379365146468e-05   8.36295144293381e-05
-0.00017607045465588826   2.2804379365146468e-05   8.36295144293381e-05
-0.00017607045465588826   2.2804379365146468e-05   8.36295144293381e-05
-0.00017607045465588826   2.2804379365146468e-05   8.36295144293381e-05
-0.00011628114928452439   1.1239648992326587e-05   0.00019148098774605937
-0.00011628114928452439   1.1239648992326587e-05   0.00019148098774605937
-0.00011628114928452439   1.1239648992326587e-05   0.00019148098774605937
-0.00011628114928452439   1.1239648992326587e-05   0.00019148098774605937
-0.0002441669033787366   3.220872584518836e-05   -9.08048963257739e-06
-0.0002441669033787366   3.220872584518836e-05   -9.08048963257739e-06
-0.0002441669033787366   3.220872584518836e-05   -9.08048963257739e-06
-0.0002441669033787366   3.220872584518836e-05   -9.08048963257739e-06
-0.0002521331201880433   9.83339824353266e-06   0.0002165831429834222
-0.0002521331201880433   9.83339824353266e-06   0.0002165831429834222
-0.0002521331201880433   9.83339824353266e-06   0.0002165831429834222
-0.0002521331201880433   9.83339824353266e-06   0.0002165831429834222
-0.00012226083025353109   3.0476344067746283e-05   -1.2256441068626703e-05
-0.00012226083025353109   3.0476344067746283e-05   -1.2256441068626703e-05
-0.00012226083025353109   3.0476344067746283e-05   -1.2256441068626703e-05
-0.00012226083025353109   3.0476344067746283e-05   -1.2256441068626703e-05
-0.00018093073676276282   2.2353880833728135e-05   9.040021438717037e-05
-0.00018093073676276282   2.2353880833728135e-05   9.040021438717037e-05
-0.00018093073676276282   2.2353880833728135e-05   9.040021438717037e-05
-0.00018093073676276282   2.2353880833728135e-05   9.040021438717037e-05
-0.00012226083025353087   9.83339824353266e-06   0.00020419737548889316
-0.00012226083025353087   9.83339824353266e-06   0.00020419737548889316
-0.00012226083025353087   9.83339824353266e-06   0.00020419737548889316
-0.00012226083025353087   9.83339824353266e-06   0.00020419737548889316
-0.0002521331201880433   3.0476344067746283e-05   1.2932642590168797e-07
-0.0002521331201880433   3.0476344067746283e-05   1.2932642590168797e-07
-0.0002521331201880433   3.0476344067746283e-05   1.2932642590168797e-07
-0.0002521331201880433   3.0476344067746283e-05   1.2932642590168797e-07
-0.0002605699882571896   8.247665447318198e-06   0.00022661002994489327
-0.0002605699882571896   8.247665447318198e-06   0.00022661002994489327
-0.0002605699882571896   8.247665447318198e-06   0.00022661002994489327
-0.0002605699882571896   8.247665447318198e-06   0.00022661002994489327
-0.00012863199542673392   2.8155816092756067e-05   -5.231515159795754e-06
-0.00012863199542673392   2.8155816092756067e-05   -5.231515159795754e-06
-0.00012863199542673392   2.8155816092756067e-05   -5.231515159795754e-06
-0.00012863199542673392   2.8155816092756067e-05   -5.231515159795754e-06
-0.00018897619608585273   2.0942151754575408e-05   9.967035120831682e-05
-0.00018897619608585273   2.0942151754575408e-05   9.967035120831682e-05
-0.00018897619608585273   2.0942151754575408e-05   9.967035120831682e-05
-0.00018897619608585273   2.0942151754575408e-05   9.967035120831682e-05
-0.00023766078174296897   5.6321599818384e-05   9.703798134605597e-05
-0.00023766078174296897   5.6321599818384e-05   9.703798134605597e-05
-0.00023766078174296897   5.6321599818384e-05   9.703798134605597e-05
-0.00023766078174296897   5.6321599818384e-05   9.703798134605597e-05
-0.0003580333092097535   5.54406736503147e-05   -0.00010411145346609415
-0.0003580333092097535   5.54406736503147e-05   -0.00010411145346609415
-0.0003580333092097535   5.54406736503147e-05   -0.00010411145346609415
-0.0003580333092097535   5.54406736503147e-05   -0.00010411145346609415
-0.0003697007064381783   5.427228548101487e-05   0.00014339523812089555
-0.0003697007064381783   5.427228548101487e-05   0.00014339523812089555
-0.0003697007064381783   5.427228548101487e-05   0.00014339523812089555
-0.0003697007064381783   5.427228548101487e-05   0.00014339523812089555
-0.0002441669033787366   5.6467324717937584e-05   -6.714479052032703e-05
-0.0002441669033787366   5.6467324717937584e-05   -6.714479052032703e-05
-0.0002441669033787366   5.6467324717937584e-05   -6.714479052032703e-05
-0.0002441669033787366   5.6467324717937584e-05   -6.714479052032703e-05
-0.0002902189555202583   5.653413282230048e-05   9.568544852923792e-06
-0.0002902189555202583   5.653413282230048e-05   9.568544852923792e-06
-0.0002902189555202583   5.653413282230048e-05   9.568544852923792e-06
-0.0002902189555202583   5.653413282230048e-05   9.568544852923792e-06
-0.0002441669033787364   5.4272285481016605e-05   0.00014207821457874227
-0.0002441669033787364   5.4272285481016605e-05   0.00014207821457874227
-0.0002441669033787364   5.4272285481016605e-05   0.00014207821457874227
-0.0002441669033787364   5.4272285481016605e-05   0.00014207821457874227
-0.0003697007064381783   5.6467324717937584e-05   -6.582776697817375e-05
-0.0003697007064381783   5.6467324717937584e-05   -6.582776697817375e-05
-0.0003697007064381783   5.6467324717937584e-05   -6.582776697817375e-05
-0.0003697007064381783   5.6467324717937584e-05   -6.582776697817375e-05
-0.0003811431773884474   5.284814649702922e-05   0.00017601584646802487
-0.0003811431773884474   5.284814649702922e-05   0.00017601584646802487
-0.0003811431773884474   5.284814649702922e-05   0.00017601584646802487
-0.0003811431773884474   5.284814649702922e-05   0.00017601584646802487
-0.0002521331201880429   5.604841461563821e-05   -4.092107640381575e-05
-0.0002521331201880429   5.604841461563821e-05   -4.092107640381575e-05
-0.0002521331201880429   5.604841461563821e-05   -4.092107640381575e-05
-0.0002521331201880429   5.604841461563821e-05   -4.092107640381575e-05
-0.0003035296138423294   5.64931688376933e-05   4.4472893820097625e-05
-0.0003035296138423294   5.64931688376933e-05   4.4472893820097625e-05
-0.0003035296138423294   5.64931688376933e-05   4.4472893820097625e-05
-0.0003035296138423294   5.64931688376933e-05   4.4472893820097625e-05
-0.0002521331201880429   5.284814649702922e-05   0.00017409568559685965
-0.0002521331201880429   5.284814649702922e-05   0.00017409568559685965
-0.0002521331201880429   5.284814649702922e-05   0.00017409568559685965
-0.0002521331201880429   5.284814649702922e-05   0.00017409568559685965
-0.0003811431773884474   5.604841461563821e-05   -3.900091553265053e-05
-0.0003811431773884474   5.604841461563821e-05   -3.900091553265053e-05
-0.0003811431773884474   5.604841461563821e-05   -3.900091553265053e-05
-0.0003811431773884474   5.604841461563821e-05   -3.900091553265053e-05
-0.0003946316872099386   4.3874752387916896e-05   0.00023054381098400537
-0.0003946316872099386   4.3874752387916896e-05   0.00023054381098400537
-0.0003946316872099386   4.3874752387916896e-05   0.00023054381098400537
-0.0003946316872099386   4.3874752387916896e-05   0.00023054381098400537
-0.00026056998825718875   5.1559538950699674e-05   2.49677412508505e-06
-0.00026056998825718875   5.1559538950699674e-05   2.49677412508505e-06
-0.00026056998825718875   5.1559538950699674e-05   2.49677412508505e-06
-0.00026056998825718875   5.1559538950699674e-05   2.49677412508505e-06
-0.0003084000805830824   5.3783989720907616e-05   8.087892420611826e-05
-0.0003084000805830824   5.3783989720907616e-05   8.087892420611826e-05
-0.0003084000805830824   5.3783989720907616e-05   8.087892420611826e-05
-0.0003084000805830824   5.3783989720907616e-05   8.087892420611826e-05
0.0002387019975831853   -3.34283840474521e-05   0.00018481078941985033
0.0002387019975831853   -3.34283840474521e-05   0.00018481078941985033
0.0002387019975831853   -3.34283840474521e-05   0.00018481078941985033
0.0002387019975831853   -3.34283840474521e-05   0.00018481078941985033
0.0001182956432736418   -2.4409325480312383e-05   -1.0455032622438964e-05
0.0001182956432736418   -2.4409325480312383e-05   -1.0455032622438964e-05
0.0001182956432736418   -2.4409325480312383e-05   -1.0455032622438964e-05
0.0001182956432736418   -2.4409325480312383e-05   -1.0455032622438964e-05
0.00011370850344432406   -3.792147720348832e-05   0.0001608032002442415
0.00011370850344432406   -3.792147720348832e-05   0.0001608032002442415
0.00011370850344432406   -3.792147720348832e-05   0.0001608032002442415
0.00011370850344432406   -3.792147720348832e-05   0.0001608032002442415
0.0002302601868332125   -2.835254251200639e-05   -3.9190966218794436e-05
0.0002302601868332125   -2.835254251200639e-05   -3.9190966218794436e-05
0.0002302601868332125   -2.835254251200639e-05   -3.9190966218794436e-05
0.0002302601868332125   -2.835254251200639e-05   -3.9190966218794436e-05
0.0001672165564234429   -3.071266024316614e-05   6.729782176951703e-05
0.0001672165564234429   -3.071266024316614e-05   6.729782176951703e-05
0.0001672165564234429   -3.071266024316614e-05   6.729782176951703e-05
0.0001672165564234429   -3.071266024316614e-05   6.729782176951703e-05
0.00023026018683321213   -3.792147720348832e-05   0.00015506183942935216
0.00023026018683321213   -3.792147720348832e-05   0.00015506183942935216
0.00023026018683321213   -3.792147720348832e-05   0.00015506183942935216
0.00023026018683321213   -3.792147720348832e-05   0.00015506183942935216
0.00011370850344432444   -2.835254251200639e-05   -3.344960540390459e-05
0.00011370850344432444   -2.835254251200639e-05   -3.344960540390459e-05
0.00011370850344432444   -2.835254251200639e-05   -3.344960540390459e-05
0.00011370850344432444   -2.835254251200639e-05   -3.344960540390459e-05
0.0001086147088297412   -3.859762621626073e-05   0.00014416957356741707
0.0001086147088297412   -3.859762621626073e-05   0.00014416957356741707
0.0001086147088297412   -3.859762621626073e-05   0.00014416957356741707
0.0001086147088297412   -3.859762621626073e-05   0.00014416957356741707
0.000222622943740985   -2.915041059539311e-05   -5.151248065717536e-05
0.000222622943740985   -2.915041059539311e-05   -5.151248065717536e-05
0.000222622943740985   -2.915041059539311e-05   -5.151248065717536e-05
0.000222622943740985   -2.915041059539311e-05   -5.151248065717536e-05
0.0001640020929846469   -3.2238232020292273e-05   4.804163012499425e-05
0.0001640020929846469   -3.2238232020292273e-05   4.804163012499425e-05
0.0001640020929846469   -3.2238232020292273e-05   4.804163012499425e-05
0.0001640020929846469   -3.2238232020292273e-05   4.804163012499425e-05
0.00022262294374098424   -3.859762621626073e-05   0.00013850124419489789
0.00022262294374098424   -3.859762621626073e-05   0.00013850124419489789
0.00022262294374098424   -3.859762621626073e-05   0.00013850124419489789
0.00022262294374098424   -3.859762621626073e-05   0.00013850124419489789
0.00010861470882974136   -2.915041059539311e-05   -4.584415128465469e-05
0.00010861470882974136   -2.915041059539311e-05   -4.584415128465469e-05
0.00010861470882974136   -2.915041059539311e-05   -4.584415128465469e-05
0.00010861470882974136   -2.915041059539311e-05   -4.584415128465469e-05
0.00010371866515114652   -3.8390344929254555e-05   0.00012102131413305704
0.00010371866515114652   -3.8390344929254555e-05   0.00012102131413305704
0.00010371866515114652   -3.8390344929254555e-05   0.00012102131413305704
0.00010371866515114652   -3.8390344929254555e-05   0.00012102131413305704
0.0002139798083042078   -2.950193276335389e-05   -6.808030508825133e-05
0.0002139798083042078   -2.950193276335389e-05   -6.808030508825133e-05
0.0002139798083042078   -2.950193276335389e-05   -6.808030508825133e-05
0.0002139798083042078   -2.950193276335389e-05   -6.808030508825133e-05
0.00015548287984657117   -3.170524784791226e-05   3.073656472521403e-05
0.00015548287984657117   -3.170524784791226e-05   3.073656472521403e-05
0.00015548287984657117   -3.170524784791226e-05   3.073656472521403e-05
0.00015548287984657117   -3.170524784791226e-05   3.073656472521403e-05
0.0001182956432736418   -1.1839603341135332e-05   0.00019453354035471864
0.0001182956432736418   -1.1839603341135332e-05   0.00019453354035471864
0.0001182956432736418   -1.1839603341135332e-05   0.00019453354035471864
0.0001182956432736418   -1.1839603341135332e-05   0.00019453354035471864
5.281849005436259e-06   -4.657292459544354e-06   1.0486603103331688e-05
5.281849005436259e-06   -4.657292459544354e-06   1.0486603103331688e-05
5.281849005436259e-06   -4.657292459544354e-06   1.0486603103331688e-05
5.281849005436259e-06   -4.657292459544354e-06   1.0486603103331688e-05
8.819124811019563e-07   -1.4262090202733432e-05   0.00019660001228114735
8.819124811019563e-07   -1.4262090202733432e-05   0.00019660001228114735
8.819124811019563e-07   -1.4262090202733432e-05   0.00019660001228114735
8.819124811019563e-07   -1.4262090202733432e-05   0.00019660001228114735
0.00011370850344432444   -7.4606633141526685e-06   4.474837875962485e-06
0.00011370850344432444   -7.4606633141526685e-06   4.474837875962485e-06
0.00011370850344432444   -7.4606633141526685e-06   4.474837875962485e-06
0.00011370850344432444   -7.4606633141526685e-06   4.474837875962485e-06
5.882147581981169e-05   -9.197392228911527e-06   9.699525459900453e-05
5.882147581981169e-05   -9.197392228911527e-06   9.699525459900453e-05
5.882147581981169e-05   -9.197392228911527e-06   9.699525459900453e-05
5.882147581981169e-05   -9.197392228911527e-06   9.699525459900453e-05
0.00011370850344432439   -1.4262090202735167e-05   0.00019251915614799855
0.00011370850344432439   -1.4262090202735167e-05   0.00019251915614799855
0.00011370850344432439   -1.4262090202735167e-05   0.00019251915614799855
0.00011370850344432439   -1.4262090202735167e-05   0.00019251915614799855
8.819124811020648e-07   -7.4606633141526685e-06   8.555694009110965e-06
8.819124811020648e-07   -7.4606633141526685e-06   8.555694009110965e-06
8.819124811020648e-07   -7.4606633141526685e-06   8.555694009110965e-06
8.819124811020648e-07   -7.4606633141526685e-06   8.555694009110965e-06
-3.6912759267914005e-06   -1.5861638283348745e-05   0.00019368976002336058
-3.6912759267914005e-06   -1.5861638283348745e-05   0.00019368976002336058
-3.6912759267914005e-06   -1.5861638283348745e-05   0.00019368976002336058
-3.6912759267914005e-06   -1.5861638283348745e-05   0.00019368976002336058
0.00010861470882974136   -9.55232234859868e-06   2.7275292016224134e-06
0.00010861470882974136   -9.55232234859868e-06   2.7275292016224134e-06
0.00010861470882974136   -9.55232234859868e-06   2.7275292016224134e-06
0.00010861470882974136   -9.55232234859868e-06   2.7275292016224134e-06
5.377885120933724e-05   -1.0670353931825638e-05   9.479144418556842e-05
5.377885120933724e-05   -1.0670353931825638e-05   9.479144418556842e-05
5.377885120933724e-05   -1.0670353931825638e-05   9.479144418556842e-05
5.377885120933724e-05   -1.0670353931825638e-05   9.479144418556842e-05
0.0001086147088297412   -1.5861638283348745e-05   0.00018990417046251071
0.0001086147088297412   -1.5861638283348745e-05   0.00018990417046251071
0.0001086147088297412   -1.5861638283348745e-05   0.00018990417046251071
0.0001086147088297412   -1.5861638283348745e-05   0.00018990417046251071
-3.6912759267914005e-06   -9.552322348596945e-06   6.5131187624734715e-06
-3.6912759267914005e-06   -9.552322348596945e-06   6.5131187624734715e-06
-3.6912759267914005e-06   -9.552322348596945e-06   6.5131187624734715e-06
-3.6912759267914005e-06   -9.552322348596945e-06   6.5131187624734715e-06
-8.45218431992016e-06   -1.656296124897226e-05   0.00019523122252989352
-8.45218431992016e-06   -1.656296124897226e-05   0.00019523122252989352
-8.45218431992016e-06   -1.656296124897226e-05   0.00019523122252989352
-8.45218431992016e-06   -1.656296124897226e-05   0.00019523122252989352
0.00010371866515114677   -1.1213372633217186e-05   5.070053575329154e-06
0.00010371866515114677   -1.1213372633217186e-05   5.070053575329154e-06
0.00010371866515114677   -1.1213372633217186e-05   5.070053575329154e-06
0.00010371866515114677   -1.1213372633217186e-05   5.070053575329154e-06
4.99730051551034e-05   -1.1472375543870525e-05   9.480155531513094e-05
4.99730051551034e-05   -1.1472375543870525e-05   9.480155531513094e-05
4.99730051551034e-05   -1.1472375543870525e-05   9.480155531513094e-05
4.99730051551034e-05   -1.1472375543870525e-05   9.480155531513094e-05
5.281849005436259e-06   1.0425773896545476e-05   0.00020093023306760188
5.281849005436259e-06   1.0425773896545476e-05   0.00020093023306760188
5.281849005436259e-06   1.0425773896545476e-05   0.00020093023306760188
5.281849005436259e-06   1.0425773896545476e-05   0.00020093023306760188
-0.00010440617228163593   1.5207150736934807e-05   2.0985690360048916e-05
-0.00010440617228163593   1.5207150736934807e-05   2.0985690360048916e-05
-0.00010440617228163593   1.5207150736934807e-05   2.0985690360048916e-05
-0.00010440617228163593   1.5207150736934807e-05   2.0985690360048916e-05
-0.00010900132384478059   8.557368872359056e-06   0.00020372135629752666
-0.00010900132384478059   8.557368872359056e-06   0.00020372135629752666
-0.00010900132384478059   8.557368872359056e-06   0.00020372135629752666
-0.00010900132384478059   8.557368872359056e-06   0.00020372135629752666
8.819124811020648e-07   1.2863812118601645e-05   1.79987631399774e-05
8.819124811020648e-07   1.2863812118601645e-05   1.79987631399774e-05
8.819124811020648e-07   1.2863812118601645e-05   1.79987631399774e-05
8.819124811020648e-07   1.2863812118601645e-05   1.79987631399774e-05
-5.189198791182058e-05   1.1907092109800926e-05   0.00010652929580012849
-5.189198791182058e-05   1.1907092109800926e-05   0.00010652929580012849
-5.189198791182058e-05   1.1907092109800926e-05   0.00010652929580012849
-5.189198791182058e-05   1.1907092109800926e-05   0.00010652929580012849
8.819124811019563e-07   8.557368872359056e-06   0.00020113749034978215
8.819124811019563e-07   8.557368872359056e-06   0.00020113749034978215
8.819124811019563e-07   8.557368872359056e-06   0.00020113749034978215
8.819124811019563e-07   8.557368872359056e-06   0.00020113749034978215
-0.00010900132384478059   1.2863812118601645e-05   2.058262908772278e-05
-0.00010900132384478059   1.2863812118601645e-05   2.058262908772278e-05
-0.00010900132384478059   1.2863812118601645e-05   2.058262908772278e-05
-0.00010900132384478059   1.2863812118601645e-05   2.058262908772278e-05
-0.00011385647877967787   6.817981345236951e-06   0.00020567104285873234
-0.00011385647877967787   6.817981345236951e-06   0.00020567104285873234
-0.00011385647877967787   6.817981345236951e-06   0.00020567104285873234
-0.00011385647877967787   6.817981345236951e-06   0.00020567104285873234
-3.691275926791509e-06   1.058795350790051e-05   1.9800388139657398e-05
-3.691275926791509e-06   1.058795350790051e-05   1.9800388139657398e-05
-3.691275926791509e-06   1.058795350790051e-05   1.9800388139657398e-05
-3.691275926791509e-06   1.058795350790051e-05   1.9800388139657398e-05
-5.616249925797552e-05   1.0563458057055719e-05   0.00010726712429547048
-5.616249925797552e-05   1.0563458057055719e-05   0.00010726712429547048
-5.616249925797552e-05   1.0563458057055719e-05   0.00010726712429547048
-5.616249925797552e-05   1.0563458057055719e-05   0.00010726712429547048
-3.6912759267914005e-06   6.817981345235216e-06   0.00020340905956113542
-3.6912759267914005e-06   6.817981345235216e-06   0.00020340905956113542
-3.6912759267914005e-06   6.817981345235216e-06   0.00020340905956113542
-3.6912759267914005e-06   6.817981345235216e-06   0.00020340905956113542
-0.00011385647877967808   1.058795350790051e-05   2.206237143725486e-05
-0.00011385647877967808   1.058795350790051e-05   2.206237143725486e-05
-0.00011385647877967808   1.058795350790051e-05   2.206237143725486e-05
-0.00011385647877967808   1.058795350790051e-05   2.206237143725486e-05
-0.00011886818382669275   5.561566603981896e-06   0.00020876499457653849
-0.00011886818382669275   5.561566603981896e-06   0.00020876499457653849
-0.00011886818382669275   5.561566603981896e-06   0.00020876499457653849
-0.00011886818382669275   5.561566603981896e-06   0.00020876499457653849
-8.45218431992016e-06   8.561502250448508e-06   2.293836734403704e-05
-8.45218431992016e-06   8.561502250448508e-06   2.293836734403704e-05
-8.45218431992016e-06   8.561502250448508e-06   2.293836734403704e-05
-8.45218431992016e-06   8.561502250448508e-06   2.293836734403704e-05
-6.07836336402521e-05   9.275008052757674e-06   0.00010972934606321002
-6.07836336402521e-05   9.275008052757674e-06   0.00010972934606321002
-6.07836336402521e-05   9.275008052757674e-06   0.00010972934606321002
-6.07836336402521e-05   9.275008052757674e-06   0.00010972934606321002
-0.00010440617228163625   3.4089768629683506e-05   0.00017511871109652903
-0.00010440617228163625   3.4089768629683506e-05   0.00017511871109652903
-0.00010440617228163625   3.4089768629683506e-05   0.00017511871109652903
-0.00010440617228163625   3.4089768629683506e-05   0.00017511871109652903
-0.00021053137161254414   3.4518703704293496e-05   -1.4992600768856668e-06
-0.00021053137161254414   3.4518703704293496e-05   -1.4992600768856668e-06
-0.00021053137161254414   3.4518703704293496e-05   -1.4992600768856668e-06
-0.00021053137161254414   3.4518703704293496e-05   -1.4992600768856668e-06
-0.0002158674135108818   3.220872584518662e-05   0.0001781878910721733
-0.0002158674135108818   3.220872584518662e-05   0.0001781878910721733
-0.0002158674135108818   3.220872584518662e-05   0.0001781878910721733
-0.0002158674135108818   3.220872584518662e-05   0.0001781878910721733
-0.00010900132384478081   3.2271523095071114e-05   4.0063278741167205e-08
-0.00010900132384478081   3.2271523095071114e-05   4.0063278741167205e-08
-0.00010900132384478081   3.2271523095071114e-05   4.0063278741167205e-08
-0.00010900132384478081   3.2271523095071114e-05   4.0063278741167205e-08
-0.0001592362820384001   3.320547816753304e-05   8.32046205579643e-05
-0.0001592362820384001   3.320547816753304e-05   8.32046205579643e-05
-0.0001592362820384001   3.320547816753304e-05   8.32046205579643e-05
-0.0001592362820384001   3.320547816753304e-05   8.32046205579643e-05
-0.00010900132384478081   3.220872584518662e-05   0.00017815021272224278
-0.00010900132384478081   3.220872584518662e-05   0.00017815021272224278
-0.00010900132384478081   3.220872584518662e-05   0.00017815021272224278
-0.00010900132384478081   3.220872584518662e-05   0.00017815021272224278
-0.00021586741351088136   3.2271523095071114e-05   7.774162867190543e-08
-0.00021586741351088136   3.2271523095071114e-05   7.774162867190543e-08
-0.00021586741351088136   3.2271523095071114e-05   7.774162867190543e-08
-0.00021586741351088136   3.2271523095071114e-05   7.774162867190543e-08
-0.00022178665066836822   3.0476344067746283e-05   0.0001864667261472679
-0.00022178665066836822   3.0476344067746283e-05   0.0001864667261472679
-0.00022178665066836822   3.0476344067746283e-05   0.0001864667261472679
-0.00022178665066836822   3.0476344067746283e-05   0.0001864667261472679
-0.00011385647877967808   3.02080212737834e-05   6.744100009160609e-06
-0.00011385647877967808   3.02080212737834e-05   6.744100009160609e-06
-0.00011385647877967808   3.02080212737834e-05   6.744100009160609e-06
-0.00011385647877967808   3.02080212737834e-05   6.744100009160609e-06
-0.00016311085720320328   3.19309348846223e-05   8.780098254853371e-05
-0.00016311085720320328   3.19309348846223e-05   8.780098254853371e-05
-0.00016311085720320328   3.19309348846223e-05   8.780098254853371e-05
-0.00016311085720320328   3.19309348846223e-05   8.780098254853371e-05
-0.00011385647877967797   3.0476344067746283e-05   0.00018662771982364424
-0.00011385647877967797   3.0476344067746283e-05   0.00018662771982364424
-0.00011385647877967797   3.0476344067746283e-05   0.00018662771982364424
-0.00011385647877967797   3.0476344067746283e-05   0.00018662771982364424
-0.00022178665066836778   3.0208021273785135e-05   6.5831063327838335e-06
-0.00022178665066836778   3.0208021273785135e-05   6.5831063327838335e-06
-0.00022178665066836778   3.0208021273785135e-05   6.5831063327838335e-06
-0.00022178665066836778   3.0208021273785135e-05   6.5831063327838335e-06
-0.00022743105792227445   2.8155816092756067e-05   0.00019247963903441367
-0.00022743105792227445   2.8155816092756067e-05   0.00019247963903441367
-0.00022743105792227445   2.8155816092756067e-05   0.00019247963903441367
-0.00022743105792227445   2.8155816092756067e-05   0.00019247963903441367
-0.00011886818382669307   2.7695398108552524e-05   1.1817766332301556e-05
-0.00011886818382669307   2.7695398108552524e-05   1.1817766332301556e-05
-0.00011886818382669307   2.7695398108552524e-05   1.1817766332301556e-05
-0.00011886818382669307   2.7695398108552524e-05   1.1817766332301556e-05
-0.00016923740662943995   3.0286119084965007e-05   9.421203841770585e-05
-0.00016923740662943995   3.0286119084965007e-05   9.421203841770585e-05
-0.00016923740662943995   3.0286119084965007e-05   9.421203841770585e-05
-0.00016923740662943995   3.0286119084965007e-05   9.421203841770585e-05
-0.0002105313716125437   5.54406736503147e-05   8.404297153311556e-05
-0.0002105313716125437   5.54406736503147e-05   8.404297153311556e-05
-0.0002105313716125437   5.54406736503147e-05   8.404297153311556e-05
-0.0002105313716125437   5.54406736503147e-05   8.404297153311556e-05
-0.0003111802420651174   4.960517294157196e-05   -8.720644631308484e-05
-0.0003111802420651174   4.960517294157196e-05   -8.720644631308484e-05
-0.0003111802420651174   4.960517294157196e-05   -8.720644631308484e-05
-0.0003111802420651174   4.960517294157196e-05   -8.720644631308484e-05
-0.0003195810347486727   5.6467324717937584e-05   0.000116303873089375
-0.0003195810347486727   5.6467324717937584e-05   0.000116303873089375
-0.0003195810347486727   5.6467324717937584e-05   0.000116303873089375
-0.0003195810347486727   5.6467324717937584e-05   0.000116303873089375
-0.0002158674135108818   5.0101129559523144e-05   -5.2732445211897726e-05
-0.0002158674135108818   5.0101129559523144e-05   -5.2732445211897726e-05
-0.0002158674135108818   5.0101129559523144e-05   -5.2732445211897726e-05
-0.0002158674135108818   5.0101129559523144e-05   -5.2732445211897726e-05
-0.0002541750524066214   5.26126649977119e-05   9.606698351423242e-06
-0.0002541750524066214   5.26126649977119e-05   9.606698351423242e-06
-0.0002541750524066214   5.26126649977119e-05   9.606698351423242e-06
-0.0002541750524066214   5.26126649977119e-05   9.606698351423242e-06
-0.00021586741351088104   5.646732471793932e-05   0.00012012359018442279
-0.00021586741351088104   5.646732471793932e-05   0.00012012359018442279
-0.00021586741351088104   5.646732471793932e-05   0.00012012359018442279
-0.00021586741351088104   5.646732471793932e-05   0.00012012359018442279
-0.00031958103474867376   5.0101129559523144e-05   -5.655216230694617e-05
-0.00031958103474867376   5.0101129559523144e-05   -5.655216230694617e-05
-0.00031958103474867376   5.0101129559523144e-05   -5.655216230694617e-05
-0.00031958103474867376   5.0101129559523144e-05   -5.655216230694617e-05
-0.00032779173777692703   5.604841461563821e-05   0.00014151202067780137
-0.00032779173777692703   5.604841461563821e-05   0.00014151202067780137
-0.00032779173777692703   5.604841461563821e-05   0.00014151202067780137
-0.00032779173777692703   5.604841461563821e-05   0.00014151202067780137
-0.00022178665066836822   4.954124354939089e-05   -3.1258821863383275e-05
-0.00022178665066836822   4.954124354939089e-05   -3.1258821863383275e-05
-0.00022178665066836822   4.954124354939089e-05   -3.1258821863383275e-05
-0.00022178665066836822   4.954124354939089e-05   -3.1258821863383275e-05
-0.0002644422761731228   5.356128543687784e-05   3.74218621787192e-05
-0.0002644422761731228   5.356128543687784e-05   3.74218621787192e-05
-0.0002644422761731228   5.356128543687784e-05   3.74218621787192e-05
-0.0002644422761731228   5.356128543687784e-05   3.74218621787192e-05
-0.00022178665066836822   5.604841461563648e-05   0.00014541632331755133
-0.00022178665066836822   5.604841461563648e-05   0.00014541632331755133
-0.00022178665066836822   5.604841461563648e-05   0.00014541632331755133
-0.00022178665066836822   5.604841461563648e-05   0.00014541632331755133
-0.0003277917377769281   4.954124354939089e-05   -3.516312450313041e-05
-0.0003277917377769281   4.954124354939089e-05   -3.516312450313041e-05
-0.0003277917377769281   4.954124354939089e-05   -3.516312450313041e-05
-0.0003277917377769281   4.954124354939089e-05   -3.516312450313041e-05
-0.0003373886609812967   5.1559538950699674e-05   0.00018474714196188742
-0.0003373886609812967   5.1559538950699674e-05   0.00018474714196188742
-0.0003373886609812967   5.1559538950699674e-05   0.00018474714196188742
-0.0003373886609812967   5.1559538950699674e-05   0.00018474714196188742
-0.00022743105792227445   4.569971233379412e-05   5.0003661669910555e-06
-0.00022743105792227445   4.569971233379412e-05   5.0003661669910555e-06
-0.00022743105792227445   4.569971233379412e-05   5.0003661669910555e-06
-0.00022743105792227445   4.569971233379412e-05   5.0003661669910555e-06
-0.00026713115358509596   5.1978263876409705e-05   6.740006134613131e-05
-0.00026713115358509596   5.1978263876409705e-05   6.740006134613131e-05
-0.00026713115358509596   5.1978263876409705e-05   6.740006134613131e-05
-0.00026713115358509596   5.1978263876409705e-05   6.740006134613131e-05
0.00018048414568666923   -2.4409325480312383e-05   0.0001537819385124834
0.00018048414568666923   -2.4409325480312383e-05   0.0001537819385124834
0.00018048414568666923   -2.4409325480312383e-05   0.0001537819385124834
0.00018048414568666923   -2.4409325480312383e-05   0.0001537819385124834
8.503254280020528e-05   -1.6042114135738153e-05   -2.8373949154635036e-07
8.503254280020528e-05   -1.6042114135738153e-05   -2.8373949154635036e-07
8.503254280020528e-05   -1.6042114135738153e-05   -2.8373949154635036e-07
8.503254280020528e-05   -1.6042114135738153e-05   -2.8373949154635036e-07
8.094178479782808e-05   -2.835254251200639e-05   0.0001351994359666429
8.094178479782808e-05   -2.835254251200639e-05   0.0001351994359666429
8.094178479782808e-05   -2.835254251200639e-05   0.0001351994359666429
8.094178479782808e-05   -2.835254251200639e-05   0.0001351994359666429
0.00017257448585878592   -1.9503700424401346e-05   -2.2831037720849677e-05
0.00017257448585878592   -1.9503700424401346e-05   -2.2831037720849677e-05
0.00017257448585878592   -1.9503700424401346e-05   -2.2831037720849677e-05
0.00017257448585878592   -1.9503700424401346e-05   -2.2831037720849677e-05
0.00012365160661226472   -2.225146770107149e-05   6.0355754722687775e-05
0.00012365160661226472   -2.225146770107149e-05   6.0355754722687775e-05
0.00012365160661226472   -2.225146770107149e-05   6.0355754722687775e-05
0.00012365160661226472   -2.225146770107149e-05   6.0355754722687775e-05
0.00017257448585878592   -2.835254251200639e-05   0.00012989013071407988
0.00017257448585878592   -2.835254251200639e-05   0.00012989013071407988
0.00017257448585878592   -2.835254251200639e-05   0.00012989013071407988
0.00017257448585878592   -2.835254251200639e-05   0.00012989013071407988
8.094178479782821e-05   -1.9503700424401346e-05   -1.7521732468286054e-05
8.094178479782821e-05   -1.9503700424401346e-05   -1.7521732468286054e-05
8.094178479782821e-05   -1.9503700424401346e-05   -1.7521732468286054e-05
8.094178479782821e-05   -1.9503700424401346e-05   -1.7521732468286054e-05
7.643159965198496e-05   -2.915041059539311e-05   0.00012212933052110648
7.643159965198496e-05   -2.915041059539311e-05   0.00012212933052110648
7.643159965198496e-05   -2.915041059539311e-05   0.00012212933052110648
7.643159965198496e-05   -2.915041059539311e-05   0.00012212933052110648
0.00016564887135370082   -2.0433376279041168e-05   -3.179634290489806e-05
0.00016564887135370082   -2.0433376279041168e-05   -3.179634290489806e-05
0.00016564887135370082   -2.0433376279041168e-05   -3.179634290489806e-05
0.00016564887135370082   -2.0433376279041168e-05   -3.179634290489806e-05
0.00012033941214737772   -2.3653169470040647e-05   4.565129835357607e-05
0.00012033941214737772   -2.3653169470040647e-05   4.565129835357607e-05
0.00012033941214737772   -2.3653169470040647e-05   4.565129835357607e-05
0.00012033941214737772   -2.3653169470040647e-05   4.565129835357607e-05
0.00016564887135370055   -2.915041059539311e-05   0.000116899109931296
0.00016564887135370055   -2.915041059539311e-05   0.000116899109931296
0.00016564887135370055   -2.915041059539311e-05   0.000116899109931296
0.00016564887135370055   -2.915041059539311e-05   0.000116899109931296
7.643159965198512e-05   -2.0433376279041168e-05   -2.6566122315086448e-05
7.643159965198512e-05   -2.0433376279041168e-05   -2.6566122315086448e-05
7.643159965198512e-05   -2.0433376279041168e-05   -2.6566122315086448e-05
7.643159965198512e-05   -2.0433376279041168e-05   -2.6566122315086448e-05
7.226987874651308e-05   -2.950193276335389e-05   0.00010447393626713316
7.226987874651308e-05   -2.950193276335389e-05   0.00010447393626713316
7.226987874651308e-05   -2.950193276335389e-05   0.00010447393626713316
7.226987874651308e-05   -2.950193276335389e-05   0.00010447393626713316
0.0001579202190610051   -2.1325021526344065e-05   -4.318277766589073e-05
0.0001579202190610051   -2.1325021526344065e-05   -4.318277766589073e-05
0.0001579202190610051   -2.1325021526344065e-05   -4.318277766589073e-05
0.0001579202190610051   -2.1325021526344065e-05   -4.318277766589073e-05
0.00011314499632970369   -2.3529431065051273e-05   3.276523927616933e-05
0.00011314499632970369   -2.3529431065051273e-05   3.276523927616933e-05
0.00011314499632970369   -2.3529431065051273e-05   3.276523927616933e-05
0.00011314499632970369   -2.3529431065051273e-05   3.276523927616933e-05
8.503254280020498e-05   -4.657292459544354e-06   0.0001754345145160421
8.503254280020498e-05   -4.657292459544354e-06   0.0001754345145160421
8.503254280020498e-05   -4.657292459544354e-06   0.0001754345145160421
8.503254280020498e-05   -4.657292459544354e-06   0.0001754345145160421
-5.3511481819164e-06   -3.5048481549296295e-08   2.75683759326361e-05
-5.3511481819164e-06   -3.5048481549296295e-08   2.75683759326361e-05
-5.3511481819164e-06   -3.5048481549296295e-08   2.75683759326361e-05
-5.3511481819164e-06   -3.5048481549296295e-08   2.75683759326361e-05
-9.194226368743758e-06   -7.4606633141526685e-06   0.0001757674724471173
-9.194226368743758e-06   -7.4606633141526685e-06   0.0001757674724471173
-9.194226368743758e-06   -7.4606633141526685e-06   0.0001757674724471173
-9.194226368743758e-06   -7.4606633141526685e-06   0.0001757674724471173
8.094178479782821e-05   -3.0546746464747004e-06   2.289719396888953e-05
8.094178479782821e-05   -3.0546746464747004e-06   2.289719396888953e-05
8.094178479782821e-05   -3.0546746464747004e-06   2.289719396888953e-05
8.094178479782821e-05   -3.0546746464747004e-06   2.289719396888953e-05
3.72454578106621e-05   -3.910122930208745e-06   9.623767458440558e-05
3.72454578106621e-05   -3.910122930208745e-06   9.623767458440558e-05
3.72454578106621e-05   -3.910122930208745e-06   9.623767458440558e-05
3.72454578106621e-05   -3.910122930208745e-06   9.623767458440558e-05
8.0941784797828e-05   -7.4606633141526685e-06   0.00017312387924650965
8.0941784797828e-05   -7.4606633141526685e-06   0.00017312387924650965
8.0941784797828e-05   -7.4606633141526685e-06   0.00017312387924650965
8.0941784797828e-05   -7.4606633141526685e-06   0.00017312387924650965
-9.194226368743758e-06   -3.0546746464747004e-06   2.554078716949723e-05
-9.194226368743758e-06   -3.0546746464747004e-06   2.554078716949723e-05
-9.194226368743758e-06   -3.0546746464747004e-06   2.554078716949723e-05
-9.194226368743758e-06   -3.0546746464747004e-06   2.554078716949723e-05
-1.3117923098524909e-05   -9.552322348596945e-06   0.000173166465381425
-1.3117923098524909e-05   -9.552322348596945e-06   0.000173166465381425
-1.3117923098524909e-05   -9.552322348596945e-06   0.000173166465381425
-1.3117923098524909e-05   -9.552322348596945e-06   0.000173166465381425
7.643159965198512e-05   -5.443231725193662e-06   2.1451806423200374e-05
7.643159965198512e-05   -5.443231725193662e-06   2.1451806423200374e-05
7.643159965198512e-05   -5.443231725193662e-06   2.1451806423200374e-05
7.643159965198512e-05   -5.443231725193662e-06   2.1451806423200374e-05
3.294247140356725e-05   -5.778061479815716e-06   9.413458469000957e-05
3.294247140356725e-05   -5.778061479815716e-06   9.413458469000957e-05
3.294247140356725e-05   -5.778061479815716e-06   9.413458469000957e-05
3.294247140356725e-05   -5.778061479815716e-06   9.413458469000957e-05
7.643159965198496e-05   -9.552322348596945e-06   0.00017070101100738304
7.643159965198496e-05   -9.552322348596945e-06   0.00017070101100738304
7.643159965198496e-05   -9.552322348596945e-06   0.00017070101100738304
7.643159965198496e-05   -9.552322348596945e-06   0.00017070101100738304
-1.3117923098524909e-05   -5.4432317251953966e-06   2.3917260797242344e-05
-1.3117923098524909e-05   -5.4432317251953966e-06   2.3917260797242344e-05
-1.3117923098524909e-05   -5.4432317251953966e-06   2.3917260797242344e-05
-1.3117923098524909e-05   -5.4432317251953966e-06   2.3917260797242344e-05
-1.7062203971922015e-05   -1.1213372633217186e-05   0.0001744198455323892
-1.7062203971922015e-05   -1.1213372633217186e-05   0.0001744198455323892
-1.7062203971922015e-05   -1.1213372633217186e-05   0.0001744198455323892
-1.7062203971922015e-05   -1.1213372633217186e-05   0.0001744198455323892
7.226987874651313e-05   -7.665709464525772e-06   2.3404443100448024e-05
7.226987874651313e-05   -7.665709464525772e-06   2.3404443100448024e-05
7.226987874651313e-05   -7.665709464525772e-06   2.3404443100448024e-05
7.226987874651313e-05   -7.665709464525772e-06   2.3404443100448024e-05
2.9644008382957363e-05   -7.170792450415103e-06   9.415061016457803e-05
2.9644008382957363e-05   -7.170792450415103e-06   9.415061016457803e-05
2.9644008382957363e-05   -7.170792450415103e-06   9.415061016457803e-05
2.9644008382957363e-05   -7.170792450415103e-06   9.415061016457803e-05
-5.351148181916509e-06   1.5207150736934807e-05   0.00018583812205532225
-5.351148181916509e-06   1.5207150736934807e-05   0.00018583812205532225
-5.351148181916509e-06   1.5207150736934807e-05   0.00018583812205532225
-5.351148181916509e-06   1.5207150736934807e-05   0.00018583812205532225
-9.38396914387683e-05   1.563402883610586e-05   3.8613343486738894e-05
-9.38396914387683e-05   1.563402883610586e-05   3.8613343486738894e-05
-9.38396914387683e-05   1.563402883610586e-05   3.8613343486738894e-05
-9.38396914387683e-05   1.563402883610586e-05   3.8613343486738894e-05
-9.770063855111936e-05   1.2863812118601645e-05   0.00018527508540185002
-9.770063855111936e-05   1.2863812118601645e-05   0.00018527508540185002
-9.770063855111936e-05   1.2863812118601645e-05   0.00018527508540185002
-9.770063855111936e-05   1.2863812118601645e-05   0.00018527508540185002
-9.194226368743866e-06   1.2971385158377924e-05   3.769985460735871e-05
-9.194226368743866e-06   1.2971385158377924e-05   3.769985460735871e-05
-9.194226368743866e-06   1.2971385158377924e-05   3.769985460735871e-05
-9.194226368743866e-06   1.2971385158377924e-05   3.769985460735871e-05
-5.165575137807142e-05   1.3927000915301205e-05   0.00010789569350208453
-5.165575137807142e-05   1.3927000915301205e-05   0.00010789569350208453
-5.165575137807142e-05   1.3927000915301205e-05   0.00010789569350208453
-5.165575137807142e-05   1.3927000915301205e-05   0.00010789569350208453
-9.194226368743866e-06   1.2863812118601645e-05   0.00018521054157798547
-9.194226368743866e-06   1.2863812118601645e-05   0.00018521054157798547
-9.194226368743866e-06   1.2863812118601645e-05   0.00018521054157798547
-9.194226368743866e-06   1.2863812118601645e-05   0.00018521054157798547
-9.770063855111936e-05   1.2971385158377924e-05   3.776439843122467e-05
-9.770063855111936e-05   1.2971385158377924e-05   3.776439843122467e-05
-9.770063855111936e-05   1.2971385158377924e-05   3.776439843122467e-05
-9.770063855111936e-05   1.2971385158377924e-05   3.776439843122467e-05
-0.00010165953400435748   1.0587953507898776e-05   0.00018631130117724437
-0.00010165953400435748   1.0587953507898776e-05   0.00018631130117724437
-0.00010165953400435748   1.0587953507898776e-05   0.00018631130117724437
-0.00010165953400435748   1.0587953507898776e-05   0.00018631130117724437
-1.3117923098524909e-05   1.0350564205624177e-05   3.8884383248888234e-05
-1.3117923098524909e-05   1.0350564205624177e-05   3.8884383248888234e-05
-1.3117923098524909e-05   1.0350564205624177e-05   3.8884383248888234e-05
-1.3117923098524909e-05   1.0350564205624177e-05   3.8884383248888234e-05
-5.524307955874014e-05   1.2132625179831283e-05   0.00010802374076472653
-5.524307955874014e-05   1.2132625179831283e-05   0.00010802374076472653
-5.524307955874014e-05   1.2132625179831283e-05   0.00010802374076472653
-5.524307955874014e-05   1.2132625179831283e-05   0.00010802374076472653
-1.3117923098524909e-05   1.058795350790051e-05   0.00018645373475860948
-1.3117923098524909e-05   1.058795350790051e-05   0.00018645373475860948
-1.3117923098524909e-05   1.058795350790051e-05   0.00018645373475860948
-1.3117923098524909e-05   1.058795350790051e-05   0.00018645373475860948
-0.00010165953400435748   1.0350564205625912e-05   3.874194966752356e-05
-0.00010165953400435748   1.0350564205625912e-05   3.874194966752356e-05
-0.00010165953400435748   1.0350564205625912e-05   3.874194966752356e-05
-0.00010165953400435748   1.0350564205625912e-05   3.874194966752356e-05
-0.00010561825555045041   8.561502250450242e-06   0.00018865924585161932
-0.00010561825555045041   8.561502250450242e-06   0.00018865924585161932
-0.00010561825555045041   8.561502250450242e-06   0.00018865924585161932
-0.00010561825555045041   8.561502250450242e-06   0.00018865924585161932
-1.7062203971922015e-05   7.862901783742271e-06   4.148498683409594e-05
-1.7062203971922015e-05   7.862901783742271e-06   4.148498683409594e-05
-1.7062203971922015e-05   7.862901783742271e-06   4.148498683409594e-05
-1.7062203971922015e-05   7.862901783742271e-06   4.148498683409594e-05
-5.899739141494091e-05   1.0382937374611712e-05   0.00010986494455127518
-5.899739141494091e-05   1.0382937374611712e-05   0.00010986494455127518
-5.899739141494091e-05   1.0382937374611712e-05   0.00010986494455127518
-5.899739141494091e-05   1.0382937374611712e-05   0.00010986494455127518
-9.383969143876808e-05   3.4518703704293496e-05   0.000163351937433125
-9.383969143876808e-05   3.4518703704293496e-05   0.000163351937433125
-9.383969143876808e-05   3.4518703704293496e-05   0.000163351937433125
-9.383969143876808e-05   3.4518703704293496e-05   0.000163351937433125
-0.00018029387516197283   3.06995525531685e-05   1.697014053710956e-05
-0.00018029387516197283   3.06995525531685e-05   1.697014053710956e-05
-0.00018029387516197283   3.06995525531685e-05   1.697014053710956e-05
-0.00018029387516197283   3.06995525531685e-05   1.697014053710956e-05
-0.0001844459448273779   3.2271523095071114e-05   0.00016225445316415694
-0.0001844459448273779   3.2271523095071114e-05   0.00016225445316415694
-0.0001844459448273779   3.2271523095071114e-05   0.00016225445316415694
-0.0001844459448273779   3.2271523095071114e-05   0.00016225445316415694
-9.770063855111947e-05   2.814141238055047e-05   2.0157009132438543e-05
-9.770063855111947e-05   2.814141238055047e-05   2.0157009132438543e-05
-9.770063855111947e-05   2.814141238055047e-05   2.0157009132438543e-05
-9.770063855111947e-05   2.814141238055047e-05   2.0157009132438543e-05
-0.00013861275244281084   3.100813848036857e-05   8.662382995869994e-05
-0.00013861275244281084   3.100813848036857e-05   8.662382995869994e-05
-0.00013861275244281084   3.100813848036857e-05   8.662382995869994e-05
-0.00013861275244281084   3.100813848036857e-05   8.662382995869994e-05
-9.770063855111936e-05   3.2271523095071114e-05   0.00016473251959287036
-9.770063855111936e-05   3.2271523095071114e-05   0.00016473251959287036
-9.770063855111936e-05   3.2271523095071114e-05   0.00016473251959287036
-9.770063855111936e-05   3.2271523095071114e-05   0.00016473251959287036
-0.0001844459448273779   2.814141238055047e-05   1.767894270372555e-05
-0.0001844459448273779   2.814141238055047e-05   1.767894270372555e-05
-0.0001844459448273779   2.814141238055047e-05   1.767894270372555e-05
-0.0001844459448273779   2.814141238055047e-05   1.767894270372555e-05
-0.00018902058950485533   3.02080212737834e-05   0.00016832750787146213
-0.00018902058950485533   3.02080212737834e-05   0.00016832750787146213
-0.00018902058950485533   3.02080212737834e-05   0.00016832750787146213
-0.00018902058950485533   3.02080212737834e-05   0.00016832750787146213
-0.0001016595340043577   2.5765484810969658e-05   2.5391270581655648e-05
-0.0001016595340043577   2.5765484810969658e-05   2.5391270581655648e-05
-0.0001016595340043577   2.5765484810969658e-05   2.5391270581655648e-05
-0.0001016595340043577   2.5765484810969658e-05   2.5391270581655648e-05
-0.00014160952508591058   2.937145979971245e-05   8.981100405766693e-05
-0.00014160952508591058   2.937145979971245e-05   8.981100405766693e-05
-0.00014160952508591058   2.937145979971245e-05   8.981100405766693e-05
-0.00014160952508591058   2.937145979971245e-05   8.981100405766693e-05
-0.00010165953400435748   3.02080212737834e-05   0.00017099302974915055
-0.00010165953400435748   3.02080212737834e-05   0.00017099302974915055
-0.00010165953400435748   3.02080212737834e-05   0.00017099302974915055
-0.00010165953400435748   3.02080212737834e-05   0.00017099302974915055
-0.00018902058950485533   2.5765484810969658e-05   2.2725748703965928e-05
-0.00018902058950485533   2.5765484810969658e-05   2.2725748703965928e-05
-0.00018902058950485533   2.5765484810969658e-05   2.2725748703965928e-05
-0.00018902058950485533   2.5765484810969658e-05   2.2725748703965928e-05
-0.00019320801953174194   2.7695398108552524e-05   0.00017292486792195184
-0.00019320801953174194   2.7695398108552524e-05   0.00017292486792195184
-0.00019320801953174194   2.7695398108552524e-05   0.00017292486792195184
-0.00019320801953174194   2.7695398108552524e-05   0.00017292486792195184
-0.00010561825555045062   2.3005705558465372e-05   2.975574348318454e-05
-0.00010561825555045062   2.3005705558465372e-05   2.975574348318454e-05
-0.00010561825555045062   2.3005705558465372e-05   2.975574348318454e-05
-0.00010561825555045062   2.3005705558465372e-05   2.975574348318454e-05
-0.0001463437661499588   2.7533767562700623e-05   9.491475727983105e-05
-0.0001463437661499588   2.7533767562700623e-05   9.491475727983105e-05
-0.0001463437661499588   2.7533767562700623e-05   9.491475727983105e-05
-0.0001463437661499588   2.7533767562700623e-05   9.491475727983105e-05
-0.00018029387516197283   4.960517294157196e-05   7.88545609314963e-05
-0.00018029387516197283   4.960517294157196e-05   7.88545609314963e-05
-0.00018029387516197283   4.960517294157196e-05   7.88545609314963e-05
-0.00018029387516197283   4.960517294157196e-05   7.88545609314963e-05
-0.00026220644479193925   4.220843682201797e-05   -6.210443012351352e-05
-0.00026220644479193925   4.220843682201797e-05   -6.210443012351352e-05
-0.00026220644479193925   4.220843682201797e-05   -6.210443012351352e-05
-0.00026220644479193925   4.220843682201797e-05   -6.210443012351352e-05
-0.0002696593200462185   5.0101129559523144e-05   0.00010456425352354734
-0.0002696593200462185   5.0101129559523144e-05   0.00010456425352354734
-0.0002696593200462185   5.0101129559523144e-05   0.00010456425352354734
-0.0002696593200462185   5.0101129559523144e-05   0.00010456425352354734
-0.0001844459448273779   4.196777489278922e-05   -3.257802570781534e-05
-0.0001844459448273779   4.196777489278922e-05   -3.257802570781534e-05
-0.0001844459448273779   4.196777489278922e-05   -3.257802570781534e-05
-0.0001844459448273779   4.196777489278922e-05   -3.257802570781534e-05
-0.000215627822222718   4.5309074573427616e-05   1.738699014270208e-05
-0.000215627822222718   4.5309074573427616e-05   1.738699014270208e-05
-0.000215627822222718   4.5309074573427616e-05   1.738699014270208e-05
-0.000215627822222718   4.5309074573427616e-05   1.738699014270208e-05
-0.0001844459448273779   5.0101129559523144e-05   0.00010944426632358839
-0.0001844459448273779   5.0101129559523144e-05   0.00010944426632358839
-0.0001844459448273779   5.0101129559523144e-05   0.00010944426632358839
-0.0001844459448273779   5.0101129559523144e-05   0.00010944426632358839
-0.00026965932004621913   4.196777489278922e-05   -3.745803850785465e-05
-0.00026965932004621913   4.196777489278922e-05   -3.745803850785465e-05
-0.00026965932004621913   4.196777489278922e-05   -3.745803850785465e-05
-0.00026965932004621913   4.196777489278922e-05   -3.745803850785465e-05
-0.0002763407848851416   4.954124354939089e-05   0.00012542245674922875
-0.0002763407848851416   4.954124354939089e-05   0.00012542245674922875
-0.0002763407848851416   4.954124354939089e-05   0.00012542245674922875
-0.0002763407848851416   4.954124354939089e-05   0.00012542245674922875
-0.00018902058950485533   4.110270533928123e-05   -1.5048079291851441e-05
-0.00018902058950485533   4.110270533928123e-05   -1.5048079291851441e-05
-0.00018902058950485533   4.110270533928123e-05   -1.5048079291851441e-05
-0.00018902058950485533   4.110270533928123e-05   -1.5048079291851441e-05
-0.00022415179832086202   4.579866042194944e-05   4.068636235190224e-05
-0.00022415179832086202   4.579866042194944e-05   4.068636235190224e-05
-0.00022415179832086202   4.579866042194944e-05   4.068636235190224e-05
-0.00022415179832086202   4.579866042194944e-05   4.068636235190224e-05
-0.00018902058950485533   4.954124354939263e-05   0.00013048557967529524
-0.00018902058950485533   4.954124354939263e-05   0.00013048557967529524
-0.00018902058950485533   4.954124354939263e-05   0.00013048557967529524
-0.00018902058950485533   4.954124354939263e-05   0.00013048557967529524
-0.0002763407848851418   4.1102705339282966e-05   -2.0111202217916197e-05
-0.0002763407848851418   4.1102705339282966e-05   -2.0111202217916197e-05
-0.0002763407848851418   4.1102705339282966e-05   -2.0111202217916197e-05
-0.0002763407848851418   4.1102705339282966e-05   -2.0111202217916197e-05
-0.00028402628217245396   4.569971233379412e-05   0.00016135011951496497
-0.00028402628217245396   4.569971233379412e-05   0.00016135011951496497
-0.00028402628217245396   4.569971233379412e-05   0.00016135011951496497
-0.00028402628217245396   4.569971233379412e-05   0.00016135011951496497
-0.00019320801953174194   3.7310380613461355e-05   1.5019947479311384e-05
-0.00019320801953174194   3.7310380613461355e-05   1.5019947479311384e-05
-0.00019320801953174194   3.7310380613461355e-05   1.5019947479311384e-05
-0.00019320801953174194   3.7310380613461355e-05   1.5019947479311384e-05
-0.0002260431915741502   4.422913818436479e-05   6.559397967411881e-05
-0.0002260431915741502   4.422913818436479e-05   6.559397967411881e-05
-0.0002260431915741502   4.422913818436479e-05   6.559397967411881e-05
-0.0002260431915741502   4.422913818436479e-05   6.559397967411881e-05
0.00012365872907521878   -1.6042114135738153e-05   0.00012471895727248633
0.00012365872907521878   -1.6042114135738153e-05   0.00012471895727248633
0.00012365872907521878   -1.6042114135738153e-05   0.00012471895727248633
0.00012365872907521878   -1.6042114135738153e-05   0.00012471895727248633
5.12675422725506e-05   -7.786860474713261e-06   9.020131464653608e-06
5.12675422725506e-05   -7.786860474713261e-06   9.020131464653608e-06
5.12675422725506e-05   -7.786860474713261e-06   9.020131464653608e-06
5.12675422725506e-05   -7.786860474713261e-06   9.020131464653608e-06
4.798622132709425e-05   -1.9503700424401346e-05   0.00011221342741590552
4.798622132709425e-05   -1.9503700424401346e-05   0.00011221342741590552
4.798622132709425e-05   -1.9503700424401346e-05   0.00011221342741590552
4.798622132709425e-05   -1.9503700424401346e-05   0.00011221342741590552
0.00011668546870171253   -1.0871955761866323e-05   -7.4643650059784536e-06
0.00011668546870171253   -1.0871955761866323e-05   -7.4643650059784536e-06
0.00011668546870171253   -1.0871955761866323e-05   -7.4643650059784536e-06
0.00011668546870171253   -1.0871955761866323e-05   -7.4643650059784536e-06
8.067056748392573e-05   -1.3883327390462954e-05   5.436729333415996e-05
8.067056748392573e-05   -1.3883327390462954e-05   5.436729333415996e-05
8.067056748392573e-05   -1.3883327390462954e-05   5.436729333415996e-05
8.067056748392573e-05   -1.3883327390462954e-05   5.436729333415996e-05
0.00011668546870171272   -1.9503700424401346e-05   0.00010703438061838554
0.00011668546870171272   -1.9503700424401346e-05   0.00010703438061838554
0.00011668546870171272   -1.9503700424401346e-05   0.00010703438061838554
0.00011668546870171272   -1.9503700424401346e-05   0.00010703438061838554
4.7986221327094074e-05   -1.0871955761866323e-05   -2.2853182084572876e-06
4.7986221327094074e-05   -1.0871955761866323e-05   -2.2853182084572876e-06
4.7986221327094074e-05   -1.0871955761866323e-05   -2.2853182084572876e-06
4.7986221327094074e-05   -1.0871955761866323e-05   -2.2853182084572876e-06
4.430652811239646e-05   -2.0433376279039434e-05   0.00010291586072200092
4.430652811239646e-05   -2.0433376279039434e-05   0.00010291586072200092
4.430652811239646e-05   -2.0433376279039434e-05   0.00010291586072200092
4.430652811239646e-05   -2.0433376279039434e-05   0.00010291586072200092
0.00011070525643793702   -1.1940048997302957e-05   -1.2844682856275893e-05
0.00011070525643793702   -1.1940048997302957e-05   -1.2844682856275893e-05
0.00011070525643793702   -1.1940048997302957e-05   -1.2844682856275893e-05
0.00011070525643793702   -1.1940048997302957e-05   -1.2844682856275893e-05
7.7540082478668e-05   -1.5189760686519505e-05   4.438043408937133e-05
7.7540082478668e-05   -1.5189760686519505e-05   4.438043408937133e-05
7.7540082478668e-05   -1.5189760686519505e-05   4.438043408937133e-05
7.7540082478668e-05   -1.5189760686519505e-05   4.438043408937133e-05
0.00011070525643793719   -2.0433376279039434e-05   9.781986435295886e-05
0.00011070525643793719   -2.0433376279039434e-05   9.781986435295886e-05
0.00011070525643793719   -2.0433376279039434e-05   9.781986435295886e-05
0.00011070525643793719   -2.0433376279039434e-05   9.781986435295886e-05
4.4306528112396376e-05   -1.1940048997302957e-05   -7.74868648723264e-06
4.4306528112396376e-05   -1.1940048997302957e-05   -7.74868648723264e-06
4.4306528112396376e-05   -1.1940048997302957e-05   -7.74868648723264e-06
4.4306528112396376e-05   -1.1940048997302957e-05   -7.74868648723264e-06
4.1010478434069396e-05   -2.1325021526344065e-05   9.088761095854894e-05
4.1010478434069396e-05   -2.1325021526344065e-05   9.088761095854894e-05
4.1010478434069396e-05   -2.1325021526344065e-05   9.088761095854894e-05
4.1010478434069396e-05   -2.1325021526344065e-05   9.088761095854894e-05
0.00010393238602606977   -1.3371433995942351e-05   -1.8754387546358886e-05
0.00010393238602606977   -1.3371433995942351e-05   -1.8754387546358886e-05
0.00010393238602606977   -1.3371433995942351e-05   -1.8754387546358886e-05
0.00010393238602606977   -1.3371433995942351e-05   -1.8754387546358886e-05
7.182695440921205e-05   -1.545909610139312e-05   3.600726241167291e-05
7.182695440921205e-05   -1.545909610139312e-05   3.600726241167291e-05
7.182695440921205e-05   -1.545909610139312e-05   3.600726241167291e-05
7.182695440921205e-05   -1.545909610139312e-05   3.600726241167291e-05
5.126754227255075e-05   -3.5048481549296295e-08   0.00015475087850648755
5.126754227255075e-05   -3.5048481549296295e-08   0.00015475087850648755
5.126754227255075e-05   -3.5048481549296295e-08   0.00015475087850648755
5.126754227255075e-05   -3.5048481549296295e-08   0.00015475087850648755
-1.6716451005284287e-05   4.139340983761418e-06   4.394885672261671e-05
-1.6716451005284287e-05   4.139340983761418e-06   4.394885672261671e-05
-1.6716451005284287e-05   4.139340983761418e-06   4.394885672261671e-05
-1.6716451005284287e-05   4.139340983761418e-06   4.394885672261671e-05
-1.9729033439443286e-05   -3.0546746464747004e-06   0.0001550683949829686
-1.9729033439443286e-05   -3.0546746464747004e-06   0.0001550683949829686
-1.9729033439443286e-05   -3.0546746464747004e-06   0.0001550683949829686
-1.9729033439443286e-05   -3.0546746464747004e-06   0.0001550683949829686
4.7986221327094074e-05   1.0053939033353998e-06   3.977359590885438e-05
4.7986221327094074e-05   1.0053939033353998e-06   3.977359590885438e-05
4.7986221327094074e-05   1.0053939033353998e-06   3.977359590885438e-05
4.7986221327094074e-05   1.0053939033353998e-06   3.977359590885438e-05
1.5219393919260022e-05   2.471257699865337e-07   9.48399358019227e-05
1.5219393919260022e-05   2.471257699865337e-07   9.48399358019227e-05
1.5219393919260022e-05   2.471257699865337e-07   9.48399358019227e-05
1.5219393919260022e-05   2.471257699865337e-07   9.48399358019227e-05
4.798622132709422e-05   -3.0546746464747004e-06   0.0001526323538530829
4.798622132709422e-05   -3.0546746464747004e-06   0.0001526323538530829
4.798622132709422e-05   -3.0546746464747004e-06   0.0001526323538530829
4.798622132709422e-05   -3.0546746464747004e-06   0.0001526323538530829
-1.9729033439443286e-05   1.0053939033353998e-06   4.2209637038739985e-05
-1.9729033439443286e-05   1.0053939033353998e-06   4.2209637038739985e-05
-1.9729033439443286e-05   1.0053939033353998e-06   4.2209637038739985e-05
-1.9729033439443286e-05   1.0053939033353998e-06   4.2209637038739985e-05
-2.2807890363718097e-05   -5.4432317251953966e-06   0.0001532595296357851
-2.2807890363718097e-05   -5.4432317251953966e-06   0.0001532595296357851
-2.2807890363718097e-05   -5.4432317251953966e-06   0.0001532595296357851
-2.2807890363718097e-05   -5.4432317251953966e-06   0.0001532595296357851
4.4306528112396376e-05   -1.56699809936503e-06   3.907642533343097e-05
4.4306528112396376e-05   -1.56699809936503e-06   3.907642533343097e-05
4.4306528112396376e-05   -1.56699809936503e-06   3.907642533343097e-05
4.4306528112396376e-05   -1.56699809936503e-06   3.907642533343097e-05
1.1912950243634739e-05   -1.847931038984757e-06   9.32342815451433e-05
1.1912950243634739e-05   -1.847931038984757e-06   9.32342815451433e-05
1.1912950243634739e-05   -1.847931038984757e-06   9.32342815451433e-05
1.1912950243634739e-05   -1.847931038984757e-06   9.32342815451433e-05
4.430652811239651e-05   -5.443231725193662e-06   0.00015093378946028774
4.430652811239651e-05   -5.443231725193662e-06   0.00015093378946028774
4.430652811239651e-05   -5.443231725193662e-06   0.00015093378946028774
4.430652811239651e-05   -5.443231725193662e-06   0.00015093378946028774
-2.2807890363718097e-05   -1.56699809936503e-06   4.140216550892889e-05
-2.2807890363718097e-05   -1.56699809936503e-06   4.140216550892889e-05
-2.2807890363718097e-05   -1.56699809936503e-06   4.140216550892889e-05
-2.2807890363718097e-05   -1.56699809936503e-06   4.140216550892889e-05
-2.5859899130688127e-05   -7.665709464525772e-06   0.00015470084773925013
-2.5859899130688127e-05   -7.665709464525772e-06   0.00015470084773925013
-2.5859899130688127e-05   -7.665709464525772e-06   0.00015470084773925013
-2.5859899130688127e-05   -7.665709464525772e-06   0.00015470084773925013
4.1010478434069206e-05   -4.112104870247595e-06   4.111805570808797e-05
4.1010478434069206e-05   -4.112104870247595e-06   4.111805570808797e-05
4.1010478434069206e-05   -4.112104870247595e-06   4.111805570808797e-05
4.1010478434069206e-05   -4.112104870247595e-06   4.111805570808797e-05
9.291345049817294e-06   -3.6042291372880703e-06   9.367855257539932e-05
9.291345049817294e-06   -3.6042291372880703e-06   9.367855257539932e-05
9.291345049817294e-06   -3.6042291372880703e-06   9.367855257539932e-05
9.291345049817294e-06   -3.6042291372880703e-06   9.367855257539932e-05
-1.6716451005284287e-05   1.563402883610586e-05   0.00016804435288027449
-1.6716451005284287e-05   1.563402883610586e-05   0.00016804435288027449
-1.6716451005284287e-05   1.563402883610586e-05   0.00016804435288027449
-1.6716451005284287e-05   1.563402883610586e-05   0.00016804435288027449
-8.36006286010347e-05   1.5358018596211415e-05   5.6405117410087986e-05
-8.36006286010347e-05   1.5358018596211415e-05   5.6405117410087986e-05
-8.36006286010347e-05   1.5358018596211415e-05   5.6405117410087986e-05
-8.36006286010347e-05   1.5358018596211415e-05   5.6405117410087986e-05
-8.656997064551946e-05   1.2971385158377924e-05   0.00016694542169855275
-8.656997064551946e-05   1.2971385158377924e-05   0.00016694542169855275
-8.656997064551946e-05   1.2971385158377924e-05   0.00016694542169855275
-8.656997064551946e-05   1.2971385158377924e-05   0.00016694542169855275
-1.9729033439443177e-05   1.2501317287917126e-05   5.582590041070283e-05
-1.9729033439443177e-05   1.2501317287917126e-05   5.582590041070283e-05
-1.9729033439443177e-05   1.2501317287917126e-05   5.582590041070283e-05
-1.9729033439443177e-05   1.2501317287917126e-05   5.582590041070283e-05
-5.178200329971727e-05   1.37724656633538e-05   0.00010848482781923379
-5.178200329971727e-05   1.37724656633538e-05   0.00010848482781923379
-5.178200329971727e-05   1.37724656633538e-05   0.00010848482781923379
-5.178200329971727e-05   1.37724656633538e-05   0.00010848482781923379
-1.9729033439443286e-05   1.2971385158377924e-05   0.00016722746242082975
-1.9729033439443286e-05   1.2971385158377924e-05   0.00016722746242082975
-1.9729033439443286e-05   1.2971385158377924e-05   0.00016722746242082975
-1.9729033439443286e-05   1.2971385158377924e-05   0.00016722746242082975
-8.656997064551946e-05   1.2501317287917126e-05   5.5543859688426695e-05
-8.656997064551946e-05   1.2501317287917126e-05   5.5543859688426695e-05
-8.656997064551946e-05   1.2501317287917126e-05   5.5543859688426695e-05
-8.656997064551946e-05   1.2501317287917126e-05   5.5543859688426695e-05
-8.96118771709283e-05   1.0350564205624177e-05   0.000167822575713494
-8.96118771709283e-05   1.0350564205624177e-05   0.000167822575713494
-8.96118771709283e-05   1.0350564205624177e-05   0.000167822575713494
-8.96118771709283e-05   1.0350564205624177e-05   0.000167822575713494
-2.2807890363718097e-05   9.677103582395735e-06   5.688667407541422e-05
-2.2807890363718097e-05   9.677103582395735e-06   5.688667407541422e-05
-2.2807890363718097e-05   9.677103582395735e-06   5.688667407541422e-05
-2.2807890363718097e-05   9.677103582395735e-06   5.688667407541422e-05
-5.450425403910375e-05   1.1695232242332071e-05   0.00010850306967176556
-5.450425403910375e-05   1.1695232242332071e-05   0.00010850306967176556
-5.450425403910375e-05   1.1695232242332071e-05   0.00010850306967176556
-5.450425403910375e-05   1.1695232242332071e-05   0.00010850306967176556
-2.2807890363718097e-05   1.0350564205624177e-05   0.00016822665208743141
-2.2807890363718097e-05   1.0350564205624177e-05   0.00016822665208743141
-2.2807890363718097e-05   1.0350564205624177e-05   0.00016822665208743141
-2.2807890363718097e-05   1.0350564205624177e-05   0.00016822665208743141
-8.96118771709283e-05   9.677103582395735e-06   5.648259770147778e-05
-8.96118771709283e-05   9.677103582395735e-06   5.648259770147778e-05
-8.96118771709283e-05   9.677103582395735e-06   5.648259770147778e-05
-8.96118771709283e-05   9.677103582395735e-06   5.648259770147778e-05
-9.261951925416197e-05   7.862901783742271e-06   0.00017010916856079108
-9.261951925416197e-05   7.862901783742271e-06   0.00017010916856079108
-9.261951925416197e-05   7.862901783742271e-06   0.00017010916856079108
-9.261951925416197e-05   7.862901783742271e-06   0.00017010916856079108
-2.5859899130688127e-05   6.956860098924177e-06   5.9386760032559814e-05
-2.5859899130688127e-05   6.956860098924177e-06   5.9386760032559814e-05
-2.5859899130688127e-05   6.956860098924177e-06   5.9386760032559814e-05
-2.5859899130688127e-05   6.956860098924177e-06   5.9386760032559814e-05
-5.735022723574103e-05   9.665836796931074e-06   0.00011024525418884415
-5.735022723574103e-05   9.665836796931074e-06   0.00011024525418884415
-5.735022723574103e-05   9.665836796931074e-06   0.00011024525418884415
-5.735022723574103e-05   9.665836796931074e-06   0.00011024525418884415
-8.36006286010347e-05   3.06995525531685e-05   0.00014852703447738435
-8.36006286010347e-05   3.06995525531685e-05   0.00014852703447738435
-8.36006286010347e-05   3.06995525531685e-05   0.00014852703447738435
-8.36006286010347e-05   3.06995525531685e-05   0.00014852703447738435
-0.00014930089912745153   2.6265110235514436e-05   3.636591820942994e-05
-0.00014930089912745153   2.6265110235514436e-05   3.636591820942994e-05
-0.00014930089912745153   2.6265110235514436e-05   3.636591820942994e-05
-0.00014930089912745153   2.6265110235514436e-05   3.636591820942994e-05
-0.0001524826630492351   2.814141238055047e-05   0.00014653406396211103
-0.0001524826630492351   2.814141238055047e-05   0.00014653406396211103
-0.0001524826630492351   2.814141238055047e-05   0.00014653406396211103
-0.0001524826630492351   2.814141238055047e-05   0.00014653406396211103
-8.656997064551914e-05   2.3468131651121875e-05   3.948354506024161e-05
-8.656997064551914e-05   2.3468131651121875e-05   3.948354506024161e-05
-8.656997064551914e-05   2.3468131651121875e-05   3.948354506024161e-05
-8.656997064551914e-05   2.3468131651121875e-05   3.948354506024161e-05
-0.00011765714141139942   2.6691605888204753e-05   8.93614117944625e-05
-0.00011765714141139942   2.6691605888204753e-05   8.93614117944625e-05
-0.00011765714141139942   2.6691605888204753e-05   8.93614117944625e-05
-0.00011765714141139942   2.6691605888204753e-05   8.93614117944625e-05
-8.656997064551946e-05   2.814141238055047e-05   0.00014933803239976836
-8.656997064551946e-05   2.814141238055047e-05   0.00014933803239976836
-8.656997064551946e-05   2.814141238055047e-05   0.00014933803239976836
-8.656997064551946e-05   2.814141238055047e-05   0.00014933803239976836
-0.00015248266304923467   2.3468131651121875e-05   3.6679576622584715e-05
-0.00015248266304923467   2.3468131651121875e-05   3.6679576622584715e-05
-0.00015248266304923467   2.3468131651121875e-05   3.6679576622584715e-05
-0.00015248266304923467   2.3468131651121875e-05   3.6679576622584715e-05
-0.0001560666395835934   2.5765484810969658e-05   0.0001515446945341151
-0.0001560666395835934   2.5765484810969658e-05   0.0001515446945341151
-0.0001560666395835934   2.5765484810969658e-05   0.0001515446945341151
-0.0001560666395835934   2.5765484810969658e-05   0.0001515446945341151
-8.961187717092809e-05   2.0886814655117145e-05   4.3713959273184886e-05
-8.961187717092809e-05   2.0886814655117145e-05   4.3713959273184886e-05
-8.961187717092809e-05   2.0886814655117145e-05   4.3713959273184886e-05
-8.961187717092809e-05   2.0886814655117145e-05   4.3713959273184886e-05
-0.0001198750907845991   2.4783405013394794e-05   9.181469441433936e-05
-0.0001198750907845991   2.4783405013394794e-05   9.181469441433936e-05
-0.0001198750907845991   2.4783405013394794e-05   9.181469441433936e-05
-0.0001198750907845991   2.4783405013394794e-05   9.181469441433936e-05
-8.96118771709283e-05   2.5765484810969658e-05   0.00015447189662762522
-8.96118771709283e-05   2.5765484810969658e-05   0.00015447189662762522
-8.96118771709283e-05   2.5765484810969658e-05   0.00015447189662762522
-8.96118771709283e-05   2.5765484810969658e-05   0.00015447189662762522
-0.00015606663958359296   2.0886814655117145e-05   4.078675717967368e-05
-0.00015606663958359296   2.0886814655117145e-05   4.078675717967368e-05
-0.00015606663958359296   2.0886814655117145e-05   4.078675717967368e-05
-0.00015606663958359296   2.0886814655117145e-05   4.078675717967368e-05
-0.00015925811685115311   2.3005705558465372e-05   0.00015580038047854124
-0.00015925811685115311   2.3005705558465372e-05   0.00015580038047854124
-0.00015925811685115311   2.3005705558465372e-05   0.00015580038047854124
-0.00015925811685115311   2.3005705558465372e-05   0.00015580038047854124
-9.261951925416164e-05   1.8007863872860838e-05   4.773475616158627e-05
-9.261951925416164e-05   1.8007863872860838e-05   4.773475616158627e-05
-9.261951925416164e-05   1.8007863872860838e-05   4.773475616158627e-05
-9.261951925416164e-05   1.8007863872860838e-05   4.773475616158627e-05
-0.00012345934063334648   2.278250845577645e-05   9.626967171048016e-05
-0.00012345934063334648   2.278250845577645e-05   9.626967171048016e-05
-0.00012345934063334648   2.278250845577645e-05   9.626967171048016e-05
-0.00012345934063334648   2.278250845577645e-05   9.626967171048016e-05
-0.00014930089912745153   4.220843682201797e-05   7.122984009790001e-05
-0.00014930089912745153   4.220843682201797e-05   7.122984009790001e-05
-0.00014930089912745153   4.220843682201797e-05   7.122984009790001e-05
-0.00014930089912745153   4.220843682201797e-05   7.122984009790001e-05
-0.00021072523032390376   3.435347854529626e-05   -3.585702019555381e-05
-0.00021072523032390376   3.435347854529626e-05   -3.585702019555381e-05
-0.00021072523032390376   3.435347854529626e-05   -3.585702019555381e-05
-0.00021072523032390376   3.435347854529626e-05   -3.585702019555381e-05
-0.00021736483469405395   4.196777489278748e-05   9.115977114285828e-05
-0.00021736483469405395   4.196777489278748e-05   9.115977114285828e-05
-0.00021736483469405395   4.196777489278748e-05   9.115977114285828e-05
-0.00021736483469405395   4.196777489278748e-05   9.115977114285828e-05
-0.00015248266304923467   3.343890087993684e-05   -1.1859857190794389e-05
-0.00015248266304923467   3.343890087993684e-05   -1.1859857190794389e-05
-0.00015248266304923467   3.343890087993684e-05   -1.1859857190794389e-05
-0.00015248266304923467   3.343890087993684e-05   -1.1859857190794389e-05
-0.00017563449432381239   3.731201343115144e-05   2.440266073610968e-05
-0.00017563449432381239   3.731201343115144e-05   2.440266073610968e-05
-0.00017563449432381239   3.731201343115144e-05   2.440266073610968e-05
-0.00017563449432381239   3.731201343115144e-05   2.440266073610968e-05
-0.00015248266304923488   4.196777489278748e-05   9.627709555056971e-05
-0.00015248266304923488   4.196777489278748e-05   9.627709555056971e-05
-0.00015248266304923488   4.196777489278748e-05   9.627709555056971e-05
-0.00015248266304923488   4.196777489278748e-05   9.627709555056971e-05
-0.00021736483469405416   3.343890087993684e-05   -1.6977181598506683e-05
-0.00021736483469405416   3.343890087993684e-05   -1.6977181598506683e-05
-0.00021736483469405416   3.343890087993684e-05   -1.6977181598506683e-05
-0.00021736483469405416   3.343890087993684e-05   -1.6977181598506683e-05
-0.00022316644321911995   4.110270533928123e-05   0.00010851690117936498
-0.00022316644321911995   4.110270533928123e-05   0.00010851690117936498
-0.00022316644321911995   4.110270533928123e-05   0.00010851690117936498
-0.00022316644321911995   4.110270533928123e-05   0.00010851690117936498
-0.00015606663958359253   3.234609640772636e-05   1.937860479086888e-06
-0.00015606663958359253   3.234609640772636e-05   1.937860479086888e-06
-0.00015606663958359253   3.234609640772636e-05   1.937860479086888e-06
-0.00015606663958359253   3.234609640772636e-05   1.937860479086888e-06
-0.00018263639667950241   3.7323532432605513e-05   4.3234327357347894e-05
-0.00018263639667950241   3.7323532432605513e-05   4.3234327357347894e-05
-0.00018263639667950241   3.7323532432605513e-05   4.3234327357347894e-05
-0.00018263639667950241   3.7323532432605513e-05   4.3234327357347894e-05
-0.0001560666395835934   4.110270533928123e-05   0.0001137708665382986
-0.0001560666395835934   4.110270533928123e-05   0.0001137708665382986
-0.0001560666395835934   4.110270533928123e-05   0.0001137708665382986
-0.0001560666395835934   4.110270533928123e-05   0.0001137708665382986
-0.00022316644321911995   3.234609640772636e-05   -3.3161048798462968e-06
-0.00022316644321911995   3.234609640772636e-05   -3.3161048798462968e-06
-0.00022316644321911995   3.234609640772636e-05   -3.3161048798462968e-06
-0.00022316644321911995   3.234609640772636e-05   -3.3161048798462968e-06
-0.00022990385996034517   3.7310380613461355e-05   0.0001387112651872113
-0.00022990385996034517   3.7310380613461355e-05   0.0001387112651872113
-0.00022990385996034517   3.7310380613461355e-05   0.0001387112651872113
-0.00022990385996034517   3.7310380613461355e-05   0.0001387112651872113
-0.00015925811685115246   2.869848925094766e-05   2.613549482273188e-05
-0.00015925811685115246   2.869848925094766e-05   2.613549482273188e-05
-0.00015925811685115246   2.869848925094766e-05   2.613549482273188e-05
-0.00015925811685115246   2.869848925094766e-05   2.613549482273188e-05
-0.0001842540391376777   3.573684564409964e-05   6.357235146438236e-05
-0.0001842540391376777   3.573684564409964e-05   6.357235146438236e-05
-0.0001842540391376777   3.573684564409964e-05   6.357235146438236e-05
-0.0001842540391376777   3.573684564409964e-05   6.357235146438236e-05
6.792025032406683e-05   -7.786860474713261e-06   9.770402946385811e-05
6.792025032406683e-05   -7.786860474713261e-06   9.770402946385811e-05
6.792025032406683e-05   -7.786860474713261e-06   9.770402946385811e-05
6.792025032406683e-05   -7.786860474713261e-06   9.770402946385811e-05
1.7467409135812917e-05   3.4995050657207066e-07   1.8498047405540036e-05
1.7467409135812917e-05   3.4995050657207066e-07   1.8498047405540036e-05
1.7467409135812917e-05   3.4995050657207066e-07   1.8498047405540036e-05
1.7467409135812917e-05   3.4995050657207066e-07   1.8498047405540036e-05
1.5025119034120125e-05   -1.0871955761866323e-05   9.119611974383896e-05
1.5025119034120125e-05   -1.0871955761866323e-05   9.119611974383896e-05
1.5025119034120125e-05   -1.0871955761866323e-05   9.119611974383896e-05
1.5025119034120125e-05   -1.0871955761866323e-05   9.119611974383896e-05
6.189203897137872e-05   -2.4072394063075556e-06   8.005756701740929e-06
6.189203897137872e-05   -2.4072394063075556e-06   8.005756701740929e-06
6.189203897137872e-05   -2.4072394063075556e-06   8.005756701740929e-06
6.189203897137872e-05   -2.4072394063075556e-06   8.005756701740929e-06
3.816674667588756e-05   -5.569505098282183e-06   4.9445269942747366e-05
3.816674667588756e-05   -5.569505098282183e-06   4.9445269942747366e-05
3.816674667588756e-05   -5.569505098282183e-06   4.9445269942747366e-05
3.816674667588756e-05   -5.569505098282183e-06   4.9445269942747366e-05
6.189203897137883e-05   -1.0871955761865455e-05   8.611728993050422e-05
6.189203897137883e-05   -1.0871955761865455e-05   8.611728993050422e-05
6.189203897137883e-05   -1.0871955761865455e-05   8.611728993050422e-05
6.189203897137883e-05   -1.0871955761865455e-05   8.611728993050422e-05
1.5025119034120112e-05   -2.4072394063075556e-06   1.3084586515076102e-05
1.5025119034120112e-05   -2.4072394063075556e-06   1.3084586515076102e-05
1.5025119034120112e-05   -2.4072394063075556e-06   1.3084586515076102e-05
1.5025119034120112e-05   -2.4072394063075556e-06   1.3084586515076102e-05
1.2184378997257572e-05   -1.1940048997302957e-05   8.565902441620091e-05
1.2184378997257572e-05   -1.1940048997302957e-05   8.565902441620091e-05
1.2184378997257572e-05   -1.1940048997302957e-05   8.565902441620091e-05
1.2184378997257572e-05   -1.1940048997302957e-05   8.565902441620091e-05
5.679442872031065e-05   -3.604680690963598e-06   6.3077205606436966e-06
5.679442872031065e-05   -3.604680690963598e-06   6.3077205606436966e-06
5.679442872031065e-05   -3.604680690963598e-06   6.3077205606436966e-06
5.679442872031065e-05   -3.604680690963598e-06   6.3077205606436966e-06
3.523255258047051e-05   -6.772178075259774e-06   4.4144679224288226e-05
3.523255258047051e-05   -6.772178075259774e-06   4.4144679224288226e-05
3.523255258047051e-05   -6.772178075259774e-06   4.4144679224288226e-05
3.523255258047051e-05   -6.772178075259774e-06   4.4144679224288226e-05
5.6794428720310756e-05   -1.1940048997302957e-05   8.065780343239834e-05
5.6794428720310756e-05   -1.1940048997302957e-05   8.065780343239834e-05
5.6794428720310756e-05   -1.1940048997302957e-05   8.065780343239834e-05
5.6794428720310756e-05   -1.1940048997302957e-05   8.065780343239834e-05
1.2184378997257532e-05   -3.604680690963598e-06   1.1308941544447247e-05
1.2184378997257532e-05   -3.604680690963598e-06   1.1308941544447247e-05
1.2184378997257532e-05   -3.604680690963598e-06   1.1308941544447247e-05
1.2184378997257532e-05   -3.604680690963598e-06   1.1308941544447247e-05
9.72601486702022e-06   -1.3371433995943219e-05   7.93129068204718e-05
9.72601486702022e-06   -1.3371433995943219e-05   7.93129068204718e-05
9.72601486702022e-06   -1.3371433995943219e-05   7.93129068204718e-05
9.72601486702022e-06   -1.3371433995943219e-05   7.93129068204718e-05
5.0834327414145744e-05   -5.6156503186414325e-06   6.145582368883955e-06
5.0834327414145744e-05   -5.6156503186414325e-06   6.145582368883955e-06
5.0834327414145744e-05   -5.6156503186414325e-06   6.145582368883955e-06
5.0834327414145744e-05   -5.6156503186414325e-06   6.145582368883955e-06
3.096771913364434e-05   -7.408425728722655e-06   4.033226141576807e-05
3.096771913364434e-05   -7.408425728722655e-06   4.033226141576807e-05
3.096771913364434e-05   -7.408425728722655e-06   4.033226141576807e-05
3.096771913364434e-05   -7.408425728722655e-06   4.033226141576807e-05
1.7467409135812944e-05   4.139340983762285e-06   0.00013501020763140477
1.7467409135812944e-05   4.139340983762285e-06   0.00013501020763140477
1.7467409135812944e-05   4.139340983762285e-06   0.00013501020763140477
1.7467409135812944e-05   4.139340983762285e-06   0.00013501020763140477
-2.8546655202827927e-05   7.805960975728297e-06   6.0520072395516336e-05
-2.8546655202827927e-05   7.805960975728297e-06   6.0520072395516336e-05
-2.8546655202827927e-05   7.805960975728297e-06   6.0520072395516336e-05
-2.8546655202827927e-05   7.805960975728297e-06   6.0520072395516336e-05
-3.068909240768055e-05   1.0053939033353998e-06   0.00013545908089682666
-3.068909240768055e-05   1.0053939033353998e-06   0.00013545908089682666
-3.068909240768055e-05   1.0053939033353998e-06   0.00013545908089682666
-3.068909240768055e-05   1.0053939033353998e-06   0.00013545908089682666
1.5025119034120112e-05   4.678805629461727e-06   5.7064681458151635e-05
1.5025119034120112e-05   4.678805629461727e-06   5.7064681458151635e-05
1.5025119034120112e-05   4.678805629461727e-06   5.7064681458151635e-05
1.5025119034120112e-05   4.678805629461727e-06   5.7064681458151635e-05
-7.026332877578668e-06   4.100570835977382e-06   9.416404218707728e-05
-7.026332877578668e-06   4.100570835977382e-06   9.416404218707728e-05
-7.026332877578668e-06   4.100570835977382e-06   9.416404218707728e-05
-7.026332877578668e-06   4.100570835977382e-06   9.416404218707728e-05
1.5025119034120112e-05   1.0053939033345324e-06   0.0001332550338611514
1.5025119034120112e-05   1.0053939033345324e-06   0.0001332550338611514
1.5025119034120112e-05   1.0053939033345324e-06   0.0001332550338611514
1.5025119034120112e-05   1.0053939033345324e-06   0.0001332550338611514
-3.068909240768055e-05   4.678805629461727e-06   5.926872849382767e-05
-3.068909240768055e-05   4.678805629461727e-06   5.926872849382767e-05
-3.068909240768055e-05   4.678805629461727e-06   5.926872849382767e-05
-3.068909240768055e-05   4.678805629461727e-06   5.926872849382767e-05
-3.289280801044151e-05   -1.56699809936503e-06   0.00013463635498605665
-3.289280801044151e-05   -1.56699809936503e-06   0.00013463635498605665
-3.289280801044151e-05   -1.56699809936503e-06   0.00013463635498605665
-3.289280801044151e-05   -1.56699809936503e-06   0.00013463635498605665
1.2184378997257532e-05   2.0200331492881488e-06   5.735549122403338e-05
1.2184378997257532e-05   2.0200331492881488e-06   5.735549122403338e-05
1.2184378997257532e-05   2.0200331492881488e-06   5.735549122403338e-05
1.2184378997257532e-05   2.0200331492881488e-06   5.735549122403338e-05
-9.30964158100254e-06   1.9141796528572563e-06   9.324237095232799e-05
-9.30964158100254e-06   1.9141796528572563e-06   9.324237095232799e-05
-9.30964158100254e-06   1.9141796528572563e-06   9.324237095232799e-05
-9.30964158100254e-06   1.9141796528572563e-06   9.324237095232799e-05
1.2184378997257572e-05   -1.56699809936503e-06   0.0001324841362368651
1.2184378997257572e-05   -1.56699809936503e-06   0.0001324841362368651
1.2184378997257572e-05   -1.56699809936503e-06   0.0001324841362368651
1.2184378997257572e-05   -1.56699809936503e-06   0.0001324841362368651
-3.289280801044162e-05   2.020033149289016e-06   5.950770997322592e-05
-3.289280801044162e-05   2.020033149289016e-06   5.950770997322592e-05
-3.289280801044162e-05   2.020033149289016e-06   5.950770997322592e-05
-3.289280801044162e-05   2.020033149289016e-06   5.950770997322592e-05
-3.506218023607865e-05   -4.112104870246727e-06   0.0001364559954533922
-3.506218023607865e-05   -4.112104870246727e-06   0.0001364559954533922
-3.506218023607865e-05   -4.112104870246727e-06   0.0001364559954533922
-3.506218023607865e-05   -4.112104870246727e-06   0.0001364559954533922
9.726014867020194e-06   -7.074417090564486e-07   5.9766205718181175e-05
9.726014867020194e-06   -7.074417090564486e-07   5.9766205718181175e-05
9.726014867020194e-06   -7.074417090564486e-07   5.9766205718181175e-05
9.726014867020194e-06   -7.074417090564486e-07   5.9766205718181175e-05
-1.1248849604768921e-05   -5.758828947911854e-08   9.433440111941823e-05
-1.1248849604768921e-05   -5.758828947911854e-08   9.433440111941823e-05
-1.1248849604768921e-05   -5.758828947911854e-08   9.433440111941823e-05
-1.1248849604768921e-05   -5.758828947911854e-08   9.433440111941823e-05
-2.8546655202827927e-05   1.5358018596211415e-05   0.00014983204645799275
-2.8546655202827927e-05   1.5358018596211415e-05   0.00014983204645799275
-2.8546655202827927e-05   1.5358018596211415e-05   0.00014983204645799275
-2.8546655202827927e-05   1.5358018596211415e-05   0.00014983204645799275
-7.381446103377426e-05   1.4450478972984591e-05   7.384117963247887e-05
-7.381446103377426e-05   1.4450478972984591e-05   7.384117963247887e-05
-7.381446103377426e-05   1.4450478972984591e-05   7.384117963247887e-05
-7.381446103377426e-05   1.4450478972984591e-05   7.384117963247887e-05
-7.586737199497266e-05   1.2501317287917126e-05   0.0001485098126683482
-7.586737199497266e-05   1.2501317287917126e-05   0.0001485098126683482
-7.586737199497266e-05   1.2501317287917126e-05   0.0001485098126683482
-7.586737199497266e-05   1.2501317287917126e-05   0.0001485098126683482
-3.068909240768055e-05   1.1558764620511926e-05   7.377821162330464e-05
-3.068909240768055e-05   1.1558764620511926e-05   7.377821162330464e-05
-3.068909240768055e-05   1.1558764620511926e-05   7.377821162330464e-05
-3.068909240768055e-05   1.1558764620511926e-05   7.377821162330464e-05
-5.2324185878378576e-05   1.3153285004806337e-05   0.000108879988510563
-5.2324185878378576e-05   1.3153285004806337e-05   0.000108879988510563
-5.2324185878378576e-05   1.3153285004806337e-05   0.000108879988510563
-5.2324185878378576e-05   1.3153285004806337e-05   0.000108879988510563
-3.068909240768055e-05   1.2501317287917126e-05   0.0001490753442687908
-3.068909240768055e-05   1.2501317287917126e-05   0.0001490753442687908
-3.068909240768055e-05   1.2501317287917126e-05   0.0001490753442687908
-3.068909240768055e-05   1.2501317287917126e-05   0.0001490753442687908
-7.586737199497266e-05   1.1558764620511926e-05   7.321268002286139e-05
-7.586737199497266e-05   1.1558764620511926e-05   7.321268002286139e-05
-7.586737199497266e-05   1.1558764620511926e-05   7.321268002286139e-05
-7.586737199497266e-05   1.1558764620511926e-05   7.321268002286139e-05
-7.798865021288698e-05   9.677103582395735e-06   0.00014952356167046484
-7.798865021288698e-05   9.677103582395735e-06   0.00014952356167046484
-7.798865021288698e-05   9.677103582395735e-06   0.00014952356167046484
-7.798865021288698e-05   9.677103582395735e-06   0.00014952356167046484
-3.28928080104414e-05   8.681600445595988e-06   7.49611265484691e-05
-3.28928080104414e-05   8.681600445595988e-06   7.49611265484691e-05
-3.28928080104414e-05   8.681600445595988e-06   7.49611265484691e-05
-3.28928080104414e-05   8.681600445595988e-06   7.49611265484691e-05
-5.415419484476879e-05   1.0949734754565031e-05   0.0001090358906869664
-5.415419484476879e-05   1.0949734754565031e-05   0.0001090358906869664
-5.415419484476879e-05   1.0949734754565031e-05   0.0001090358906869664
-5.415419484476879e-05   1.0949734754565031e-05   0.0001090358906869664
-3.289280801044162e-05   9.677103582395735e-06   0.00015012086355254382
-3.289280801044162e-05   9.677103582395735e-06   0.00015012086355254382
-3.289280801044162e-05   9.677103582395735e-06   0.00015012086355254382
-3.289280801044162e-05   9.677103582395735e-06   0.00015012086355254382
-7.798865021288698e-05   8.681600445595988e-06   7.436382466638946e-05
-7.798865021288698e-05   8.681600445595988e-06   7.436382466638946e-05
-7.798865021288698e-05   8.681600445595988e-06   7.436382466638946e-05
-7.798865021288698e-05   8.681600445595988e-06   7.436382466638946e-05
-8.007751890502074e-05   6.956860098924177e-06   0.0001519730322845905
-8.007751890502074e-05   6.956860098924177e-06   0.0001519730322845905
-8.007751890502074e-05   6.956860098924177e-06   0.0001519730322845905
-8.007751890502074e-05   6.956860098924177e-06   0.0001519730322845905
-3.506218023607854e-05   5.924352204411502e-06   7.756697257306272e-05
-3.506218023607854e-05   5.924352204411502e-06   7.756697257306272e-05
-3.506218023607854e-05   5.924352204411502e-06   7.756697257306272e-05
-3.506218023607854e-05   5.924352204411502e-06   7.756697257306272e-05
-5.6099502542663834e-05   8.789175464404657e-06   0.00011091028246137751
-5.6099502542663834e-05   8.789175464404657e-06   0.00011091028246137751
-5.6099502542663834e-05   8.789175464404657e-06   0.00011091028246137751
-5.6099502542663834e-05   8.789175464404657e-06   0.00011091028246137751
-7.381446103377426e-05   2.6265110235514436e-05   0.00013190898887399053
-7.381446103377426e-05   2.6265110235514436e-05   0.00013190898887399053
-7.381446103377426e-05   2.6265110235514436e-05   0.00013190898887399053
-7.381446103377426e-05   2.6265110235514436e-05   0.00013190898887399053
-0.00011821132516594648   2.140472238917803e-05   5.499798261256834e-05
-0.00011821132516594648   2.140472238917803e-05   5.499798261256834e-05
-0.00011821132516594648   2.140472238917803e-05   5.499798261256834e-05
-0.00011821132516594648   2.140472238917803e-05   5.499798261256834e-05
-0.00012044591562266932   2.3468131651121875e-05   0.00012945928294933514
-0.00012044591562266932   2.3468131651121875e-05   0.00012945928294933514
-0.00012044591562266932   2.3468131651121875e-05   0.00012945928294933514
-0.00012044591562266932   2.3468131651121875e-05   0.00012945928294933514
-7.586737199497245e-05   1.8484439833076245e-05   5.815192532733645e-05
-7.586737199497245e-05   1.8484439833076245e-05   5.815192532733645e-05
-7.586737199497245e-05   1.8484439833076245e-05   5.815192532733645e-05
-7.586737199497245e-05   1.8484439833076245e-05   5.815192532733645e-05
-9.685189485313583e-05   2.2052161908651252e-05   9.098549684560201e-05
-9.685189485313583e-05   2.2052161908651252e-05   9.098549684560201e-05
-9.685189485313583e-05   2.2052161908651252e-05   9.098549684560201e-05
-9.685189485313583e-05   2.2052161908651252e-05   9.098549684560201e-05
-7.586737199497266e-05   2.3468131651122742e-05   0.0001324494980401627
-7.586737199497266e-05   2.3468131651122742e-05   0.0001324494980401627
-7.586737199497266e-05   2.3468131651122742e-05   0.0001324494980401627
-7.586737199497266e-05   2.3468131651122742e-05   0.0001324494980401627
-0.00012044591562266932   1.8484439833076245e-05   5.5161710236509114e-05
-0.00012044591562266932   1.8484439833076245e-05   5.5161710236509114e-05
-0.00012044591562266932   1.8484439833076245e-05   5.5161710236509114e-05
-0.00012044591562266932   1.8484439833076245e-05   5.5161710236509114e-05
-0.0001230959498035799   2.0886814655117145e-05   0.0001337239919184021
-0.0001230959498035799   2.0886814655117145e-05   0.0001337239919184021
-0.0001230959498035799   2.0886814655117145e-05   0.0001337239919184021
-0.0001230959498035799   2.0886814655117145e-05   0.0001337239919184021
-7.798865021288676e-05   1.5835262448835735e-05   6.157609059101693e-05
-7.798865021288676e-05   1.5835262448835735e-05   6.157609059101693e-05
-7.798865021288676e-05   1.5835262448835735e-05   6.157609059101693e-05
-7.798865021288676e-05   1.5835262448835735e-05   6.157609059101693e-05
-9.830948157379385e-05   1.9983497703090006e-05   9.295520170664231e-05
-9.830948157379385e-05   1.9983497703090006e-05   9.295520170664231e-05
-9.830948157379385e-05   1.9983497703090006e-05   9.295520170664231e-05
-9.830948157379385e-05   1.9983497703090006e-05   9.295520170664231e-05
-7.798865021288698e-05   2.0886814655117145e-05   0.00013675492324217043
-7.798865021288698e-05   2.0886814655117145e-05   0.00013675492324217043
-7.798865021288698e-05   2.0886814655117145e-05   0.00013675492324217043
-7.798865021288698e-05   2.0886814655117145e-05   0.00013675492324217043
-0.00012309594980357947   1.5835262448835735e-05   5.854515926724795e-05
-0.00012309594980357947   1.5835262448835735e-05   5.854515926724795e-05
-0.00012309594980357947   1.5835262448835735e-05   5.854515926724795e-05
-0.00012309594980357947   1.5835262448835735e-05   5.854515926724795e-05
-0.00012537461285544818   1.800786387285997e-05   0.00013786615818405824
-0.00012537461285544818   1.800786387285997e-05   0.00013786615818405824
-0.00012537461285544818   1.800786387285997e-05   0.00013786615818405824
-0.00012537461285544818   1.800786387285997e-05   0.00013786615818405824
-8.007751890502053e-05   1.301037180544487e-05   6.53694968404631e-05
-8.007751890502053e-05   1.301037180544487e-05   6.53694968404631e-05
-8.007751890502053e-05   1.301037180544487e-05   6.53694968404631e-05
-8.007751890502053e-05   1.301037180544487e-05   6.53694968404631e-05
-0.00010079789274863654   1.7918538422425148e-05   9.695855327630657e-05
-0.00010079789274863654   1.7918538422425148e-05   9.695855327630657e-05
-0.00010079789274863654   1.7918538422425148e-05   9.695855327630657e-05
-0.00010079789274863654   1.7918538422425148e-05   9.695855327630657e-05
-0.00011821132516594691   3.435347854529626e-05   6.148279272723788e-05
-0.00011821132516594691   3.435347854529626e-05   6.148279272723788e-05
-0.00011821132516594691   3.435347854529626e-05   6.148279272723788e-05
-0.00011821132516594691   3.435347854529626e-05   6.148279272723788e-05
-0.00015806297847650082   2.6238263299371498e-05   -9.80575860457379e-06
-0.00015806297847650082   2.6238263299371498e-05   -9.80575860457379e-06
-0.00015806297847650082   2.6238263299371498e-05   -9.80575860457379e-06
-0.00015806297847650082   2.6238263299371498e-05   -9.80575860457379e-06
-0.00016378339033723153   3.343890087993684e-05   7.569542173526626e-05
-0.00016378339033723153   3.343890087993684e-05   7.569542173526626e-05
-0.00016378339033723153   3.343890087993684e-05   7.569542173526626e-05
-0.00016378339033723153   3.343890087993684e-05   7.569542173526626e-05
-0.00012044591562266889   2.4731521878789374e-05   8.690724611685758e-06
-0.00012044591562266889   2.4731521878789374e-05   8.690724611685758e-06
-0.00012044591562266889   2.4731521878789374e-05   8.690724611685758e-06
-0.00012044591562266889   2.4731521878789374e-05   8.690724611685758e-06
-0.00013502790538883207   2.9158235100543682e-05   3.033801295557713e-05
-0.00013502790538883207   2.9158235100543682e-05   3.033801295557713e-05
-0.00013502790538883207   2.9158235100543682e-05   3.033801295557713e-05
-0.00013502790538883207   2.9158235100543682e-05   3.033801295557713e-05
-0.00012044591562266889   3.343890087993597e-05   8.091984913595474e-05
-0.00012044591562266889   3.343890087993597e-05   8.091984913595474e-05
-0.00012044591562266889   3.343890087993597e-05   8.091984913595474e-05
-0.00012044591562266889   3.343890087993597e-05   8.091984913595474e-05
-0.00016378339033723218   2.4731521878789374e-05   3.466297210996845e-06
-0.00016378339033723218   2.4731521878789374e-05   3.466297210996845e-06
-0.00016378339033723218   2.4731521878789374e-05   3.466297210996845e-06
-0.00016378339033723218   2.4731521878789374e-05   3.466297210996845e-06
-0.00016871686272420454   3.2346096407727225e-05   8.95582147502072e-05
-0.00016871686272420454   3.2346096407727225e-05   8.95582147502072e-05
-0.00016871686272420454   3.2346096407727225e-05   8.95582147502072e-05
-0.00016871686272420454   3.2346096407727225e-05   8.95582147502072e-05
-0.00012309594980357947   2.348462896171414e-05   1.884024035010744e-05
-0.00012309594980357947   2.348462896171414e-05   1.884024035010744e-05
-0.00012309594980357947   2.348462896171414e-05   1.884024035010744e-05
-0.00012309594980357947   2.348462896171414e-05   1.884024035010744e-05
-0.00014050204871411578   2.87596353798188e-05   4.468540135014109e-05
-0.00014050204871411578   2.87596353798188e-05   4.468540135014109e-05
-0.00014050204871411578   2.87596353798188e-05   4.468540135014109e-05
-0.00014050204871411578   2.87596353798188e-05   4.468540135014109e-05
-0.00012309594980357969   3.234609640772636e-05   9.487509521781488e-05
-0.00012309594980357969   3.234609640772636e-05   9.487509521781488e-05
-0.00012309594980357969   3.234609640772636e-05   9.487509521781488e-05
-0.00012309594980357969   3.234609640772636e-05   9.487509521781488e-05
-0.00016871686272420475   2.3484628961715007e-05   1.3523359882500197e-05
-0.00016871686272420475   2.3484628961715007e-05   1.3523359882500197e-05
-0.00016871686272420475   2.3484628961715007e-05   1.3523359882500197e-05
-0.00016871686272420475   2.3484628961715007e-05   1.3523359882500197e-05
-0.0001746306321293112   2.8698489250948526e-05   0.00011411417821517288
-0.0001746306321293112   2.8698489250948526e-05   0.00011411417821517288
-0.0001746306321293112   2.8698489250948526e-05   0.00011411417821517288
-0.0001746306321293112   2.8698489250948526e-05   0.00011411417821517288
-0.00012537461285544796   2.011278318195947e-05   3.717223640012932e-05
-0.00012537461285544796   2.011278318195947e-05   3.717223640012932e-05
-0.00012537461285544796   2.011278318195947e-05   3.717223640012932e-05
-0.00012537461285544796   2.011278318195947e-05   3.717223640012932e-05
-0.00014190505006898672   2.7226415056420643e-05   6.0454785964685846e-05
-0.00014190505006898672   2.7226415056420643e-05   6.0454785964685846e-05
-0.00014190505006898672   2.7226415056420643e-05   6.0454785964685846e-05
-0.00014190505006898672   2.7226415056420643e-05   6.0454785964685846e-05
1.2440535073615254e-05   3.4995050657207066e-07   7.250180028307634e-05
1.2440535073615254e-05   3.4995050657207066e-07   7.250180028307634e-05
1.2440535073615254e-05   3.4995050657207066e-07   7.250180028307634e-05
1.2440535073615254e-05   3.4995050657207066e-07   7.250180028307634e-05
-1.6079288327020943e-05   8.13284268802103e-06   2.96384965908854e-05
-1.6079288327020943e-05   8.13284268802103e-06   2.96384965908854e-05
-1.6079288327020943e-05   8.13284268802103e-06   2.96384965908854e-05
-1.6079288327020943e-05   8.13284268802103e-06   2.96384965908854e-05
-1.779107765887337e-05   -2.4072394063075556e-06   7.16612544060173e-05
-1.779107765887337e-05   -2.4072394063075556e-06   7.16612544060173e-05
-1.779107765887337e-05   -2.4072394063075556e-06   7.16612544060173e-05
-1.779107765887337e-05   -2.4072394063075556e-06   7.16612544060173e-05
7.2161848994436225e-06   5.561956811619799e-06   2.5200965744732952e-05
7.2161848994436225e-06   5.561956811619799e-06   2.5200965744732952e-05
7.2161848994436225e-06   5.561956811619799e-06   2.5200965744732952e-05
7.2161848994436225e-06   5.561956811619799e-06   2.5200965744732952e-05
-4.188248670337381e-06   2.473615590662878e-06   4.606135976027606e-05
-4.188248670337381e-06   2.473615590662878e-06   4.606135976027606e-05
-4.188248670337381e-06   2.473615590662878e-06   4.606135976027606e-05
-4.188248670337381e-06   2.473615590662878e-06   4.606135976027606e-05
7.2161848994436225e-06   -2.4072394063075556e-06   6.687973667526131e-05
7.2161848994436225e-06   -2.4072394063075556e-06   6.687973667526131e-05
7.2161848994436225e-06   -2.4072394063075556e-06   6.687973667526131e-05
7.2161848994436225e-06   -2.4072394063075556e-06   6.687973667526131e-05
-1.779107765887337e-05   5.561956811619799e-06   2.9982483475489256e-05
-1.779107765887337e-05   5.561956811619799e-06   2.9982483475489256e-05
-1.779107765887337e-05   5.561956811619799e-06   2.9982483475489256e-05
-1.779107765887337e-05   5.561956811619799e-06   2.9982483475489256e-05
-1.9902678868549578e-05   -3.604680690964465e-06   6.988214122681654e-05
-1.9902678868549578e-05   -3.604680690964465e-06   6.988214122681654e-05
-1.9902678868549578e-05   -3.604680690964465e-06   6.988214122681654e-05
-1.9902678868549578e-05   -3.604680690964465e-06   6.988214122681654e-05
2.6906400098323114e-06   4.134447117535092e-06   2.7583133077746817e-05
2.6906400098323114e-06   4.134447117535092e-06   2.7583133077746817e-05
2.6906400098323114e-06   4.134447117535092e-06   2.7583133077746817e-05
2.6906400098323114e-06   4.134447117535092e-06   2.7583133077746817e-05
-7.020468281297884e-06   1.377214013061935e-06   4.5422653425647615e-05
-7.020468281297884e-06   1.377214013061935e-06   4.5422653425647615e-05
-7.020468281297884e-06   1.377214013061935e-06   4.5422653425647615e-05
-7.020468281297884e-06   1.377214013061935e-06   4.5422653425647615e-05
2.690640009832257e-06   -3.604680690964465e-06   6.523866454171594e-05
2.690640009832257e-06   -3.604680690964465e-06   6.523866454171594e-05
2.690640009832257e-06   -3.604680690964465e-06   6.523866454171594e-05
2.690640009832257e-06   -3.604680690964465e-06   6.523866454171594e-05
-1.9902678868549524e-05   4.134447117535092e-06   3.222660976284677e-05
-1.9902678868549524e-05   4.134447117535092e-06   3.222660976284677e-05
-1.9902678868549524e-05   4.134447117535092e-06   3.222660976284677e-05
-1.9902678868549524e-05   4.134447117535092e-06   3.222660976284677e-05
-2.166238594742484e-05   -5.6156503186423e-06   6.939035825268827e-05
-2.166238594742484e-05   -5.6156503186423e-06   6.939035825268827e-05
-2.166238594742484e-05   -5.6156503186423e-06   6.939035825268827e-05
-2.166238594742484e-05   -5.6156503186423e-06   6.939035825268827e-05
-2.9807556764928182e-06   1.0948207688080483e-06   3.422802514866567e-05
-2.9807556764928182e-06   1.0948207688080483e-06   3.422802514866567e-05
-2.9807556764928182e-06   1.0948207688080483e-06   3.422802514866567e-05
-2.9807556764928182e-06   1.0948207688080483e-06   3.422802514866567e-05
-1.002750704085365e-05   3.5411834338906073e-07   4.641703221118488e-05
-1.002750704085365e-05   3.5411834338906073e-07   4.641703221118488e-05
-1.002750704085365e-05   3.5411834338906073e-07   4.641703221118488e-05
-1.002750704085365e-05   3.5411834338906073e-07   4.641703221118488e-05
-1.6079288327020943e-05   7.805960975728297e-06   0.00011699358858674241
-1.6079288327020943e-05   7.805960975728297e-06   0.00011699358858674241
-1.6079288327020943e-05   7.805960975728297e-06   0.00011699358858674241
-1.6079288327020943e-05   7.805960975728297e-06   0.00011699358858674241
-3.997514858860608e-05   9.317997533966893e-06   7.807437675237715e-05
-3.997514858860608e-05   9.317997533966893e-06   7.807437675237715e-05
-3.997514858860608e-05   9.317997533966893e-06   7.807437675237715e-05
-3.997514858860608e-05   9.317997533966893e-06   7.807437675237715e-05
-4.1259789551854e-05   4.678805629461727e-06   0.00011669825986207125
-4.1259789551854e-05   4.678805629461727e-06   0.00011669825986207125
-4.1259789551854e-05   4.678805629461727e-06   0.00011669825986207125
-4.1259789551854e-05   4.678805629461727e-06   0.00011669825986207125
-1.779107765887337e-05   6.440323151091741e-06   7.652682952745814e-05
-1.779107765887337e-05   6.440323151091741e-06   7.652682952745814e-05
-1.779107765887337e-05   6.440323151091741e-06   7.652682952745814e-05
-1.779107765887337e-05   6.440323151091741e-06   7.652682952745814e-05
-2.8935103732662183e-05   6.733956013214859e-06   9.49240265998325e-05
-2.8935103732662183e-05   6.733956013214859e-06   9.49240265998325e-05
-2.8935103732662183e-05   6.733956013214859e-06   9.49240265998325e-05
-2.8935103732662183e-05   6.733956013214859e-06   9.49240265998325e-05
-1.7791077658873357e-05   4.678805629461727e-06   0.00011564134934909185
-1.7791077658873357e-05   4.678805629461727e-06   0.00011564134934909185
-1.7791077658873357e-05   4.678805629461727e-06   0.00011564134934909185
-1.7791077658873357e-05   4.678805629461727e-06   0.00011564134934909185
-4.125978955185389e-05   6.440323151091741e-06   7.758374004043648e-05
-4.125978955185389e-05   6.440323151091741e-06   7.758374004043648e-05
-4.125978955185389e-05   6.440323151091741e-06   7.758374004043648e-05
-4.125978955185389e-05   6.440323151091741e-06   7.758374004043648e-05
-4.258391842536355e-05   2.0200331492881488e-06   0.00011698034814572496
-4.258391842536355e-05   2.0200331492881488e-06   0.00011698034814572496
-4.258391842536355e-05   2.0200331492881488e-06   0.00011698034814572496
-4.258391842536355e-05   2.0200331492881488e-06   0.00011698034814572496
-1.9902678868549524e-05   3.7727952148236543e-06   7.81266249783805e-05
-1.9902678868549524e-05   3.7727952148236543e-06   7.81266249783805e-05
-1.9902678868549524e-05   3.7727952148236543e-06   7.81266249783805e-05
-1.9902678868549524e-05   3.7727952148236543e-06   7.81266249783805e-05
-3.024478291790955e-05   4.6243763748773925e-06   9.485251636461652e-05
-3.024478291790955e-05   4.6243763748773925e-06   9.485251636461652e-05
-3.024478291790955e-05   4.6243763748773925e-06   9.485251636461652e-05
-3.024478291790955e-05   4.6243763748773925e-06   9.485251636461652e-05
-1.9902678868549578e-05   2.0200331492881488e-06   0.00011592869090640322
-1.9902678868549578e-05   2.0200331492881488e-06   0.00011592869090640322
-1.9902678868549578e-05   2.0200331492881488e-06   0.00011592869090640322
-1.9902678868549578e-05   2.0200331492881488e-06   0.00011592869090640322
-4.258391842536355e-05   3.7727952148236543e-06   7.917828221770153e-05
-4.258391842536355e-05   3.7727952148236543e-06   7.917828221770153e-05
-4.258391842536355e-05   3.7727952148236543e-06   7.917828221770153e-05
-4.258391842536355e-05   3.7727952148236543e-06   7.917828221770153e-05
-4.388042685229965e-05   -7.074417090564486e-07   0.00011930456492934395
-4.388042685229965e-05   -7.074417090564486e-07   0.00011930456492934395
-4.388042685229965e-05   -7.074417090564486e-07   0.00011930456492934395
-4.388042685229965e-05   -7.074417090564486e-07   0.00011930456492934395
-2.16623859474248e-05   8.709808471726171e-07   8.132744322081518e-05
-2.16623859474248e-05   8.709808471726171e-07   8.132744322081518e-05
-2.16623859474248e-05   8.709808471726171e-07   8.132744322081518e-05
-2.16623859474248e-05   8.709808471726171e-07   8.132744322081518e-05
-3.155700589348283e-05   2.5402269421730475e-06   9.681692880724553e-05
-3.155700589348283e-05   2.5402269421730475e-06   9.681692880724553e-05
-3.155700589348283e-05   2.5402269421730475e-06   9.681692880724553e-05
-3.155700589348283e-05   2.5402269421730475e-06   9.681692880724553e-05
-3.997514858860608e-05   1.4450478972984591e-05   0.0001317664415325841
-3.997514858860608e-05   1.4450478972984591e-05   0.0001317664415325841
-3.997514858860608e-05   1.4450478972984591e-05   0.0001317664415325841
-3.997514858860608e-05   1.4450478972984591e-05   0.0001317664415325841
-6.385149884193279e-05   1.1100305535388655e-05   8.996242038114902e-05
-6.385149884193279e-05   1.1100305535388655e-05   8.996242038114902e-05
-6.385149884193279e-05   1.1100305535388655e-05   8.996242038114902e-05
-6.385149884193279e-05   1.1100305535388655e-05   8.996242038114902e-05
-6.493458136194881e-05   1.1558764620511058e-05   0.0001293273161672836
-6.493458136194881e-05   1.1558764620511058e-05   0.0001293273161672836
-6.493458136194881e-05   1.1558764620511058e-05   0.0001293273161672836
-6.493458136194881e-05   1.1558764620511058e-05   0.0001293273161672836
-4.125978955185389e-05   8.424719913403128e-06   9.174975664138986e-05
-4.125978955185389e-05   8.424719913403128e-06   9.174975664138986e-05
-4.125978955185389e-05   8.424719913403128e-06   9.174975664138986e-05
-4.125978955185389e-05   8.424719913403128e-06   9.174975664138986e-05
-5.252727413292867e-05   1.1173153874693975e-05   0.0001088798372330729
-5.252727413292867e-05   1.1173153874693975e-05   0.0001088798372330729
-5.252727413292867e-05   1.1173153874693975e-05   0.0001088798372330729
-5.252727413292867e-05   1.1173153874693975e-05   0.0001088798372330729
-4.125978955185389e-05   1.1558764620511058e-05   0.00013120774299154843
-4.125978955185389e-05   1.1558764620511058e-05   0.00013120774299154843
-4.125978955185389e-05   1.1558764620511058e-05   0.00013120774299154843
-4.125978955185389e-05   1.1558764620511058e-05   0.00013120774299154843
-6.493458136194881e-05   8.424719913403128e-06   8.986932981712437e-05
-6.493458136194881e-05   8.424719913403128e-06   8.986932981712437e-05
-6.493458136194881e-05   8.424719913403128e-06   8.986932981712437e-05
-6.493458136194881e-05   8.424719913403128e-06   8.986932981712437e-05
-6.609679233432995e-05   8.681600445596856e-06   0.00013064748753123263
-6.609679233432995e-05   8.681600445596856e-06   0.00013064748753123263
-6.609679233432995e-05   8.681600445596856e-06   0.00013064748753123263
-6.609679233432995e-05   8.681600445596856e-06   0.00013064748753123263
-4.258391842536355e-05   5.704471796038474e-06   9.324564153935749e-05
-4.258391842536355e-05   5.704471796038474e-06   9.324564153935749e-05
-4.258391842536355e-05   5.704471796038474e-06   9.324564153935749e-05
-4.258391842536355e-05   5.704471796038474e-06   9.324564153935749e-05
-5.345239578515362e-05   9.025816432962214e-06   0.00010936696369018631
-5.345239578515362e-05   9.025816432962214e-06   0.00010936696369018631
-5.345239578515362e-05   9.025816432962214e-06   0.00010936696369018631
-5.345239578515362e-05   9.025816432962214e-06   0.00010936696369018631
-4.258391842536355e-05   8.681600445596856e-06   0.00013243376472096748
-4.258391842536355e-05   8.681600445596856e-06   0.00013243376472096748
-4.258391842536355e-05   8.681600445596856e-06   0.00013243376472096748
-4.258391842536355e-05   8.681600445596856e-06   0.00013243376472096748
-6.609679233432995e-05   5.7044717960376065e-06   9.145936434962199e-05
-6.609679233432995e-05   5.7044717960376065e-06   9.145936434962199e-05
-6.609679233432995e-05   5.7044717960376065e-06   9.145936434962199e-05
-6.609679233432995e-05   5.7044717960376065e-06   9.145936434962199e-05
-6.723490606177942e-05   5.924352204411502e-06   0.0001333806798005854
-6.723490606177942e-05   5.924352204411502e-06   0.0001333806798005854
-6.723490606177942e-05   5.924352204411502e-06   0.0001333806798005854
-6.723490606177942e-05   5.924352204411502e-06   0.0001333806798005854
-4.388042685229954e-05   3.121262059536424e-06   9.613840187171099e-05
-4.388042685229954e-05   3.121262059536424e-06   9.613840187171099e-05
-4.388042685229954e-05   3.121262059536424e-06   9.613840187171099e-05
-4.388042685229954e-05   3.121262059536424e-06   9.613840187171099e-05
-5.4483499561752506e-05   6.9089814418547835e-06   0.00011153755809140782
-5.4483499561752506e-05   6.9089814418547835e-06   0.00011153755809140782
-5.4483499561752506e-05   6.9089814418547835e-06   0.00011153755809140782
-5.4483499561752506e-05   6.9089814418547835e-06   0.00011153755809140782
-6.385149884193301e-05   2.140472238917803e-05   0.00011382937315791838
-6.385149884193301e-05   2.140472238917803e-05   0.00011382937315791838
-6.385149884193301e-05   2.140472238917803e-05   0.00011382937315791838
-6.385149884193301e-05   2.140472238917803e-05   0.00011382937315791838
-8.730529667763968e-05   1.4958671246042068e-05   7.087207941252531e-05
-8.730529667763968e-05   1.4958671246042068e-05   7.087207941252531e-05
-8.730529667763968e-05   1.4958671246042068e-05   7.087207941252531e-05
-8.730529667763968e-05   1.4958671246042068e-05   7.087207941252531e-05
-8.849393913185673e-05   1.8484439833077113e-05   0.00011046148893039797
-8.849393913185673e-05   1.8484439833077113e-05   0.00011046148893039797
-8.849393913185673e-05   1.8484439833077113e-05   0.00011046148893039797
-8.849393913185673e-05   1.8484439833077113e-05   0.00011046148893039797
-6.493458136194881e-05   1.2142652264143447e-05   7.500096518857878e-05
-6.493458136194881e-05   1.2142652264143447e-05   7.500096518857878e-05
-6.493458136194881e-05   1.2142652264143447e-05   7.500096518857878e-05
-6.493458136194881e-05   1.2142652264143447e-05   7.500096518857878e-05
-7.59852652595708e-05   1.6617306123404424e-05   9.07339793690576e-05
-7.59852652595708e-05   1.6617306123404424e-05   9.07339793690576e-05
-7.59852652595708e-05   1.6617306123404424e-05   9.07339793690576e-05
-7.59852652595708e-05   1.6617306123404424e-05   9.07339793690576e-05
-6.493458136194881e-05   1.8484439833077113e-05   0.00011426656147175756
-6.493458136194881e-05   1.8484439833077113e-05   0.00011426656147175756
-6.493458136194881e-05   1.8484439833077113e-05   0.00011426656147175756
-6.493458136194881e-05   1.8484439833077113e-05   0.00011426656147175756
-8.84939391318563e-05   1.2142652264143447e-05   7.119589264721843e-05
-8.84939391318563e-05   1.2142652264143447e-05   7.119589264721843e-05
-8.84939391318563e-05   1.2142652264143447e-05   7.119589264721843e-05
-8.84939391318563e-05   1.2142652264143447e-05   7.119589264721843e-05
-9.014508953524188e-05   1.5835262448834868e-05   0.00011414376537257232
-9.014508953524188e-05   1.5835262448834868e-05   0.00011414376537257232
-9.014508953524188e-05   1.5835262448834868e-05   0.00011414376537257232
-9.014508953524188e-05   1.5835262448834868e-05   0.00011414376537257232
-6.609679233432995e-05   9.641948976686632e-06   7.777925812100747e-05
-6.609679233432995e-05   9.641948976686632e-06   7.777925812100747e-05
-6.609679233432995e-05   9.641948976686632e-06   7.777925812100747e-05
-6.609679233432995e-05   9.641948976686632e-06   7.777925812100747e-05
-7.663203410461137e-05   1.453585065834366e-05   9.240165339581509e-05
-7.663203410461137e-05   1.453585065834366e-05   9.240165339581509e-05
-7.663203410461137e-05   1.453585065834366e-05   9.240165339581509e-05
-7.663203410461137e-05   1.453585065834366e-05   9.240165339581509e-05
-6.609679233432995e-05   1.5835262448834868e-05   0.00011785975345585944
-6.609679233432995e-05   1.5835262448834868e-05   0.00011785975345585944
-6.609679233432995e-05   1.5835262448834868e-05   0.00011785975345585944
-6.609679233432995e-05   1.5835262448834868e-05   0.00011785975345585944
-9.014508953524166e-05   9.641948976686632e-06   7.40632700377185e-05
-9.014508953524166e-05   9.641948976686632e-06   7.40632700377185e-05
-9.014508953524166e-05   9.641948976686632e-06   7.40632700377185e-05
-9.014508953524166e-05   9.641948976686632e-06   7.40632700377185e-05
-9.147074765530547e-05   1.3010371805445738e-05   0.00011825606697358527
-9.147074765530547e-05   1.3010371805445738e-05   0.00011825606697358527
-9.147074765530547e-05   1.3010371805445738e-05   0.00011825606697358527
-9.147074765530547e-05   1.3010371805445738e-05   0.00011825606697358527
-6.723490606177942e-05   7.099302086931852e-06   8.1409639482151e-05
-6.723490606177942e-05   7.099302086931852e-06   8.1409639482151e-05
-6.723490606177942e-05   7.099302086931852e-06   8.1409639482151e-05
-6.723490606177942e-05   7.099302086931852e-06   8.1409639482151e-05
-7.799492838915403e-05   1.256185170951489e-05   9.606548025422809e-05
-7.799492838915403e-05   1.256185170951489e-05   9.606548025422809e-05
-7.799492838915403e-05   1.256185170951489e-05   9.606548025422809e-05
-7.799492838915403e-05   1.256185170951489e-05   9.606548025422809e-05
-8.730529667763968e-05   2.623826329937063e-05   5.0027130402450354e-05
-8.730529667763968e-05   2.623826329937063e-05   5.0027130402450354e-05
-8.730529667763968e-05   2.623826329937063e-05   5.0027130402450354e-05
-8.730529667763968e-05   2.623826329937063e-05   5.0027130402450354e-05
-0.00010549546409975878   1.7590155179800053e-05   1.4521319827176114e-05
-0.00010549546409975878   1.7590155179800053e-05   1.4521319827176114e-05
-0.00010549546409975878   1.7590155179800053e-05   1.4521319827176114e-05
-0.00010549546409975878   1.7590155179800053e-05   1.4521319827176114e-05
-0.00011003437505657191   2.4731521878789374e-05   5.858061673187035e-05
-0.00011003437505657191   2.4731521878789374e-05   5.858061673187035e-05
-0.00011003437505657191   2.4731521878789374e-05   5.858061673187035e-05
-0.00011003437505657191   2.4731521878789374e-05   5.858061673187035e-05
-8.84939391318563e-05   1.571504425594908e-05   2.8089776764381354e-05
-8.84939391318563e-05   1.571504425594908e-05   2.8089776764381354e-05
-8.84939391318563e-05   1.571504425594908e-05   2.8089776764381354e-05
-8.84939391318563e-05   1.571504425594908e-05   2.8089776764381354e-05
-9.444329420635312e-05   2.087240436150512e-05   3.491095249187571e-05
-9.444329420635312e-05   2.087240436150512e-05   3.491095249187571e-05
-9.444329420635312e-05   2.087240436150512e-05   3.491095249187571e-05
-9.444329420635312e-05   2.087240436150512e-05   3.491095249187571e-05
-8.849393913185652e-05   2.4731521878789374e-05   6.399050330557375e-05
-8.849393913185652e-05   2.4731521878789374e-05   6.399050330557375e-05
-8.849393913185652e-05   2.4731521878789374e-05   6.399050330557375e-05
-8.849393913185652e-05   2.4731521878789374e-05   6.399050330557375e-05
-0.00011003437505657234   1.571504425594908e-05   2.267989019067751e-05
-0.00011003437505657234   1.571504425594908e-05   2.267989019067751e-05
-0.00011003437505657234   1.571504425594908e-05   2.267989019067751e-05
-0.00011003437505657234   1.571504425594908e-05   2.267989019067751e-05
-0.00011393764991085142   2.3484628961715007e-05   6.900701870399348e-05
-0.00011393764991085142   2.3484628961715007e-05   6.900701870399348e-05
-0.00011393764991085142   2.3484628961715007e-05   6.900701870399348e-05
-0.00011393764991085142   2.3484628961715007e-05   6.900701870399348e-05
-9.014508953524166e-05   1.4431582709317076e-05   3.478457916274765e-05
-9.014508953524166e-05   1.4431582709317076e-05   3.478457916274765e-05
-9.014508953524166e-05   1.4431582709317076e-05   3.478457916274765e-05
-9.014508953524166e-05   1.4431582709317076e-05   3.478457916274765e-05
-9.827817316506414e-05   2.0128445595908595e-05   4.4921600813832997e-05
-9.827817316506414e-05   2.0128445595908595e-05   4.4921600813832997e-05
-9.827817316506414e-05   2.0128445595908595e-05   4.4921600813832997e-05
-9.827817316506414e-05   2.0128445595908595e-05   4.4921600813832997e-05
-9.014508953524166e-05   2.348462896171414e-05   7.443884645543008e-05
-9.014508953524166e-05   2.348462896171414e-05   7.443884645543008e-05
-9.014508953524166e-05   2.348462896171414e-05   7.443884645543008e-05
-9.014508953524166e-05   2.348462896171414e-05   7.443884645543008e-05
-0.00011393764991085228   1.4431582709317943e-05   2.9352751411309205e-05
-0.00011393764991085228   1.4431582709317943e-05   2.9352751411309205e-05
-0.00011393764991085228   1.4431582709317943e-05   2.9352751411309205e-05
-0.00011393764991085228   1.4431582709317943e-05   2.9352751411309205e-05
-0.00011892202666192618   2.011278318195947e-05   8.789301801426751e-05
-0.00011892202666192618   2.011278318195947e-05   8.789301801426751e-05
-0.00011892202666192618   2.011278318195947e-05   8.789301801426751e-05
-0.00011892202666192618   2.011278318195947e-05   8.789301801426751e-05
-9.147074765530525e-05   1.150564358290418e-05   4.730517009599814e-05
-9.147074765530525e-05   1.150564358290418e-05   4.730517009599814e-05
-9.147074765530525e-05   1.150564358290418e-05   4.730517009599814e-05
-9.147074765530525e-05   1.150564358290418e-05   4.730517009599814e-05
-9.939287037774461e-05   1.8730827590757865e-05   5.6173597562018604e-05
-9.939287037774461e-05   1.8730827590757865e-05   5.6173597562018604e-05
-9.939287037774461e-05   1.8730827590757865e-05   5.6173597562018604e-05
-9.939287037774461e-05   1.8730827590757865e-05   5.6173597562018604e-05
-4.52367055067196e-05   8.13284268802103e-06   5.133274283130847e-05
-4.52367055067196e-05   8.13284268802103e-06   5.133274283130847e-05
-4.52367055067196e-05   8.13284268802103e-06   5.133274283130847e-05
-4.52367055067196e-05   8.13284268802103e-06   5.133274283130847e-05
-4.8576025155260176e-05   1.5198336081931937e-05   5.000650612008769e-05
-4.8576025155260176e-05   1.5198336081931937e-05   5.000650612008769e-05
-4.8576025155260176e-05   1.5198336081931937e-05   5.000650612008769e-05
-4.8576025155260176e-05   1.5198336081931937e-05   5.000650612008769e-05
-4.978033552252334e-05   5.561956811619799e-06   5.538754954226722e-05
-4.978033552252334e-05   5.561956811619799e-06   5.538754954226722e-05
-4.978033552252334e-05   5.561956811619799e-06   5.538754954226722e-05
-4.978033552252334e-05   5.561956811619799e-06   5.538754954226722e-05
-5.03934220012281e-05   1.1906425258663682e-05   5.2602679271882675e-05
-5.03934220012281e-05   1.1906425258663682e-05   5.2602679271882675e-05
-5.03934220012281e-05   1.1906425258663682e-05   5.2602679271882675e-05
-5.03934220012281e-05   1.1906425258663682e-05   5.2602679271882675e-05
-4.726521747117019e-05   9.550563554921142e-06   4.880252207736476e-05
-4.726521747117019e-05   9.550563554921142e-06   4.880252207736476e-05
-4.726521747117019e-05   9.550563554921142e-06   4.880252207736476e-05
-4.726521747117019e-05   9.550563554921142e-06   4.880252207736476e-05
-5.0393422001228155e-05   5.561956811619799e-06   5.158086847404037e-05
-5.0393422001228155e-05   5.561956811619799e-06   5.158086847404037e-05
-5.0393422001228155e-05   5.561956811619799e-06   5.158086847404037e-05
-5.0393422001228155e-05   5.561956811619799e-06   5.158086847404037e-05
-4.978033552252334e-05   1.1906425258663682e-05   5.640936034010833e-05
-4.978033552252334e-05   1.1906425258663682e-05   5.640936034010833e-05
-4.978033552252334e-05   1.1906425258663682e-05   5.640936034010833e-05
-4.978033552252334e-05   1.1906425258663682e-05   5.640936034010833e-05
-5.1345139225155687e-05   4.1344471175359596e-06   5.728109498493112e-05
-5.1345139225155687e-05   4.1344471175359596e-06   5.728109498493112e-05
-5.1345139225155687e-05   4.1344471175359596e-06   5.728109498493112e-05
-5.1345139225155687e-05   4.1344471175359596e-06   5.728109498493112e-05
-5.5398421178744076e-05   9.617924636371334e-06   6.074647839627624e-05
-5.5398421178744076e-05   9.617924636371334e-06   6.074647839627624e-05
-5.5398421178744076e-05   9.617924636371334e-06   6.074647839627624e-05
-5.5398421178744076e-05   9.617924636371334e-06   6.074647839627624e-05
-5.033953006996934e-05   8.126861436919854e-06   5.320963113465411e-05
-5.033953006996934e-05   8.126861436919854e-06   5.320963113465411e-05
-5.033953006996934e-05   8.126861436919854e-06   5.320963113465411e-05
-5.033953006996934e-05   8.126861436919854e-06   5.320963113465411e-05
-5.5398421178744185e-05   4.1344471175359596e-06   5.3991008473628244e-05
-5.5398421178744185e-05   4.1344471175359596e-06   5.3991008473628244e-05
-5.5398421178744185e-05   4.1344471175359596e-06   5.3991008473628244e-05
-5.5398421178744185e-05   4.1344471175359596e-06   5.3991008473628244e-05
-5.1345139225155687e-05   9.617924636371334e-06   6.403656490757727e-05
-5.1345139225155687e-05   9.617924636371334e-06   6.403656490757727e-05
-5.1345139225155687e-05   9.617924636371334e-06   6.403656490757727e-05
-5.1345139225155687e-05   9.617924636371334e-06   6.403656490757727e-05
-5.2324764499756275e-05   1.0948207688080483e-06   6.320361916303894e-05
-5.2324764499756275e-05   1.0948207688080483e-06   6.320361916303894e-05
-5.2324764499756275e-05   1.0948207688080483e-06   6.320361916303894e-05
-5.2324764499756275e-05   1.0948207688080483e-06   6.320361916303894e-05
-6.07208029375976e-05   3.982062248149374e-06   7.546467167183558e-05
-6.07208029375976e-05   3.982062248149374e-06   7.546467167183558e-05
-6.07208029375976e-05   3.982062248149374e-06   7.546467167183558e-05
-6.07208029375976e-05   3.982062248149374e-06   7.546467167183558e-05
-5.244738260758263e-05   6.3634477630442055e-06   6.024680647953823e-05
-5.244738260758263e-05   6.3634477630442055e-06   6.024680647953823e-05
-5.244738260758263e-05   6.3634477630442055e-06   6.024680647953823e-05
-5.244738260758263e-05   6.3634477630442055e-06   6.024680647953823e-05
-4.857602515526012e-05   9.317997533966893e-06   0.00010310069709420361
-4.857602515526012e-05   9.317997533966893e-06   0.00010310069709420361
-4.857602515526012e-05   9.317997533966893e-06   0.00010310069709420361
-4.857602515526012e-05   9.317997533966893e-06   0.00010310069709420361
-4.869128763304435e-05   3.925650576378035e-06   9.967318479000989e-05
-4.869128763304435e-05   3.925650576378035e-06   9.967318479000989e-05
-4.869128763304435e-05   3.925650576378035e-06   9.967318479000989e-05
-4.869128763304435e-05   3.925650576378035e-06   9.967318479000989e-05
-4.903938969134925e-05   6.440323151091741e-06   9.921132708044962e-05
-4.903938969134925e-05   6.440323151091741e-06   9.921132708044962e-05
-4.903938969134925e-05   6.440323151091741e-06   9.921132708044962e-05
-4.903938969134925e-05   6.440323151091741e-06   9.921132708044962e-05
-4.978033552252334e-05   1.906042294779961e-06   0.00010316680531286015
-4.978033552252334e-05   1.906042294779961e-06   0.00010316680531286015
-4.978033552252334e-05   1.906042294779961e-06   0.00010316680531286015
-4.978033552252334e-05   1.906042294779961e-06   0.00010316680531286015
-4.8859698032227276e-05   4.782437022518918e-06   9.990657265905698e-05
-4.8859698032227276e-05   4.782437022518918e-06   9.990657265905698e-05
-4.8859698032227276e-05   4.782437022518918e-06   9.990657265905698e-05
-4.8859698032227276e-05   4.782437022518918e-06   9.990657265905698e-05
-4.9780335522523286e-05   6.4403231510926084e-06   0.00010193189559423504
-4.9780335522523286e-05   6.4403231510926084e-06   0.00010193189559423504
-4.9780335522523286e-05   6.4403231510926084e-06   0.00010193189559423504
-4.9780335522523286e-05   6.4403231510926084e-06   0.00010193189559423504
-4.903938969134925e-05   1.906042294779961e-06   0.00010044623679907288
-4.903938969134925e-05   1.906042294779961e-06   0.00010044623679907288
-4.903938969134925e-05   1.906042294779961e-06   0.00010044623679907288
-4.903938969134925e-05   1.906042294779961e-06   0.00010044623679907288
-4.9475415291087865e-05   3.7727952148236543e-06   0.00010064296903653479
-4.9475415291087865e-05   3.7727952148236543e-06   0.00010064296903653479
-4.9475415291087865e-05   3.7727952148236543e-06   0.00010064296903653479
-4.9475415291087865e-05   3.7727952148236543e-06   0.00010064296903653479
-5.1345139225155687e-05   -4.5744005839308544e-07   0.00010629731675724358
-5.1345139225155687e-05   -4.5744005839308544e-07   0.00010629731675724358
-5.1345139225155687e-05   -4.5744005839308544e-07   0.00010629731675724358
-5.1345139225155687e-05   -4.5744005839308544e-07   0.00010629731675724358
-4.929142411451339e-05   3.0978667951691435e-06   0.00010074127412736762
-4.929142411451339e-05   3.0978667951691435e-06   0.00010074127412736762
-4.929142411451339e-05   3.0978667951691435e-06   0.00010074127412736762
-4.929142411451339e-05   3.0978667951691435e-06   0.00010074127412736762
-5.1345139225155687e-05   3.7727952148236543e-06   0.00010318111020046284
-5.1345139225155687e-05   3.7727952148236543e-06   0.00010318111020046284
-5.1345139225155687e-05   3.7727952148236543e-06   0.00010318111020046284
-5.1345139225155687e-05   3.7727952148236543e-06   0.00010318111020046284
-4.9475415291087756e-05   -4.5744005839308544e-07   0.00010375917559331325
-4.9475415291087756e-05   -4.5744005839308544e-07   0.00010375917559331325
-4.9475415291087756e-05   -4.5744005839308544e-07   0.00010375917559331325
-4.9475415291087756e-05   -4.5744005839308544e-07   0.00010375917559331325
-4.977889285257518e-05   8.709808471726171e-07   0.0001036082383918716
-4.977889285257518e-05   8.709808471726171e-07   0.0001036082383918716
-4.977889285257518e-05   8.709808471726171e-07   0.0001036082383918716
-4.977889285257518e-05   8.709808471726171e-07   0.0001036082383918716
-5.232476449975625e-05   -3.576546137571291e-06   0.00011051987399468587
-5.232476449975625e-05   -3.576546137571291e-06   0.00011051987399468587
-5.232476449975625e-05   -3.576546137571291e-06   0.00011051987399468587
-5.232476449975625e-05   -3.576546137571291e-06   0.00011051987399468587
-4.999586974595406e-05   1.105199599080696e-06   0.0001038293352963554
-4.999586974595406e-05   1.105199599080696e-06   0.0001038293352963554
-4.999586974595406e-05   1.105199599080696e-06   0.0001038293352963554
-4.999586974595406e-05   1.105199599080696e-06   0.0001038293352963554
-4.8691287633044564e-05   1.1100305535388655e-05   0.00011376343661097981
-4.8691287633044564e-05   1.1100305535388655e-05   0.00011376343661097981
-4.8691287633044564e-05   1.1100305535388655e-05   0.00011376343661097981
-4.8691287633044564e-05   1.1100305535388655e-05   0.00011376343661097981
-5.1995010379798576e-05   1.0804033993751933e-06   0.00010224529075144814
-5.1995010379798576e-05   1.0804033993751933e-06   0.00010224529075144814
-5.1995010379798576e-05   1.0804033993751933e-06   0.00010224529075144814
-5.1995010379798576e-05   1.0804033993751933e-06   0.00010224529075144814
-5.2087722744415454e-05   8.424719913403128e-06   0.00010793914328442126
-5.2087722744415454e-05   8.424719913403128e-06   0.00010793914328442126
-5.2087722744415454e-05   8.424719913403128e-06   0.00010793914328442126
-5.2087722744415454e-05   8.424719913403128e-06   0.00010793914328442126
-4.903938969134925e-05   -6.389474148998583e-07   0.00010829678859295886
-4.903938969134925e-05   -6.389474148998583e-07   0.00010829678859295886
-4.903938969134925e-05   -6.389474148998583e-07   0.00010829678859295886
-4.903938969134925e-05   -6.389474148998583e-07   0.00010829678859295886
-5.036113512476518e-05   4.830129219028645e-06   0.00010721825166829543
-5.036113512476518e-05   4.830129219028645e-06   0.00010721825166829543
-5.036113512476518e-05   4.830129219028645e-06   0.00010721825166829543
-5.036113512476518e-05   4.830129219028645e-06   0.00010721825166829543
-4.903938969134925e-05   8.42471991340226e-06   0.00011337734368140192
-4.903938969134925e-05   8.42471991340226e-06   0.00011337734368140192
-4.903938969134925e-05   8.42471991340226e-06   0.00011337734368140192
-4.903938969134925e-05   8.42471991340226e-06   0.00011337734368140192
-5.208772274441524e-05   -6.389474148998583e-07   0.00010285858819597765
-5.208772274441524e-05   -6.389474148998583e-07   0.00010285858819597765
-5.208772274441524e-05   -6.389474148998583e-07   0.00010285858819597765
-5.208772274441524e-05   -6.389474148998583e-07   0.00010285858819597765
-5.228421788929568e-05   5.704471796038474e-06   0.00010966834931409528
-5.228421788929568e-05   5.704471796038474e-06   0.00010966834931409528
-5.228421788929568e-05   5.704471796038474e-06   0.00010966834931409528
-5.228421788929568e-05   5.704471796038474e-06   0.00010966834931409528
-4.9475415291087865e-05   -2.698826610786527e-06   0.00011002899069450936
-4.9475415291087865e-05   -2.698826610786527e-06   0.00011002899069450936
-4.9475415291087865e-05   -2.698826610786527e-06   0.00011002899069450936
-4.9475415291087865e-05   -2.698826610786527e-06   0.00011002899069450936
-5.0354949681819796e-05   3.12139469167607e-06   0.00010800274856424927
-5.0354949681819796e-05   3.12139469167607e-06   0.00010800274856424927
-5.0354949681819796e-05   3.12139469167607e-06   0.00010800274856424927
-5.0354949681819796e-05   3.12139469167607e-06   0.00010800274856424927
-4.9475415291087865e-05   5.7044717960376065e-06   0.0001147103283581888
-4.9475415291087865e-05   5.7044717960376065e-06   0.0001147103283581888
-4.9475415291087865e-05   5.7044717960376065e-06   0.0001147103283581888
-4.9475415291087865e-05   5.7044717960376065e-06   0.0001147103283581888
-5.228421788929546e-05   -2.6988266107869606e-06   0.00010498701165041454
-5.228421788929546e-05   -2.6988266107869606e-06   0.00010498701165041454
-5.228421788929546e-05   -2.6988266107869606e-06   0.00010498701165041454
-5.228421788929546e-05   -2.6988266107869606e-06   0.00010498701165041454
-5.2395977327005135e-05   3.121262059536424e-06   0.00011273399293107358
-5.2395977327005135e-05   3.121262059536424e-06   0.00011273399293107358
-5.2395977327005135e-05   3.121262059536424e-06   0.00011273399293107358
-5.2395977327005135e-05   3.121262059536424e-06   0.00011273399293107358
-4.9778892852575074e-05   -4.775655570390773e-06   0.00011311033605164575
-4.9778892852575074e-05   -4.775655570390773e-06   0.00011311033605164575
-4.9778892852575074e-05   -4.775655570390773e-06   0.00011311033605164575
-4.9778892852575074e-05   -4.775655570390773e-06   0.00011311033605164575
-5.043058627748426e-05   1.3628373175152142e-06   0.00011051339602708159
-5.043058627748426e-05   1.3628373175152142e-06   0.00011051339602708159
-5.043058627748426e-05   1.3628373175152142e-06   0.00011051339602708159
-5.043058627748426e-05   1.3628373175152142e-06   0.00011051339602708159
-5.1995010379798576e-05   1.4958671246042068e-05   9.252878504662941e-05
-5.1995010379798576e-05   1.4958671246042068e-05   9.252878504662941e-05
-5.1995010379798576e-05   1.4958671246042068e-05   9.252878504662941e-05
-5.1995010379798576e-05   1.4958671246042068e-05   9.252878504662941e-05
-5.696197534806459e-05   4.889169326510821e-06   7.82088089478011e-05
-5.696197534806459e-05   4.889169326510821e-06   7.82088089478011e-05
-5.696197534806459e-05   4.889169326510821e-06   7.82088089478011e-05
-5.696197534806459e-05   4.889169326510821e-06   7.82088089478011e-05
-5.7019195297051484e-05   1.2142652264143447e-05   8.736230828680896e-05
-5.7019195297051484e-05   1.2142652264143447e-05   8.736230828680896e-05
-5.7019195297051484e-05   1.2142652264143447e-05   8.736230828680896e-05
-5.7019195297051484e-05   1.2142652264143447e-05   8.736230828680896e-05
-5.2087722744415454e-05   2.6285349823654443e-06   8.485165773481533e-05
-5.2087722744415454e-05   2.6285349823654443e-06   8.485165773481533e-05
-5.2087722744415454e-05   2.6285349823654443e-06   8.485165773481533e-05
-5.2087722744415454e-05   2.6285349823654443e-06   8.485165773481533e-05
-5.4372429078201586e-05   8.871170676843024e-06   8.491392020777179e-05
-5.4372429078201586e-05   8.871170676843024e-06   8.491392020777179e-05
-5.4372429078201586e-05   8.871170676843024e-06   8.491392020777179e-05
-5.4372429078201586e-05   8.871170676843024e-06   8.491392020777179e-05
-5.2087722744415454e-05   1.2142652264143447e-05   9.307077865587437e-05
-5.2087722744415454e-05   1.2142652264143447e-05   9.307077865587437e-05
-5.2087722744415454e-05   1.2142652264143447e-05   9.307077865587437e-05
-5.2087722744415454e-05   1.2142652264143447e-05   9.307077865587437e-05
-5.7019195297051484e-05   2.6285349823650106e-06   7.914318736574798e-05
-5.7019195297051484e-05   2.6285349823650106e-06   7.914318736574798e-05
-5.7019195297051484e-05   2.6285349823650106e-06   7.914318736574798e-05
-5.7019195297051484e-05   2.6285349823650106e-06   7.914318736574798e-05
-5.7608004403407985e-05   9.641948976685764e-06   9.062030502789489e-05
-5.7608004403407985e-05   9.641948976685764e-06   9.062030502789489e-05
-5.7608004403407985e-05   9.641948976685764e-06   9.062030502789489e-05
-5.7608004403407985e-05   9.641948976685764e-06   9.062030502789489e-05
-5.228421788929546e-05   6.95385547375485e-07   8.71152655619596e-05
-5.228421788929546e-05   6.95385547375485e-07   8.71152655619596e-05
-5.228421788929546e-05   6.95385547375485e-07   8.71152655619596e-05
-5.228421788929546e-05   6.95385547375485e-07   8.71152655619596e-05
-5.4184531945429635e-05   7.007651406865795e-06   8.64950961398177e-05
-5.4184531945429635e-05   7.007651406865795e-06   8.64950961398177e-05
-5.4184531945429635e-05   7.007651406865795e-06   8.64950961398177e-05
-5.4184531945429635e-05   7.007651406865795e-06   8.64950961398177e-05
-5.228421788929568e-05   9.641948976685764e-06   9.598824308547837e-05
-5.228421788929568e-05   9.641948976685764e-06   9.598824308547837e-05
-5.228421788929568e-05   9.641948976685764e-06   9.598824308547837e-05
-5.228421788929568e-05   9.641948976685764e-06   9.598824308547837e-05
-5.7608004403407985e-05   6.95385547375485e-07   8.174732750437307e-05
-5.7608004403407985e-05   6.95385547375485e-07   8.174732750437307e-05
-5.7608004403407985e-05   6.95385547375485e-07   8.174732750437307e-05
-5.7608004403407985e-05   6.95385547375485e-07   8.174732750437307e-05
-5.794909255415776e-05   7.099302086931852e-06   9.467650937970262e-05
-5.794909255415776e-05   7.099302086931852e-06   9.467650937970262e-05
-5.794909255415776e-05   7.099302086931852e-06   9.467650937970262e-05
-5.794909255415776e-05   7.099302086931852e-06   9.467650937970262e-05
-5.2395977327005135e-05   -1.2516566609611403e-06   9.043189258318334e-05
-5.2395977327005135e-05   -1.2516566609611403e-06   9.043189258318334e-05
-5.2395977327005135e-05   -1.2516566609611403e-06   9.043189258318334e-05
-5.2395977327005135e-05   -1.2516566609611403e-06   9.043189258318334e-05
-5.44215858123701e-05   5.346765751002361e-06   8.984885327827791e-05
-5.44215858123701e-05   5.346765751002361e-06   8.984885327827791e-05
-5.44215858123701e-05   5.346765751002361e-06   8.984885327827791e-05
-5.44215858123701e-05   5.346765751002361e-06   8.984885327827791e-05
-5.696197534806437e-05   1.7590155179800053e-05   3.532518918130398e-05
-5.696197534806437e-05   1.7590155179800053e-05   3.532518918130398e-05
-5.696197534806437e-05   1.7590155179800053e-05   3.532518918130398e-05
-5.696197534806437e-05   1.7590155179800053e-05   3.532518918130398e-05
-5.574518423331811e-05   7.997714255108222e-06   3.159770981773255e-05
-5.574518423331811e-05   7.997714255108222e-06   3.159770981773255e-05
-5.574518423331811e-05   7.997714255108222e-06   3.159770981773255e-05
-5.574518423331811e-05   7.997714255108222e-06   3.159770981773255e-05
-5.860918661061134e-05   1.571504425594908e-05   3.867048509518297e-05
-5.860918661061134e-05   1.571504425594908e-05   3.867048509518297e-05
-5.860918661061134e-05   1.571504425594908e-05   3.867048509518297e-05
-5.860918661061134e-05   1.571504425594908e-05   3.867048509518297e-05
-5.7019195297051484e-05   6.405532074635345e-06   4.160620688137143e-05
-5.7019195297051484e-05   6.405532074635345e-06   4.160620688137143e-05
-5.7019195297051484e-05   6.405532074635345e-06   4.160620688137143e-05
-5.7019195297051484e-05   6.405532074635345e-06   4.160620688137143e-05
-5.5234173569883435e-05   1.235310350873424e-05   3.5062627808965605e-05
-5.5234173569883435e-05   1.235310350873424e-05   3.5062627808965605e-05
-5.5234173569883435e-05   1.235310350873424e-05   3.5062627808965605e-05
-5.5234173569883435e-05   1.235310350873424e-05   3.5062627808965605e-05
-5.701919529705105e-05   1.571504425594908e-05   4.425619240396982e-05
-5.701919529705105e-05   1.571504425594908e-05   4.425619240396982e-05
-5.701919529705105e-05   1.571504425594908e-05   4.425619240396982e-05
-5.701919529705105e-05   1.571504425594908e-05   4.425619240396982e-05
-5.860918661061134e-05   6.405532074635345e-06   3.602049957258284e-05
-5.860918661061134e-05   6.405532074635345e-06   3.602049957258284e-05
-5.860918661061134e-05   6.405532074635345e-06   3.602049957258284e-05
-5.860918661061134e-05   6.405532074635345e-06   3.602049957258284e-05
-6.112792773289724e-05   1.4431582709317943e-05   4.590017269126383e-05
-6.112792773289724e-05   1.4431582709317943e-05   4.590017269126383e-05
-6.112792773289724e-05   1.4431582709317943e-05   4.590017269126383e-05
-6.112792773289724e-05   1.4431582709317943e-05   4.590017269126383e-05
-5.76080044034082e-05   5.3625136065523285e-06   4.547507527043974e-05
-5.76080044034082e-05   5.3625136065523285e-06   4.547507527043974e-05
-5.76080044034082e-05   5.3625136065523285e-06   4.547507527043974e-05
-5.76080044034082e-05   5.3625136065523285e-06   4.547507527043974e-05
-5.72620023841315e-05   1.1411188358591111e-05   4.126920038708716e-05
-5.72620023841315e-05   1.1411188358591111e-05   4.126920038708716e-05
-5.72620023841315e-05   1.1411188358591111e-05   4.126920038708716e-05
-5.72620023841315e-05   1.1411188358591111e-05   4.126920038708716e-05
-5.7608004403407985e-05   1.4431582709317943e-05   5.134161415292198e-05
-5.7608004403407985e-05   1.4431582709317943e-05   5.134161415292198e-05
-5.7608004403407985e-05   1.4431582709317943e-05   5.134161415292198e-05
-5.7608004403407985e-05   1.4431582709317943e-05   5.134161415292198e-05
-6.112792773289724e-05   5.3625136065523285e-06   4.0033633808780715e-05
-6.112792773289724e-05   5.3625136065523285e-06   4.0033633808780715e-05
-6.112792773289724e-05   5.3625136065523285e-06   4.0033633808780715e-05
-6.112792773289724e-05   5.3625136065523285e-06   4.0033633808780715e-05
-6.490377150160202e-05   1.150564358290418e-05   5.9187538547230724e-05
-6.490377150160202e-05   1.150564358290418e-05   5.9187538547230724e-05
-6.490377150160202e-05   1.150564358290418e-05   5.9187538547230724e-05
-6.490377150160202e-05   1.150564358290418e-05   5.9187538547230724e-05
-5.7949092554157545e-05   3.287071453856108e-06   5.2527550245584035e-05
-5.7949092554157545e-05   3.287071453856108e-06   5.2527550245584035e-05
-5.7949092554157545e-05   3.287071453856108e-06   5.2527550245584035e-05
-5.7949092554157545e-05   3.287071453856108e-06   5.2527550245584035e-05
-5.794455954717095e-05   1.0308749015435284e-05   4.830698869698726e-05
-5.794455954717095e-05   1.0308749015435284e-05   4.830698869698726e-05
-5.794455954717095e-05   1.0308749015435284e-05   4.830698869698726e-05
-5.794455954717095e-05   1.0308749015435284e-05   4.830698869698726e-05
-0.00011485953438486175   1.5198336081931503e-05   4.260836927362662e-05
-0.00011485953438486175   1.5198336081931503e-05   4.260836927362662e-05
-0.00011485953438486175   1.5198336081931503e-05   4.260836927362662e-05
-0.00011485953438486175   1.5198336081931503e-05   4.260836927362662e-05
-7.711305800571535e-05   2.1097716753349033e-05   0.00010905879164172091
-7.711305800571535e-05   2.1097716753349033e-05   0.00010905879164172091
-7.711305800571535e-05   2.1097716753349033e-05   0.00010905879164172091
-7.711305800571535e-05   2.1097716753349033e-05   0.00010905879164172091
-7.704612203391595e-05   1.1906425258663682e-05   4.880685210054657e-05
-7.704612203391595e-05   1.1906425258663682e-05   4.880685210054657e-05
-7.704612203391595e-05   1.1906425258663682e-05   4.880685210054657e-05
-7.704612203391595e-05   1.1906425258663682e-05   4.880685210054657e-05
-0.00012627665618642278   8.76351772419355e-06   0.00013274348687540772
-0.00012627665618642278   8.76351772419355e-06   0.00013274348687540772
-0.00012627665618642278   8.76351772419355e-06   0.00013274348687540772
-0.00012627665618642278   8.76351772419355e-06   0.00013274348687540772
-9.373332210231504e-05   1.255248828419377e-05   7.623121439922814e-05
-9.373332210231504e-05   1.255248828419377e-05   7.623121439922814e-05
-9.373332210231504e-05   1.255248828419377e-05   7.623121439922814e-05
-9.373332210231504e-05   1.255248828419377e-05   7.623121439922814e-05
-0.00012627665618642302   1.1906425258664116e-05   5.0692596621228735e-05
-0.00012627665618642302   1.1906425258664116e-05   5.0692596621228735e-05
-0.00012627665618642302   1.1906425258664116e-05   5.0692596621228735e-05
-0.00012627665618642302   1.1906425258664116e-05   5.0692596621228735e-05
-7.704612203391595e-05   8.76351772419355e-06   0.00013085774235472572
-7.704612203391595e-05   8.76351772419355e-06   0.00013085774235472572
-7.704612203391595e-05   8.76351772419355e-06   0.00013085774235472572
-7.704612203391595e-05   8.76351772419355e-06   0.00013085774235472572
-7.802077767275271e-05   9.617924636371334e-06   5.4783668884052185e-05
-7.802077767275271e-05   9.617924636371334e-06   5.4783668884052185e-05
-7.802077767275271e-05   9.617924636371334e-06   5.4783668884052185e-05
-7.802077767275271e-05   9.617924636371334e-06   5.4783668884052185e-05
-0.00012665184915564524   6.365444372070754e-06   0.00013778694284745304
-0.00012665184915564524   6.365444372070754e-06   0.00013778694284745304
-0.00012665184915564524   6.365444372070754e-06   0.00013778694284745304
-0.00012665184915564524   6.365444372070754e-06   0.00013778694284745304
-9.98988686489234e-05   7.921823275800106e-06   9.2264814660678e-05
-9.98988686489234e-05   7.921823275800106e-06   9.2264814660678e-05
-9.98988686489234e-05   7.921823275800106e-06   9.2264814660678e-05
-9.98988686489234e-05   7.921823275800106e-06   9.2264814660678e-05
-0.00012665184915564543   9.617924636371334e-06   5.673515704263262e-05
-0.00012665184915564543   9.617924636371334e-06   5.673515704263262e-05
-0.00012665184915564543   9.617924636371334e-06   5.673515704263262e-05
-0.00012665184915564543   9.617924636371334e-06   5.673515704263262e-05
-7.80207776727526e-05   6.365444372070754e-06   0.00013583545468887266
-7.80207776727526e-05   6.365444372070754e-06   0.00013583545468887266
-7.80207776727526e-05   6.365444372070754e-06   0.00013583545468887266
-7.80207776727526e-05   6.365444372070754e-06   0.00013583545468887266
-7.711270115799286e-05   3.982062248149374e-06   6.525251044954398e-05
-7.711270115799286e-05   3.982062248149374e-06   6.525251044954398e-05
-7.711270115799286e-05   3.982062248149374e-06   6.525251044954398e-05
-7.711270115799286e-05   3.982062248149374e-06   6.525251044954398e-05
-0.00012790314371315925   -3.7872029730635914e-06   0.00015456480717421526
-0.00012790314371315925   -3.7872029730635914e-06   0.00015456480717421526
-0.00012790314371315925   -3.7872029730635914e-06   0.00015456480717421526
-0.00012790314371315925   -3.7872029730635914e-06   0.00015456480717421526
-9.829668668302513e-05   3.93781996525875e-06   0.00010058569836099841
-9.829668668302513e-05   3.93781996525875e-06   0.00010058569836099841
-9.829668668302513e-05   3.93781996525875e-06   0.00010058569836099841
-9.829668668302513e-05   3.93781996525875e-06   0.00010058569836099841
-7.711305800571548e-05   3.925650576378035e-06   9.905008452095279e-05
-7.711305800571548e-05   3.925650576378035e-06   9.905008452095279e-05
-7.711305800571548e-05   3.925650576378035e-06   9.905008452095279e-05
-7.711305800571548e-05   3.925650576378035e-06   9.905008452095279e-05
-4.710897790272876e-05   -2.312705408812868e-05   0.00013282526189389344
-4.710897790272876e-05   -2.312705408812868e-05   0.00013282526189389344
-4.710897790272876e-05   -2.312705408812868e-05   0.00013282526189389344
-4.710897790272876e-05   -2.312705408812868e-05   0.00013282526189389344
-4.715585825169899e-05   1.906042294779961e-06   8.30969634498073e-05
-4.715585825169899e-05   1.906042294779961e-06   8.30969634498073e-05
-4.715585825169899e-05   1.906042294779961e-06   8.30969634498073e-05
-4.715585825169899e-05   1.906042294779961e-06   8.30969634498073e-05
-7.704612203391595e-05   -1.887284707770536e-05   0.00014538140337699417
-7.704612203391595e-05   -1.887284707770536e-05   0.00014538140337699417
-7.704612203391595e-05   -1.887284707770536e-05   0.00014538140337699417
-7.704612203391595e-05   -1.887284707770536e-05   0.00014538140337699417
-6.175834458315051e-05   -1.1423180972476576e-05   0.00011543197462924812
-6.175834458315051e-05   -1.1423180972476576e-05   0.00011543197462924812
-6.175834458315051e-05   -1.1423180972476576e-05   0.00011543197462924812
-6.175834458315051e-05   -1.1423180972476576e-05   0.00011543197462924812
-7.7046122033916e-05   1.906042294779961e-06   9.556429707329741e-05
-7.7046122033916e-05   1.906042294779961e-06   9.556429707329741e-05
-7.7046122033916e-05   1.906042294779961e-06   9.556429707329741e-05
-7.7046122033916e-05   1.906042294779961e-06   9.556429707329741e-05
-4.715585825169888e-05   -1.887284707770536e-05   0.00013291406975350292
-4.715585825169888e-05   -1.887284707770536e-05   0.00013291406975350292
-4.715585825169888e-05   -1.887284707770536e-05   0.00013291406975350292
-4.715585825169888e-05   -1.887284707770536e-05   0.00013291406975350292
-4.727201233883395e-05   -4.5744005839308544e-07   8.572547179585806e-05
-4.727201233883395e-05   -4.5744005839308544e-07   8.572547179585806e-05
-4.727201233883395e-05   -4.5744005839308544e-07   8.572547179585806e-05
-4.727201233883395e-05   -4.5744005839308544e-07   8.572547179585806e-05
-7.80207776727526e-05   -1.932235495482747e-05   0.00014829236295691524
-7.80207776727526e-05   -1.932235495482747e-05   0.00014829236295691524
-7.80207776727526e-05   -1.932235495482747e-05   0.00014829236295691524
-7.80207776727526e-05   -1.932235495482747e-05   0.00014829236295691524
-6.125822684263593e-05   -9.977054234506198e-06   0.00011474759780786084
-6.125822684263593e-05   -9.977054234506198e-06   0.00011474759780786084
-6.125822684263593e-05   -9.977054234506198e-06   0.00011474759780786084
-6.125822684263593e-05   -9.977054234506198e-06   0.00011474759780786084
-7.802077767275271e-05   -4.5744005839308544e-07   9.704442073371839e-05
-7.802077767275271e-05   -4.5744005839308544e-07   9.704442073371839e-05
-7.802077767275271e-05   -4.5744005839308544e-07   9.704442073371839e-05
-7.802077767275271e-05   -4.5744005839308544e-07   9.704442073371839e-05
-4.727201233883384e-05   -1.932235495482747e-05   0.0001369734140190547
-4.727201233883384e-05   -1.932235495482747e-05   0.0001369734140190547
-4.727201233883384e-05   -1.932235495482747e-05   0.0001369734140190547
-4.727201233883384e-05   -1.932235495482747e-05   0.0001369734140190547
-4.6727712712437666e-05   -3.576546137571291e-06   8.898653462891763e-05
-4.6727712712437666e-05   -3.576546137571291e-06   8.898653462891763e-05
-4.6727712712437666e-05   -3.576546137571291e-06   8.898653462891763e-05
-4.6727712712437666e-05   -3.576546137571291e-06   8.898653462891763e-05
-7.711270115799267e-05   -1.9557934897359523e-05   0.00014921701529404765
-7.711270115799267e-05   -1.9557934897359523e-05   0.00014921701529404765
-7.711270115799267e-05   -1.9557934897359523e-05   0.00014921701529404765
-7.711270115799267e-05   -1.9557934897359523e-05   0.00014921701529404765
-6.147002504312711e-05   -1.1243620822727618e-05   0.00011815729999115976
-6.147002504312711e-05   -1.1243620822727618e-05   0.00011815729999115976
-6.147002504312711e-05   -1.1243620822727618e-05   0.00011815729999115976
-6.147002504312711e-05   -1.1243620822727618e-05   0.00011815729999115976
-4.710897790272876e-05   1.0804033993751933e-06   9.140250896529502e-05
-4.710897790272876e-05   1.0804033993751933e-06   9.140250896529502e-05
-4.710897790272876e-05   1.0804033993751933e-06   9.140250896529502e-05
-4.710897790272876e-05   1.0804033993751933e-06   9.140250896529502e-05
-3.442502396243776e-05   -1.8059701357728145e-05   0.00010105836934485186
-3.442502396243776e-05   -1.8059701357728145e-05   0.00010105836934485186
-3.442502396243776e-05   -1.8059701357728145e-05   0.00010105836934485186
-3.442502396243776e-05   -1.8059701357728145e-05   0.00010105836934485186
-3.4063255999666536e-05   -6.389474148998583e-07   8.068902163987923e-05
-3.4063255999666536e-05   -6.389474148998583e-07   8.068902163987923e-05
-3.4063255999666536e-05   -6.389474148998583e-07   8.068902163987923e-05
-3.4063255999666536e-05   -6.389474148998583e-07   8.068902163987923e-05
-4.715585825169888e-05   -1.773643675458971e-05   0.00011276851899708128
-4.715585825169888e-05   -1.773643675458971e-05   0.00011276851899708128
-4.715585825169888e-05   -1.773643675458971e-05   0.00011276851899708128
-4.715585825169888e-05   -1.773643675458971e-05   0.00011276851899708128
-4.0430052040388916e-05   -9.140691753409258e-06   9.640139497752408e-05
-4.0430052040388916e-05   -9.140691753409258e-06   9.640139497752408e-05
-4.0430052040388916e-05   -9.140691753409258e-06   9.640139497752408e-05
-4.0430052040388916e-05   -9.140691753409258e-06   9.640139497752408e-05
-4.715585825169888e-05   -6.389474148998583e-07   9.094751524369306e-05
-4.715585825169888e-05   -6.389474148998583e-07   9.094751524369306e-05
-4.715585825169888e-05   -6.389474148998583e-07   9.094751524369306e-05
-4.715585825169888e-05   -6.389474148998583e-07   9.094751524369306e-05
-3.4063255999666536e-05   -1.773643675458971e-05   0.00010251002539326772
-3.4063255999666536e-05   -1.773643675458971e-05   0.00010251002539326772
-3.4063255999666536e-05   -1.773643675458971e-05   0.00010251002539326772
-3.4063255999666536e-05   -1.773643675458971e-05   0.00010251002539326772
-3.37346772748986e-05   -2.698826610786527e-06   8.264033635838313e-05
-3.37346772748986e-05   -2.698826610786527e-06   8.264033635838313e-05
-3.37346772748986e-05   -2.698826610786527e-06   8.264033635838313e-05
-3.37346772748986e-05   -2.698826610786527e-06   8.264033635838313e-05
-4.727201233883384e-05   -1.82904108419037e-05   0.00011455751200361219
-4.727201233883384e-05   -1.82904108419037e-05   0.00011455751200361219
-4.727201233883384e-05   -1.82904108419037e-05   0.00011455751200361219
-4.727201233883384e-05   -1.82904108419037e-05   0.00011455751200361219
-4.001864842736693e-05   -9.77658979485832e-06   9.736027952293811e-05
-4.001864842736693e-05   -9.77658979485832e-06   9.736027952293811e-05
-4.001864842736693e-05   -9.77658979485832e-06   9.736027952293811e-05
-4.001864842736693e-05   -9.77658979485832e-06   9.736027952293811e-05
-4.727201233883384e-05   -2.6988266107869606e-06   9.199528689705395e-05
-4.727201233883384e-05   -2.6988266107869606e-06   9.199528689705395e-05
-4.727201233883384e-05   -2.6988266107869606e-06   9.199528689705395e-05
-4.727201233883384e-05   -2.6988266107869606e-06   9.199528689705395e-05
-3.37346772748986e-05   -1.82904108419037e-05   0.00010520256146494229
-3.37346772748986e-05   -1.82904108419037e-05   0.00010520256146494229
-3.37346772748986e-05   -1.82904108419037e-05   0.00010520256146494229
-3.37346772748986e-05   -1.82904108419037e-05   0.00010520256146494229
-3.299714555461187e-05   -4.775655570391207e-06   8.56536217498597e-05
-3.299714555461187e-05   -4.775655570391207e-06   8.56536217498597e-05
-3.299714555461187e-05   -4.775655570391207e-06   8.56536217498597e-05
-3.299714555461187e-05   -4.775655570391207e-06   8.56536217498597e-05
-4.672771271243756e-05   -1.9095474115164235e-05   0.00011712979147309897
-4.672771271243756e-05   -1.9095474115164235e-05   0.00011712979147309897
-4.672771271243756e-05   -1.9095474115164235e-05   0.00011712979147309897
-4.672771271243756e-05   -1.9095474115164235e-05   0.00011712979147309897
-3.95336098532719e-05   -1.0691320639503402e-05   0.00010009712795576052
-3.95336098532719e-05   -1.0691320639503402e-05   0.00010009712795576052
-3.95336098532719e-05   -1.0691320639503402e-05   0.00010009712795576052
-3.95336098532719e-05   -1.0691320639503402e-05   0.00010009712795576052
-3.442502396243754e-05   4.889169326510821e-06   6.192366545910554e-05
-3.442502396243754e-05   4.889169326510821e-06   6.192366545910554e-05
-3.442502396243754e-05   4.889169326510821e-06   6.192366545910554e-05
-3.442502396243754e-05   4.889169326510821e-06   6.192366545910554e-05
-2.8427880191881976e-05   -7.38701119035309e-06   6.455319676657977e-05
-2.8427880191881976e-05   -7.38701119035309e-06   6.455319676657977e-05
-2.8427880191881976e-05   -7.38701119035309e-06   6.455319676657977e-05
-2.8427880191881976e-05   -7.38701119035309e-06   6.455319676657977e-05
-2.7754900940545968e-05   2.6285349823654443e-06   5.5903454077067555e-05
-2.7754900940545968e-05   2.6285349823654443e-06   5.5903454077067555e-05
-2.7754900940545968e-05   2.6285349823654443e-06   5.5903454077067555e-05
-2.7754900940545968e-05   2.6285349823654443e-06   5.5903454077067555e-05
-3.4063255999666536e-05   -8.669193520382873e-06   7.319601627725231e-05
-3.4063255999666536e-05   -8.669193520382873e-06   7.319601627725231e-05
-3.4063255999666536e-05   -8.669193520382873e-06   7.319601627725231e-05
-3.4063255999666536e-05   -8.669193520382873e-06   7.319601627725231e-05
-3.093754248345343e-05   -1.6813794640312824e-06   6.379380531642111e-05
-3.093754248345343e-05   -1.6813794640312824e-06   6.379380531642111e-05
-3.093754248345343e-05   -1.6813794640312824e-06   6.379380531642111e-05
-3.093754248345343e-05   -1.6813794640312824e-06   6.379380531642111e-05
-3.4063255999666536e-05   2.6285349823654443e-06   6.268209117871659e-05
-3.4063255999666536e-05   2.6285349823654443e-06   6.268209117871659e-05
-3.4063255999666536e-05   2.6285349823654443e-06   6.268209117871659e-05
-3.4063255999666536e-05   2.6285349823654443e-06   6.268209117871659e-05
-2.7754900940545968e-05   -8.669193520382873e-06   6.641737917560328e-05
-2.7754900940545968e-05   -8.669193520382873e-06   6.641737917560328e-05
-2.7754900940545968e-05   -8.669193520382873e-06   6.641737917560328e-05
-2.7754900940545968e-05   -8.669193520382873e-06   6.641737917560328e-05
-2.741559880976418e-05   6.953855473759187e-07   5.856380497345007e-05
-2.741559880976418e-05   6.953855473759187e-07   5.856380497345007e-05
-2.741559880976418e-05   6.953855473759187e-07   5.856380497345007e-05
-2.741559880976418e-05   6.953855473759187e-07   5.856380497345007e-05
-3.373467727489838e-05   -9.64592328008755e-06   7.530038771181788e-05
-3.373467727489838e-05   -9.64592328008755e-06   7.530038771181788e-05
-3.373467727489838e-05   -9.64592328008755e-06   7.530038771181788e-05
-3.373467727489838e-05   -9.64592328008755e-06   7.530038771181788e-05
-3.027225275697152e-05   -3.067652261031905e-06   6.558271757050281e-05
-3.027225275697152e-05   -3.067652261031905e-06   6.558271757050281e-05
-3.027225275697152e-05   -3.067652261031905e-06   6.558271757050281e-05
-3.027225275697152e-05   -3.067652261031905e-06   6.558271757050281e-05
-3.373467727489838e-05   6.953855473759187e-07   6.476859026992732e-05
-3.373467727489838e-05   6.953855473759187e-07   6.476859026992732e-05
-3.373467727489838e-05   6.953855473759187e-07   6.476859026992732e-05
-3.373467727489838e-05   6.953855473759187e-07   6.476859026992732e-05
-2.741559880976418e-05   -9.64592328008755e-06   6.909560241533997e-05
-2.741559880976418e-05   -9.64592328008755e-06   6.909560241533997e-05
-2.741559880976418e-05   -9.64592328008755e-06   6.909560241533997e-05
-2.741559880976418e-05   -9.64592328008755e-06   6.909560241533997e-05
-2.6894728534218593e-05   -1.2516566609611403e-06   6.190486067991123e-05
-2.6894728534218593e-05   -1.2516566609611403e-06   6.190486067991123e-05
-2.6894728534218593e-05   -1.2516566609611403e-06   6.190486067991123e-05
-2.6894728534218593e-05   -1.2516566609611403e-06   6.190486067991123e-05
-3.299714555461187e-05   -1.0932436960030614e-05   7.788402389334158e-05
-3.299714555461187e-05   -1.0932436960030614e-05   7.788402389334158e-05
-3.299714555461187e-05   -1.0932436960030614e-05   7.788402389334158e-05
-3.299714555461187e-05   -1.0932436960030614e-05   7.788402389334158e-05
-2.973429785172192e-05   -4.276813139683731e-06   6.845257009631877e-05
-2.973429785172192e-05   -4.276813139683731e-06   6.845257009631877e-05
-2.973429785172192e-05   -4.276813139683731e-06   6.845257009631877e-05
-2.973429785172192e-05   -4.276813139683731e-06   6.845257009631877e-05
-2.8427880191881976e-05   7.997714255108222e-06   1.3702322573733768e-05
-2.8427880191881976e-05   7.997714255108222e-06   1.3702322573733768e-05
-2.8427880191881976e-05   7.997714255108222e-06   1.3702322573733768e-05
-2.8427880191881976e-05   7.997714255108222e-06   1.3702322573733768e-05
-1.6017171628095964e-05   -8.648475470079964e-07   2.9069299765440608e-05
-1.6017171628095964e-05   -8.648475470079964e-07   2.9069299765440608e-05
-1.6017171628095964e-05   -8.648475470079964e-07   2.9069299765440608e-05
-1.6017171628095964e-05   -8.648475470079964e-07   2.9069299765440608e-05
-1.687795626470522e-05   6.405532074635345e-06   1.3809270771756622e-05
-1.687795626470522e-05   6.405532074635345e-06   1.3809270771756622e-05
-1.687795626470522e-05   6.405532074635345e-06   1.3809270771756622e-05
-1.687795626470522e-05   6.405532074635345e-06   1.3809270771756622e-05
-2.7754900940545968e-05   -1.1898059602557468e-06   3.6494714719092266e-05
-2.7754900940545968e-05   -1.1898059602557468e-06   3.6494714719092266e-05
-2.7754900940545968e-05   -1.1898059602557468e-06   3.6494714719092266e-05
-2.7754900940545968e-05   -1.1898059602557468e-06   3.6494714719092266e-05
-2.1504902032992452e-05   4.101812787388453e-06   2.2903078624585474e-05
-2.1504902032992452e-05   4.101812787388453e-06   2.2903078624585474e-05
-2.1504902032992452e-05   4.101812787388453e-06   2.2903078624585474e-05
-2.1504902032992452e-05   4.101812787388453e-06   2.2903078624585474e-05
-2.7754900940545968e-05   6.405532074635345e-06   1.8366473592689933e-05
-2.7754900940545968e-05   6.405532074635345e-06   1.8366473592689933e-05
-2.7754900940545968e-05   6.405532074635345e-06   1.8366473592689933e-05
-2.7754900940545968e-05   6.405532074635345e-06   1.8366473592689933e-05
-1.687795626470522e-05   -1.1898059602557468e-06   3.1937511898158305e-05
-1.687795626470522e-05   -1.1898059602557468e-06   3.1937511898158305e-05
-1.687795626470522e-05   -1.1898059602557468e-06   3.1937511898158305e-05
-1.687795626470522e-05   -1.1898059602557468e-06   3.1937511898158305e-05
-1.757641607238276e-05   5.3625136065523285e-06   1.8093025916277213e-05
-1.757641607238276e-05   5.3625136065523285e-06   1.8093025916277213e-05
-1.757641607238276e-05   5.3625136065523285e-06   1.8093025916277213e-05
-1.757641607238276e-05   5.3625136065523285e-06   1.8093025916277213e-05
-2.741559880976418e-05   -1.6350310988472866e-06   3.869019063515314e-05
-2.741559880976418e-05   -1.6350310988472866e-06   3.869019063515314e-05
-2.741559880976418e-05   -1.6350310988472866e-06   3.869019063515314e-05
-2.741559880976418e-05   -1.6350310988472866e-06   3.869019063515314e-05
-2.1819065383586094e-05   3.3045022133659264e-06   2.639891493752631e-05
-2.1819065383586094e-05   3.3045022133659264e-06   2.639891493752631e-05
-2.1819065383586094e-05   3.3045022133659264e-06   2.639891493752631e-05
-2.1819065383586094e-05   3.3045022133659264e-06   2.639891493752631e-05
-2.741559880976418e-05   5.362513606551895e-06   2.2291552739518022e-05
-2.741559880976418e-05   5.362513606551895e-06   2.2291552739518022e-05
-2.741559880976418e-05   5.362513606551895e-06   2.2291552739518022e-05
-2.741559880976418e-05   5.362513606551895e-06   2.2291552739518022e-05
-1.757641607238276e-05   -1.6350310988472866e-06   3.4491663811913416e-05
-1.757641607238276e-05   -1.6350310988472866e-06   3.4491663811913416e-05
-1.757641607238276e-05   -1.6350310988472866e-06   3.4491663811913416e-05
-1.757641607238276e-05   -1.6350310988472866e-06   3.4491663811913416e-05
-1.9402082512900553e-05   3.287071453856108e-06   2.574449019740379e-05
-1.9402082512900553e-05   3.287071453856108e-06   2.574449019740379e-05
-1.9402082512900553e-05   3.287071453856108e-06   2.574449019740379e-05
-1.9402082512900553e-05   3.287071453856108e-06   2.574449019740379e-05
-2.6894728534218593e-05   -2.1572675355512484e-06   4.1498836959911155e-05
-2.6894728534218593e-05   -2.1572675355512484e-06   4.1498836959911155e-05
-2.6894728534218593e-05   -2.1572675355512484e-06   4.1498836959911155e-05
-2.6894728534218593e-05   -2.1572675355512484e-06   4.1498836959911155e-05
-2.1814890064975924e-05   2.774599866341154e-06   3.007331907003757e-05
-2.1814890064975924e-05   2.774599866341154e-06   3.007331907003757e-05
-2.1814890064975924e-05   2.774599866341154e-06   3.007331907003757e-05
-2.1814890064975924e-05   2.774599866341154e-06   3.007331907003757e-05
-0.0002666450185105356   2.1097716753349033e-05   0.00011139822811211532
-0.0002666450185105356   2.1097716753349033e-05   0.00011139822811211532
-0.0002666450185105356   2.1097716753349033e-05   0.00011139822811211532
-0.0002666450185105356   2.1097716753349033e-05   0.00011139822811211532
-6.301560086096692e-05   -0.00012678204938481244   0.00036205273117849977
-6.301560086096692e-05   -0.00012678204938481244   0.00036205273117849977
-6.301560086096692e-05   -0.00012678204938481244   0.00036205273117849977
-6.301560086096692e-05   -0.00012678204938481244   0.00036205273117849977
-7.373830957613518e-05   8.763517724193768e-06   6.143833025851246e-05
-7.373830957613518e-05   8.763517724193768e-06   6.143833025851246e-05
-7.373830957613518e-05   8.763517724193768e-06   6.143833025851246e-05
-7.373830957613518e-05   8.763517724193768e-06   6.143833025851246e-05
-0.00024318565514513016   -9.801037679895906e-05   0.000407914909587395
-0.00024318565514513016   -9.801037679895906e-05   0.000407914909587395
-0.00024318565514513016   -9.801037679895906e-05   0.000407914909587395
-0.00024318565514513016   -9.801037679895906e-05   0.000407914909587395
-0.00016223012904958094   -4.881800595521533e-05   0.0002434736102552335
-0.00016223012904958094   -4.881800595521533e-05   0.0002434736102552335
-0.00016223012904958094   -4.881800595521533e-05   0.0002434736102552335
-0.00016223012904958094   -4.881800595521533e-05   0.0002434736102552335
-0.00024318565514512973   8.763517724193768e-06   0.00012550266697240395
-0.00024318565514512973   8.763517724193768e-06   0.00012550266697240395
-0.00024318565514512973   8.763517724193768e-06   0.00012550266697240395
-0.00024318565514512973   8.763517724193768e-06   0.00012550266697240395
-7.373830957613535e-05   -9.801037679895906e-05   0.0003438505728735034
-7.373830957613535e-05   -9.801037679895906e-05   0.0003438505728735034
-7.373830957613535e-05   -9.801037679895906e-05   0.0003438505728735034
-7.373830957613535e-05   -9.801037679895906e-05   0.0003438505728735034
-7.529275553978782e-05   6.365444372070537e-06   6.749316132831362e-05
-7.529275553978782e-05   6.365444372070537e-06   6.749316132831362e-05
-7.529275553978782e-05   6.365444372070537e-06   6.749316132831362e-05
-7.529275553978782e-05   6.365444372070537e-06   6.749316132831362e-05
-0.0002294275056920143   -8.407577407848393e-05   0.0003786491426523566
-0.0002294275056920143   -8.407577407848393e-05   0.0003786491426523566
-0.0002294275056920143   -8.407577407848393e-05   0.0003786491426523566
-0.0002294275056920143   -8.407577407848393e-05   0.0003786491426523566
-0.00015728908839660142   -4.6193765171546604e-05   0.00023568924181583979
-0.00015728908839660142   -4.6193765171546604e-05   0.00023568924181583979
-0.00015728908839660142   -4.6193765171546604e-05   0.00023568924181583979
-0.00015728908839660142   -4.6193765171546604e-05   0.00023568924181583979
-0.00022942750569201388   6.365444372070537e-06   0.0001217578923986463
-0.00022942750569201388   6.365444372070537e-06   0.0001217578923986463
-0.00022942750569201388   6.365444372070537e-06   0.0001217578923986463
-0.00022942750569201388   6.365444372070537e-06   0.0001217578923986463
-7.529275553978793e-05   -8.407577407848393e-05   0.00032438441158202393
-7.529275553978793e-05   -8.407577407848393e-05   0.00032438441158202393
-7.529275553978793e-05   -8.407577407848393e-05   0.00032438441158202393
-7.529275553978793e-05   -8.407577407848393e-05   0.00032438441158202393
-8.224440791094014e-05   -3.7872029730635914e-06   8.462272546568754e-05
-8.224440791094014e-05   -3.7872029730635914e-06   8.462272546568754e-05
-8.224440791094014e-05   -3.7872029730635914e-06   8.462272546568754e-05
-8.224440791094014e-05   -3.7872029730635914e-06   8.462272546568754e-05
-0.00021182956572708456   -6.56161312743236e-05   0.0003376953454733503
-0.00021182956572708456   -6.56161312743236e-05   0.0003376953454733503
-0.00021182956572708456   -6.56161312743236e-05   0.0003376953454733503
-0.00021182956572708456   -6.56161312743236e-05   0.0003376953454733503
-0.00015117068279154604   -4.261594621665925e-05   0.00022279709621285447
-0.00015117068279154604   -4.261594621665925e-05   0.00022279709621285447
-0.00015117068279154604   -4.261594621665925e-05   0.00022279709621285447
-0.00015117068279154604   -4.261594621665925e-05   0.00022279709621285447
-6.301560086096681e-05   -2.312705408812868e-05   6.266846148009458e-05
-6.301560086096681e-05   -2.312705408812868e-05   6.266846148009458e-05
-6.301560086096681e-05   -2.312705408812868e-05   6.266846148009458e-05
-6.301560086096681e-05   -2.312705408812868e-05   6.266846148009458e-05
-2.204753579665875e-05   -3.833124007685882e-05   0.00012182605832737023
-2.204753579665875e-05   -3.833124007685882e-05   0.00012182605832737023
-2.204753579665875e-05   -3.833124007685882e-05   0.00012182605832737023
-2.204753579665875e-05   -3.833124007685882e-05   0.00012182605832737023
-2.4496544057045445e-05   -1.8872847077705578e-05   5.654986698596471e-05
-2.4496544057045445e-05   -1.8872847077705578e-05   5.654986698596471e-05
-2.4496544057045445e-05   -1.8872847077705578e-05   5.654986698596471e-05
-2.4496544057045445e-05   -1.8872847077705578e-05   5.654986698596471e-05
-7.373830957613535e-05   -5.1226387569066074e-05   0.00015803160047926342
-7.373830957613535e-05   -5.1226387569066074e-05   0.00015803160047926342
-7.373830957613535e-05   -5.1226387569066074e-05   0.00015803160047926342
-7.373830957613535e-05   -5.1226387569066074e-05   0.00015803160047926342
-4.343686707383422e-05   -2.6985460953503435e-05   9.298464033942369e-05
-4.343686707383422e-05   -2.6985460953503435e-05   9.298464033942369e-05
-4.343686707383422e-05   -2.6985460953503435e-05   9.298464033942369e-05
-4.343686707383422e-05   -2.6985460953503435e-05   9.298464033942369e-05
-7.373830957613513e-05   -1.8872847077705578e-05   7.596199128078016e-05
-7.373830957613513e-05   -1.8872847077705578e-05   7.596199128078016e-05
-7.373830957613513e-05   -1.8872847077705578e-05   7.596199128078016e-05
-7.373830957613513e-05   -1.8872847077705578e-05   7.596199128078016e-05
-2.4496544057045445e-05   -5.1226387569066074e-05   0.00013861947618444716
-2.4496544057045445e-05   -5.1226387569066074e-05   0.00013861947618444716
-2.4496544057045445e-05   -5.1226387569066074e-05   0.00013861947618444716
-2.4496544057045445e-05   -5.1226387569066074e-05   0.00013861947618444716
-2.6584535305511467e-05   -1.932235495482747e-05   6.356828903421102e-05
-2.6584535305511467e-05   -1.932235495482747e-05   6.356828903421102e-05
-2.6584535305511467e-05   -1.932235495482747e-05   6.356828903421102e-05
-2.6584535305511467e-05   -1.932235495482747e-05   6.356828903421102e-05
-7.529275553978793e-05   -4.662532255840309e-05   0.00016113043665348333
-7.529275553978793e-05   -4.662532255840309e-05   0.00016113043665348333
-7.529275553978793e-05   -4.662532255840309e-05   0.00016113043665348333
-7.529275553978793e-05   -4.662532255840309e-05   0.00016113043665348333
-4.883133132123341e-05   -3.3120383776156885e-05   0.00010892509968654554
-4.883133132123341e-05   -3.3120383776156885e-05   0.00010892509968654554
-4.883133132123341e-05   -3.3120383776156885e-05   0.00010892509968654554
-4.883133132123341e-05   -3.3120383776156885e-05   0.00010892509968654554
-7.529275553978782e-05   -1.932235495482747e-05   7.995006959635631e-05
-7.529275553978782e-05   -1.932235495482747e-05   7.995006959635631e-05
-7.529275553978782e-05   -1.932235495482747e-05   7.995006959635631e-05
-7.529275553978782e-05   -1.932235495482747e-05   7.995006959635631e-05
-2.6584535305511576e-05   -4.662532255840309e-05   0.00014474865609133793
-2.6584535305511576e-05   -4.662532255840309e-05   0.00014474865609133793
-2.6584535305511576e-05   -4.662532255840309e-05   0.00014474865609133793
-2.6584535305511576e-05   -4.662532255840309e-05   0.00014474865609133793
-2.995879262374817e-05   -1.9557934897359523e-05   6.942296213271679e-05
-2.995879262374817e-05   -1.9557934897359523e-05   6.942296213271679e-05
-2.995879262374817e-05   -1.9557934897359523e-05   6.942296213271679e-05
-2.995879262374817e-05   -1.9557934897359523e-05   6.942296213271679e-05
-8.224440791094025e-05   -4.3747152539911664e-05   0.0001710791848635678
-8.224440791094025e-05   -4.3747152539911664e-05   0.0001710791848635678
-8.224440791094025e-05   -4.3747152539911664e-05   0.0001710791848635678
-8.224440791094025e-05   -4.3747152539911664e-05   0.0001710791848635678
-5.190344237648162e-05   -3.02192114382552e-05   0.00011239414431180961
-5.190344237648162e-05   -3.02192114382552e-05   0.00011239414431180961
-5.190344237648162e-05   -3.02192114382552e-05   0.00011239414431180961
-5.190344237648162e-05   -3.02192114382552e-05   0.00011239414431180961
-2.204753579665875e-05   -1.8059701357727928e-05   3.3263120192076625e-05
-2.204753579665875e-05   -1.8059701357727928e-05   3.3263120192076625e-05
-2.204753579665875e-05   -1.8059701357727928e-05   3.3263120192076625e-05
-2.204753579665875e-05   -1.8059701357727928e-05   3.3263120192076625e-05
-1.2241108435533197e-05   -1.015998361374805e-05   5.434699644034065e-05
-1.2241108435533197e-05   -1.015998361374805e-05   5.434699644034065e-05
-1.2241108435533197e-05   -1.015998361374805e-05   5.434699644034065e-05
-1.2241108435533197e-05   -1.015998361374805e-05   5.434699644034065e-05
-1.1697368961542491e-05   -1.7736436754589493e-05   3.895858715811983e-05
-1.1697368961542491e-05   -1.7736436754589493e-05   3.895858715811983e-05
-1.1697368961542491e-05   -1.7736436754589493e-05   3.895858715811983e-05
-1.1697368961542491e-05   -1.7736436754589493e-05   3.895858715811983e-05
-2.4496544057045445e-05   -1.3479318540295077e-05   5.773627472204748e-05
-2.4496544057045445e-05   -1.3479318540295077e-05   5.773627472204748e-05
-2.4496544057045445e-05   -1.3479318540295077e-05   5.773627472204748e-05
-2.4496544057045445e-05   -1.3479318540295077e-05   5.773627472204748e-05
-1.651206331242127e-05   -1.4152927325232793e-05   4.4832972085302736e-05
-1.651206331242127e-05   -1.4152927325232793e-05   4.4832972085302736e-05
-1.651206331242127e-05   -1.4152927325232793e-05   4.4832972085302736e-05
-1.651206331242127e-05   -1.4152927325232793e-05   4.4832972085302736e-05
-2.4496544057045445e-05   -1.773643675458971e-05   3.640431622954328e-05
-2.4496544057045445e-05   -1.773643675458971e-05   3.640431622954328e-05
-2.4496544057045445e-05   -1.773643675458971e-05   3.640431622954328e-05
-2.4496544057045445e-05   -1.773643675458971e-05   3.640431622954328e-05
-1.1697368961542491e-05   -1.3479318540295077e-05   6.0290545650624246e-05
-1.1697368961542491e-05   -1.3479318540295077e-05   6.0290545650624246e-05
-1.1697368961542491e-05   -1.3479318540295077e-05   6.0290545650624246e-05
-1.1697368961542491e-05   -1.3479318540295077e-05   6.0290545650624246e-05
-1.1648451677448868e-05   -1.82904108419037e-05   4.160948676395094e-05
-1.1648451677448868e-05   -1.82904108419037e-05   4.160948676395094e-05
-1.1648451677448868e-05   -1.82904108419037e-05   4.160948676395094e-05
-1.1648451677448868e-05   -1.82904108419037e-05   4.160948676395094e-05
-2.6584535305511576e-05   -1.7528577933266916e-05   6.604585973220582e-05
-2.6584535305511576e-05   -1.7528577933266916e-05   6.604585973220582e-05
-2.6584535305511576e-05   -1.7528577933266916e-05   6.604585973220582e-05
-2.6584535305511576e-05   -1.7528577933266916e-05   6.604585973220582e-05
-1.7423512125363844e-05   -1.54785198581385e-05   4.9547452920216135e-05
-1.7423512125363844e-05   -1.54785198581385e-05   4.9547452920216135e-05
-1.7423512125363844e-05   -1.54785198581385e-05   4.9547452920216135e-05
-1.7423512125363844e-05   -1.54785198581385e-05   4.9547452920216135e-05
-2.6584535305511467e-05   -1.82904108419037e-05   4.1152387018768516e-05
-2.6584535305511467e-05   -1.82904108419037e-05   4.1152387018768516e-05
-2.6584535305511467e-05   -1.82904108419037e-05   4.1152387018768516e-05
-2.6584535305511467e-05   -1.82904108419037e-05   4.1152387018768516e-05
-1.1648451677448868e-05   -1.7528577933266916e-05   6.650295947738792e-05
-1.1648451677448868e-05   -1.7528577933266916e-05   6.650295947738792e-05
-1.1648451677448868e-05   -1.7528577933266916e-05   6.650295947738792e-05
-1.1648451677448868e-05   -1.7528577933266916e-05   6.650295947738792e-05
-1.1701632656134758e-05   -1.9095474115164235e-05   4.554952711845195e-05
-1.1701632656134758e-05   -1.9095474115164235e-05   4.554952711845195e-05
-1.1701632656134758e-05   -1.9095474115164235e-05   4.554952711845195e-05
-1.1701632656134758e-05   -1.9095474115164235e-05   4.554952711845195e-05
-2.995879262374817e-05   -2.1387214863812415e-05   7.735317151366249e-05
-2.995879262374817e-05   -2.1387214863812415e-05   7.735317151366249e-05
-2.995879262374817e-05   -2.1387214863812415e-05   7.735317151366249e-05
-2.995879262374817e-05   -2.1387214863812415e-05   7.735317151366249e-05
-1.8445498840426882e-05   -1.6966395563232004e-05   5.5511856961112374e-05
-1.8445498840426882e-05   -1.6966395563232004e-05   5.5511856961112374e-05
-1.8445498840426882e-05   -1.6966395563232004e-05   5.5511856961112374e-05
-1.8445498840426882e-05   -1.6966395563232004e-05   5.5511856961112374e-05
-1.2241108435533197e-05   -7.387011190352873e-06   8.86348657031129e-06
-1.2241108435533197e-05   -7.387011190352873e-06   8.86348657031129e-06
-1.2241108435533197e-05   -7.387011190352873e-06   8.86348657031129e-06
-1.2241108435533197e-05   -7.387011190352873e-06   8.86348657031129e-06
-8.959379329173331e-06   2.3752369348070505e-06   2.0190383956007404e-05
-8.959379329173331e-06   2.3752369348070505e-06   2.0190383956007404e-05
-8.959379329173331e-06   2.3752369348070505e-06   2.0190383956007404e-05
-8.959379329173331e-06   2.3752369348070505e-06   2.0190383956007404e-05
-7.193399740552031e-06   -8.669193520382873e-06   1.5586578154151882e-05
-7.193399740552031e-06   -8.669193520382873e-06   1.5586578154151882e-05
-7.193399740552031e-06   -8.669193520382873e-06   1.5586578154151882e-05
-7.193399740552031e-06   -8.669193520382873e-06   1.5586578154151882e-05
-1.1697368961542491e-05   1.234139999696564e-06   1.715119341042133e-05
-1.1697368961542491e-05   1.234139999696564e-06   1.715119341042133e-05
-1.1697368961542491e-05   1.234139999696564e-06   1.715119341042133e-05
-1.1697368961542491e-05   1.234139999696564e-06   1.715119341042133e-05
-9.409228475721785e-06   -3.281152736392271e-06   1.604680157570558e-05
-9.409228475721785e-06   -3.281152736392271e-06   1.604680157570558e-05
-9.409228475721785e-06   -3.281152736392271e-06   1.604680157570558e-05
-9.409228475721785e-06   -3.281152736392271e-06   1.604680157570558e-05
-1.1697368961542491e-05   -8.669193520382873e-06   9.644578042104692e-06
-1.1697368961542491e-05   -8.669193520382873e-06   9.644578042104692e-06
-1.1697368961542491e-05   -8.669193520382873e-06   9.644578042104692e-06
-1.1697368961542491e-05   -8.669193520382873e-06   9.644578042104692e-06
-7.193399740552031e-06   1.234139999696564e-06   2.309319352246852e-05
-7.193399740552031e-06   1.234139999696564e-06   2.309319352246852e-05
-7.193399740552031e-06   1.234139999696564e-06   2.309319352246852e-05
-7.193399740552031e-06   1.234139999696564e-06   2.309319352246852e-05
-6.200384964573933e-06   -9.64592328008755e-06   1.711659069143995e-05
-6.200384964573933e-06   -9.64592328008755e-06   1.711659069143995e-05
-6.200384964573933e-06   -9.64592328008755e-06   1.711659069143995e-05
-6.200384964573933e-06   -9.64592328008755e-06   1.711659069143995e-05
-1.1648451677448868e-05   -6.304604790656574e-07   2.0787424198951115e-05
-1.1648451677448868e-05   -6.304604790656574e-07   2.0787424198951115e-05
-1.1648451677448868e-05   -6.304604790656574e-07   2.0787424198951115e-05
-1.1648451677448868e-05   -6.304604790656574e-07   2.0787424198951115e-05
-8.476340612307448e-06   -4.24348216676335e-06   1.766838543633409e-05
-8.476340612307448e-06   -4.24348216676335e-06   1.766838543633409e-05
-8.476340612307448e-06   -4.24348216676335e-06   1.766838543633409e-05
-8.476340612307448e-06   -4.24348216676335e-06   1.766838543633409e-05
-1.1648451677448868e-05   -9.64592328008755e-06   1.1707313010825933e-05
-1.1648451677448868e-05   -9.64592328008755e-06   1.1707313010825933e-05
-1.1648451677448868e-05   -9.64592328008755e-06   1.1707313010825933e-05
-1.1648451677448868e-05   -9.64592328008755e-06   1.1707313010825933e-05
-6.200384964573933e-06   -6.304604790656574e-07   2.619670187956405e-05
-6.200384964573933e-06   -6.304604790656574e-07   2.619670187956405e-05
-6.200384964573933e-06   -6.304604790656574e-07   2.619670187956405e-05
-6.200384964573933e-06   -6.304604790656574e-07   2.619670187956405e-05
-4.673760280017071e-06   -1.0932436960030831e-05   1.873722252568712e-05
-4.673760280017071e-06   -1.0932436960030831e-05   1.873722252568712e-05
-4.673760280017071e-06   -1.0932436960030831e-05   1.873722252568712e-05
-4.673760280017071e-06   -1.0932436960030831e-05   1.873722252568712e-05
-1.1701632656134758e-05   -4.529817193149355e-06   2.660877129242057e-05
-1.1701632656134758e-05   -4.529817193149355e-06   2.660877129242057e-05
-1.1701632656134758e-05   -4.529817193149355e-06   2.660877129242057e-05
-1.1701632656134758e-05   -4.529817193149355e-06   2.660877129242057e-05
-7.689031648266866e-06   -5.742239775634772e-06   2.0648556495467176e-05
-7.689031648266866e-06   -5.742239775634772e-06   2.0648556495467176e-05
-7.689031648266866e-06   -5.742239775634772e-06   2.0648556495467176e-05
-7.689031648266866e-06   -5.742239775634772e-06   2.0648556495467176e-05
-8.959379329173331e-06   -8.648475470079964e-07   -1.5445524474462773e-05
-8.959379329173331e-06   -8.648475470079964e-07   -1.5445524474462773e-05
-8.959379329173331e-06   -8.648475470079964e-07   -1.5445524474462773e-05
-8.959379329173331e-06   -8.648475470079964e-07   -1.5445524474462773e-05
-1.5282254596984263e-06   1.3384929365159394e-06   -1.738263735224458e-06
-1.5282254596984263e-06   1.3384929365159394e-06   -1.738263735224458e-06
-1.5282254596984263e-06   1.3384929365159394e-06   -1.738263735224458e-06
-1.5282254596984263e-06   1.3384929365159394e-06   -1.738263735224458e-06
2.1101810646420582e-07   -1.1898059602557468e-06   -1.2219632919806787e-05
2.1101810646420582e-07   -1.1898059602557468e-06   -1.2219632919806787e-05
2.1101810646420582e-07   -1.1898059602557468e-06   -1.2219632919806787e-05
2.1101810646420582e-07   -1.1898059602557468e-06   -1.2219632919806787e-05
-7.193399740552031e-06   2.3376163439969052e-06   -1.9953898906651876e-06
-7.193399740552031e-06   2.3376163439969052e-06   -1.9953898906651876e-06
-7.193399740552031e-06   2.3376163439969052e-06   -1.9953898906651876e-06
-7.193399740552031e-06   2.3376163439969052e-06   -1.9953898906651876e-06
-3.993046360025723e-06   6.022099548902166e-07   -6.28806835807974e-06
-3.993046360025723e-06   6.022099548902166e-07   -6.28806835807974e-06
-3.993046360025723e-06   6.022099548902166e-07   -6.28806835807974e-06
-3.993046360025723e-06   6.022099548902166e-07   -6.28806835807974e-06
-7.193399740552031e-06   -1.1898059602557468e-06   -1.4336086302359024e-05
-7.193399740552031e-06   -1.1898059602557468e-06   -1.4336086302359024e-05
-7.193399740552031e-06   -1.1898059602557468e-06   -1.4336086302359024e-05
-7.193399740552031e-06   -1.1898059602557468e-06   -1.4336086302359024e-05
2.110181064646395e-07   2.3376163439969052e-06   1.2106349188672344e-07
2.110181064646395e-07   2.3376163439969052e-06   1.2106349188672344e-07
2.110181064646395e-07   2.3376163439969052e-06   1.2106349188672344e-07
2.110181064646395e-07   2.3376163439969052e-06   1.2106349188672344e-07
1.1471487862168075e-06   -1.6350310988472866e-06   -1.1070994181793057e-05
1.1471487862168075e-06   -1.6350310988472866e-06   -1.1070994181793057e-05
1.1471487862168075e-06   -1.6350310988472866e-06   -1.1070994181793057e-05
1.1471487862168075e-06   -1.6350310988472866e-06   -1.1070994181793057e-05
-6.200384964573933e-06   2.0613470794101404e-06   -1.0429315040966572e-06
-6.200384964573933e-06   2.0613470794101404e-06   -1.0429315040966572e-06
-6.200384964573933e-06   2.0613470794101404e-06   -1.0429315040966572e-06
-6.200384964573933e-06   2.0613470794101404e-06   -1.0429315040966572e-06
-2.6954133235187897e-06   3.98180033009312e-07   -5.886650678012424e-06
-2.6954133235187897e-06   3.98180033009312e-07   -5.886650678012424e-06
-2.6954133235187897e-06   3.98180033009312e-07   -5.886650678012424e-06
-2.6954133235187897e-06   3.98180033009312e-07   -5.886650678012424e-06
-6.200384964573933e-06   -1.6350310988472866e-06   -1.3288821088747421e-05
-6.200384964573933e-06   -1.6350310988472866e-06   -1.3288821088747421e-05
-6.200384964573933e-06   -1.6350310988472866e-06   -1.3288821088747421e-05
-6.200384964573933e-06   -1.6350310988472866e-06   -1.3288821088747421e-05
1.1471487862168075e-06   2.0613470794101404e-06   1.1748954028578153e-06
1.1471487862168075e-06   2.0613470794101404e-06   1.1748954028578153e-06
1.1471487862168075e-06   2.0613470794101404e-06   1.1748954028578153e-06
1.1471487862168075e-06   2.0613470794101404e-06   1.1748954028578153e-06
2.328579001301557e-06   -2.1572675355512484e-06   -9.415828871293247e-06
2.328579001301557e-06   -2.1572675355512484e-06   -9.415828871293247e-06
2.328579001301557e-06   -2.1572675355512484e-06   -9.415828871293247e-06
2.328579001301557e-06   -2.1572675355512484e-06   -9.415828871293247e-06
-4.673760280017071e-06   1.8821780594643152e-06   -1.6893075943874916e-07
-4.673760280017071e-06   1.8821780594643152e-06   -1.6893075943874916e-07
-4.673760280017071e-06   1.8821780594643152e-06   -1.6893075943874916e-07
-4.673760280017071e-06   1.8821780594643152e-06   -1.6893075943874916e-07
-1.5152207433114353e-06   1.627824242219321e-07   -4.401525939468857e-06
-1.5152207433114353e-06   1.627824242219321e-07   -4.401525939468857e-06
-1.5152207433114353e-06   1.627824242219321e-07   -4.401525939468857e-06
-1.5152207433114353e-06   1.627824242219321e-07   -4.401525939468857e-06
              </DataArray>   
             <DataArray type="Float64" NumberOfComponents="3" Name="Stress" format="ascii">   
-13.791408276408385   -3.447852069102096   -3.447852069102096
-13.791408276408385   -3.447852069102096   -3.447852069102096
-13.791408276408385   -3.447852069102096   -3.447852069102096
-13.791408276408385   -3.447852069102096   -3.447852069102096
-7.982514480994382   -0.24963417621137585   -0.15876251939395913
-7.982514480994382   -0.24963417621137585   -0.15876251939395913
-7.982514480994382   -0.24963417621137585   -0.15876251939395913
-7.982514480994382   -0.24963417621137585   -0.15876251939395913
-8.60716806197601   -2.1517920154940025   -2.1517920154940025
-8.60716806197601   -2.1517920154940025   -2.1517920154940025
-8.60716806197601   -2.1517920154940025   -2.1517920154940025
-8.60716806197601   -2.1517920154940025   -2.1517920154940025
-13.293292756287599   -1.089089246816497   -0.4156915001557032
-13.293292756287599   -1.089089246816497   -0.4156915001557032
-13.293292756287599   -1.089089246816497   -0.4156915001557032
-13.293292756287599   -1.089089246816497   -0.4156915001557032
-10.426654034043592   -1.707860773257622   -0.028612635595534272
-10.426654034043592   -1.707860773257622   -0.028612635595534272
-10.426654034043592   -1.707860773257622   -0.028612635595534272
-10.426654034043592   -1.707860773257622   -0.028612635595534272
-14.435929563214646   -3.6089823908036616   -3.6089823908036616
-14.435929563214646   -3.6089823908036616   -3.6089823908036616
-14.435929563214646   -3.6089823908036616   -3.6089823908036616
-14.435929563214646   -3.6089823908036616   -3.6089823908036616
-7.735244972624074   0.09738741091807235   -0.041355995146403035
-7.735244972624074   0.09738741091807235   -0.041355995146403035
-7.735244972624074   0.09738741091807235   -0.041355995146403035
-7.735244972624074   0.09738741091807235   -0.041355995146403035
-8.63368743490736   -2.15842185872684   -2.15842185872684
-8.63368743490736   -2.15842185872684   -2.15842185872684
-8.63368743490736   -2.15842185872684   -2.15842185872684
-8.63368743490736   -2.15842185872684   -2.15842185872684
-13.742576941745103   -1.100241012133517   -0.6094370610278408
-13.742576941745103   -1.100241012133517   -0.6094370610278408
-13.742576941745103   -1.100241012133517   -0.6094370610278408
-13.742576941745103   -1.100241012133517   -0.6094370610278408
-10.817953735798447   -1.608787766906386   -0.5743426663114195
-10.817953735798447   -1.608787766906386   -0.5743426663114195
-10.817953735798447   -1.608787766906386   -0.5743426663114195
-10.817953735798447   -1.608787766906386   -0.5743426663114195
-14.889601474569838   -3.7224003686424596   -3.7224003686424596
-14.889601474569838   -3.7224003686424596   -3.7224003686424596
-14.889601474569838   -3.7224003686424596   -3.7224003686424596
-14.889601474569838   -3.7224003686424596   -3.7224003686424596
-7.714856805093577   0.23554359477117193   0.04176583684406254
-7.714856805093577   0.23554359477117193   0.04176583684406254
-7.714856805093577   0.23554359477117193   0.04176583684406254
-7.714856805093577   0.23554359477117193   0.04176583684406254
-8.63168083697702   -2.157920209244255   -2.157920209244255
-8.63168083697702   -2.157920209244255   -2.157920209244255
-8.63168083697702   -2.157920209244255   -2.157920209244255
-8.63168083697702   -2.157920209244255   -2.157920209244255
-14.544457199247487   -0.9666567701483912   -0.3644467963322422
-14.544457199247487   -0.9666567701483912   -0.3644467963322422
-14.544457199247487   -0.9666567701483912   -0.3644467963322422
-14.544457199247487   -0.9666567701483912   -0.3644467963322422
-11.109157270035194   -1.584438586665387   -1.0384625625302406
-11.109157270035194   -1.584438586665387   -1.0384625625302406
-11.109157270035194   -1.584438586665387   -1.0384625625302406
-11.109157270035194   -1.584438586665387   -1.0384625625302406
-8.778705713192588   -2.194676428298147   -2.194676428298147
-8.778705713192588   -2.194676428298147   -2.194676428298147
-8.778705713192588   -2.194676428298147   -2.194676428298147
-8.778705713192588   -2.194676428298147   -2.194676428298147
-3.6597459858034784   -0.24136213588585598   -0.07863866691547189
-3.6597459858034784   -0.24136213588585598   -0.07863866691547189
-3.6597459858034784   -0.24136213588585598   -0.07863866691547189
-3.6597459858034784   -0.24136213588585598   -0.07863866691547189
-3.84478586598126   -0.961196466495315   -0.961196466495315
-3.84478586598126   -0.961196466495315   -0.961196466495315
-3.84478586598126   -0.961196466495315   -0.961196466495315
-3.84478586598126   -0.961196466495315   -0.961196466495315
-7.994022703850644   -0.9389332596985355   -0.2989239806626388
-7.994022703850644   -0.9389332596985355   -0.2989239806626388
-7.994022703850644   -0.9389332596985355   -0.2989239806626388
-7.994022703850644   -0.9389332596985355   -0.2989239806626388
-5.894463177849883   -1.1158955128770995   0.046435676768793115
-5.894463177849883   -1.1158955128770995   0.046435676768793115
-5.894463177849883   -1.1158955128770995   0.046435676768793115
-5.894463177849883   -1.1158955128770995   0.046435676768793115
-8.607168061976003   -2.1517920154940007   -2.1517920154940007
-8.607168061976003   -2.1517920154940007   -2.1517920154940007
-8.607168061976003   -2.1517920154940007   -2.1517920154940007
-8.607168061976003   -2.1517920154940007   -2.1517920154940007
-3.4548973874041944   0.02840540975185124   -0.0013559498571541762
-3.4548973874041944   0.02840540975185124   -0.0013559498571541762
-3.4548973874041944   0.02840540975185124   -0.0013559498571541762
-3.4548973874041944   0.02840540975185124   -0.0013559498571541762
-3.7611855393984737   -0.9402963848496184   -0.9402963848496184
-3.7611855393984737   -0.9402963848496184   -0.9402963848496184
-3.7611855393984737   -0.9402963848496184   -0.9402963848496184
-3.7611855393984737   -0.9402963848496184   -0.9402963848496184
-7.976095762123805   -0.7665680985882882   -0.26231725494762137
-7.976095762123805   -0.7665680985882882   -0.26231725494762137
-7.976095762123805   -0.7665680985882882   -0.26231725494762137
-7.976095762123805   -0.7665680985882882   -0.26231725494762137
-5.814587913070631   -0.9398928428114568   -0.30425111944916733
-5.814587913070631   -0.9398928428114568   -0.30425111944916733
-5.814587913070631   -0.9398928428114568   -0.30425111944916733
-5.814587913070631   -0.9398928428114568   -0.30425111944916733
-8.63368743490736   -2.15842185872684   -2.15842185872684
-8.63368743490736   -2.15842185872684   -2.15842185872684
-8.63368743490736   -2.15842185872684   -2.15842185872684
-8.63368743490736   -2.15842185872684   -2.15842185872684
-3.319825231563823   0.23532601034002998   0.09088275913398661
-3.319825231563823   0.23532601034002998   0.09088275913398661
-3.319825231563823   0.23532601034002998   0.09088275913398661
-3.319825231563823   0.23532601034002998   0.09088275913398661
-3.685431860206327   -0.9213579650515817   -0.9213579650515817
-3.685431860206327   -0.9213579650515817   -0.9213579650515817
-3.685431860206327   -0.9213579650515817   -0.9213579650515817
-3.685431860206327   -0.9213579650515817   -0.9213579650515817
-7.919895102360996   -0.5921343365373506   -0.16477740887112852
-7.919895102360996   -0.5921343365373506   -0.16477740887112852
-7.919895102360996   -0.5921343365373506   -0.16477740887112852
-7.919895102360996   -0.5921343365373506   -0.16477740887112852
-5.84571710774825   -0.8323768983375347   -0.6781902263979304
-5.84571710774825   -0.8323768983375347   -0.6781902263979304
-5.84571710774825   -0.8323768983375347   -0.6781902263979304
-5.84571710774825   -0.8323768983375347   -0.6781902263979304
-3.9952731391591323   -0.9988182847897831   -0.9988182847897831
-3.9952731391591323   -0.9988182847897831   -0.9988182847897831
-3.9952731391591323   -0.9988182847897831   -0.9988182847897831
-3.9952731391591323   -0.9988182847897831   -0.9988182847897831
0.48076540313644456   0.032574903945571776   0.0038415162754567578
0.48076540313644456   0.032574903945571776   0.0038415162754567578
0.48076540313644456   0.032574903945571776   0.0038415162754567578
0.48076540313644456   0.032574903945571776   0.0038415162754567578
0.621106043902552   0.155276510975638   0.155276510975638
0.621106043902552   0.155276510975638   0.155276510975638
0.621106043902552   0.155276510975638   0.155276510975638
0.621106043902552   0.155276510975638   0.155276510975638
-3.614524888875124   -0.6248050225894609   -0.14628302487051975
-3.614524888875124   -0.6248050225894609   -0.14628302487051975
-3.614524888875124   -0.6248050225894609   -0.14628302487051975
-3.614524888875124   -0.6248050225894609   -0.14628302487051975
-1.543986955690425   -0.3918152365608918   0.2637564224360391
-1.543986955690425   -0.3918152365608918   0.2637564224360391
-1.543986955690425   -0.3918152365608918   0.2637564224360391
-1.543986955690425   -0.3918152365608918   0.2637564224360391
-3.84478586598126   -0.961196466495315   -0.961196466495315
-3.84478586598126   -0.961196466495315   -0.961196466495315
-3.84478586598126   -0.961196466495315   -0.961196466495315
-3.84478586598126   -0.961196466495315   -0.961196466495315
0.6318489358866319   0.27214986975944044   0.09211761211223105
0.6318489358866319   0.27214986975944044   0.09211761211223105
0.6318489358866319   0.27214986975944044   0.09211761211223105
0.6318489358866319   0.27214986975944044   0.09211761211223105
0.69580093174476   0.17395023293619   0.17395023293619
0.69580093174476   0.17395023293619   0.17395023293619
0.69580093174476   0.17395023293619   0.17395023293619
0.69580093174476   0.17395023293619   0.17395023293619
-3.4889639089610114   -0.4213619011609121   -0.098122716351071
-3.4889639089610114   -0.4213619011609121   -0.098122716351071
-3.4889639089610114   -0.4213619011609121   -0.098122716351071
-3.4889639089610114   -0.4213619011609121   -0.098122716351071
-1.483420538032744   -0.2424889901597304   -0.08939759797188053
-1.483420538032744   -0.2424889901597304   -0.08939759797188053
-1.483420538032744   -0.2424889901597304   -0.08939759797188053
-1.483420538032744   -0.2424889901597304   -0.08939759797188053
-3.7611855393984737   -0.9402963848496184   -0.9402963848496184
-3.7611855393984737   -0.9402963848496184   -0.9402963848496184
-3.7611855393984737   -0.9402963848496184   -0.9402963848496184
-3.7611855393984737   -0.9402963848496184   -0.9402963848496184
0.7529176260978788   0.4777797805405629   0.15570415709740595
0.7529176260978788   0.4777797805405629   0.15570415709740595
0.7529176260978788   0.4777797805405629   0.15570415709740595
0.7529176260978788   0.4777797805405629   0.15570415709740595
0.7970487127626619   0.19926217819066547   0.19926217819066547
0.7970487127626619   0.19926217819066547   0.19926217819066547
0.7970487127626619   0.19926217819066547   0.19926217819066547
0.7970487127626619   0.19926217819066547   0.19926217819066547
-3.352277840218404   -0.17856072124887923   0.0016148910852870901
-3.352277840218404   -0.17856072124887923   0.0016148910852870901
-3.352277840218404   -0.17856072124887923   0.0016148910852870901
-3.352277840218404   -0.17856072124887923   0.0016148910852870901
-1.4414493374616828   -0.09853698550027518   -0.43940184187757486
-1.4414493374616828   -0.09853698550027518   -0.43940184187757486
-1.4414493374616828   -0.09853698550027518   -0.43940184187757486
-1.4414493374616828   -0.09853698550027518   -0.43940184187757486
0.5260912434358218   0.13152281085895545   0.13152281085895545
0.5260912434358218   0.13152281085895545   0.13152281085895545
0.5260912434358218   0.13152281085895545   0.13152281085895545
0.5260912434358218   0.13152281085895545   0.13152281085895545
5.011391483658455   0.4595170748837758   0.15320032443603193
5.011391483658455   0.4595170748837758   0.15320032443603193
5.011391483658455   0.4595170748837758   0.15320032443603193
5.011391483658455   0.4595170748837758   0.15320032443603193
5.43880847982099   1.3597021199552475   1.3597021199552475
5.43880847982099   1.3597021199552475   1.3597021199552475
5.43880847982099   1.3597021199552475   1.3597021199552475
5.43880847982099   1.3597021199552475   1.3597021199552475
0.47342134459470847   -0.35310683197162207   -0.07476364261632923
0.47342134459470847   -0.35310683197162207   -0.07476364261632923
0.47342134459470847   -0.35310683197162207   -0.07476364261632923
0.47342134459470847   -0.35310683197162207   -0.07476364261632923
2.859371040938097   0.35585441461240935   0.5199764127502498
2.859371040938097   0.35585441461240935   0.5199764127502498
2.859371040938097   0.35585441461240935   0.5199764127502498
2.859371040938097   0.35585441461240935   0.5199764127502498
0.6211060439025541   0.15527651097563852   0.15527651097563852
0.6211060439025541   0.15527651097563852   0.15527651097563852
0.6211060439025541   0.15527651097563852   0.15527651097563852
0.6211060439025541   0.15527651097563852   0.15527651097563852
5.068048619993441   0.6282436164882836   0.23736132428446705
5.068048619993441   0.6282436164882836   0.23736132428446705
5.068048619993441   0.6282436164882836   0.23736132428446705
5.068048619993441   0.6282436164882836   0.23736132428446705
5.413012272188676   1.353253068047169   1.353253068047169
5.413012272188676   1.353253068047169   1.353253068047169
5.413012272188676   1.353253068047169   1.353253068047169
5.413012272188676   1.353253068047169   1.353253068047169
0.5952709827527561   -0.15426777218434326   -0.0004815069033016345
0.5952709827527561   -0.15426777218434326   -0.0004815069033016345
0.5952709827527561   -0.15426777218434326   -0.0004815069033016345
0.5952709827527561   -0.15426777218434326   -0.0004815069033016345
2.835720145820317   0.4660787133563091   0.13575580454000685
2.835720145820317   0.4660787133563091   0.13575580454000685
2.835720145820317   0.4660787133563091   0.13575580454000685
2.835720145820317   0.4660787133563091   0.13575580454000685
0.6958009317447607   0.17395023293619016   0.17395023293619016
0.6958009317447607   0.17395023293619016   0.17395023293619016
0.6958009317447607   0.17395023293619016   0.17395023293619016
0.6958009317447607   0.17395023293619016   0.17395023293619016
5.0915367915315155   0.8040895312614801   0.2950392015470553
5.0915367915315155   0.8040895312614801   0.2950392015470553
5.0915367915315155   0.8040895312614801   0.2950392015470553
5.0915367915315155   0.8040895312614801   0.2950392015470553
5.515441385158227   1.3788603462895568   1.3788603462895568
5.515441385158227   1.3788603462895568   1.3788603462895568
5.515441385158227   1.3788603462895568   1.3788603462895568
5.515441385158227   1.3788603462895568   1.3788603462895568
0.7556487400836951   0.10902505766669543   0.08249943531979571
0.7556487400836951   0.10902505766669543   0.08249943531979571
0.7556487400836951   0.10902505766669543   0.08249943531979571
0.7556487400836951   0.10902505766669543   0.08249943531979571
2.877287082178498   0.6316572547647312   -0.2205170569039524
2.877287082178498   0.6316572547647312   -0.2205170569039524
2.877287082178498   0.6316572547647312   -0.2205170569039524
2.877287082178498   0.6316572547647312   -0.2205170569039524
5.432053337549437   1.3580133343873593   1.3580133343873593
5.432053337549437   1.3580133343873593   1.3580133343873593
5.432053337549437   1.3580133343873593   1.3580133343873593
5.432053337549437   1.3580133343873593   1.3580133343873593
11.253030315705583   0.8569762207121312   0.2909076319920887
11.253030315705583   0.8569762207121312   0.2909076319920887
11.253030315705583   0.8569762207121312   0.2909076319920887
11.253030315705583   0.8569762207121312   0.2909076319920887
11.499341105807714   2.8748352764519285   2.8748352764519285
11.499341105807714   2.8748352764519285   2.8748352764519285
11.499341105807714   2.8748352764519285   2.8748352764519285
11.499341105807714   2.8748352764519285   2.8748352764519285
4.833913408279056   -0.2757270101521454   -0.029344107647033046
4.833913408279056   -0.2757270101521454   -0.029344107647033046
4.833913408279056   -0.2757270101521454   -0.029344107647033046
4.833913408279056   -0.2757270101521454   -0.029344107647033046
8.027625218408518   1.1353232455687738   0.9071653489202252
8.027625218408518   1.1353232455687738   0.9071653489202252
8.027625218408518   1.1353232455687738   0.9071653489202252
8.027625218408518   1.1353232455687738   0.9071653489202252
5.438808479820985   1.3597021199552461   1.3597021199552461
5.438808479820985   1.3597021199552461   1.3597021199552461
5.438808479820985   1.3597021199552461   1.3597021199552461
5.438808479820985   1.3597021199552461   1.3597021199552461
10.655419445562538   1.0003795576413281   0.5296826940368351
10.655419445562538   1.0003795576413281   0.5296826940368351
10.655419445562538   1.0003795576413281   0.5296826940368351
10.655419445562538   1.0003795576413281   0.5296826940368351
11.152844254063412   2.788211063515853   2.788211063515853
11.152844254063412   2.788211063515853   2.788211063515853
11.152844254063412   2.788211063515853   2.788211063515853
11.152844254063412   2.788211063515853   2.788211063515853
4.848457225083185   -0.15338618453156494   0.03711708509844458
4.848457225083185   -0.15338618453156494   0.03711708509844458
4.848457225083185   -0.15338618453156494   0.03711708509844458
4.848457225083185   -0.15338618453156494   0.03711708509844458
7.786737473231904   1.1673278531785463   0.43514086174109196
7.786737473231904   1.1673278531785463   0.43514086174109196
7.786737473231904   1.1673278531785463   0.43514086174109196
7.786737473231904   1.1673278531785463   0.43514086174109196
5.413012272188676   1.353253068047169   1.353253068047169
5.413012272188676   1.353253068047169   1.353253068047169
5.413012272188676   1.353253068047169   1.353253068047169
5.413012272188676   1.353253068047169   1.353253068047169
10.309663212062624   1.0029458160418552   0.35757110098608397
10.309663212062624   1.0029458160418552   0.35757110098608397
10.309663212062624   1.0029458160418552   0.35757110098608397
10.309663212062624   1.0029458160418552   0.35757110098608397
10.638757066434671   2.659689266608668   2.659689266608668
10.638757066434671   2.659689266608668   2.659689266608668
10.638757066434671   2.659689266608668   2.659689266608668
10.638757066434671   2.659689266608668   2.659689266608668
5.025341034472209   0.15519732938843767   0.1520216097605862
5.025341034472209   0.15519732938843767   0.1520216097605862
5.025341034472209   0.15519732938843767   0.1520216097605862
5.025341034472209   0.15519732938843767   0.1520216097605862
7.453545638563187   1.2647808729609886   -0.11353369204763213
7.453545638563187   1.2647808729609886   -0.11353369204763213
7.453545638563187   1.2647808729609886   -0.11353369204763213
7.453545638563187   1.2647808729609886   -0.11353369204763213
-10.92169801711401   -0.781697208487554   0.12010585534480062
-10.92169801711401   -0.781697208487554   0.12010585534480062
-10.92169801711401   -0.781697208487554   0.12010585534480062
-10.92169801711401   -0.781697208487554   0.12010585534480062
-6.9490250967566745   -0.15761394020134056   -0.043943182887345444
-6.9490250967566745   -0.15761394020134056   -0.043943182887345444
-6.9490250967566745   -0.15761394020134056   -0.043943182887345444
-6.9490250967566745   -0.15761394020134056   -0.043943182887345444
-6.9984039190077745   0.28190011074972343   0.14436645039558227
-6.9984039190077745   0.28190011074972343   0.14436645039558227
-6.9984039190077745   0.28190011074972343   0.14436645039558227
-6.9984039190077745   0.28190011074972343   0.14436645039558227
-11.085464922766416   -0.7547370502036121   -0.13000718121898952
-11.085464922766416   -0.7547370502036121   -0.13000718121898952
-11.085464922766416   -0.7547370502036121   -0.13000718121898952
-11.085464922766416   -0.7547370502036121   -0.13000718121898952
-8.634650245652871   -0.294024016322912   -0.032767378187017304
-8.634650245652871   -0.294024016322912   -0.032767378187017304
-8.634650245652871   -0.294024016322912   -0.032767378187017304
-8.634650245652871   -0.294024016322912   -0.032767378187017304
-11.00617504769654   -0.538488646901492   0.05019379082827202
-11.00617504769654   -0.538488646901492   0.05019379082827202
-11.00617504769654   -0.538488646901492   0.05019379082827202
-11.00617504769654   -0.538488646901492   0.05019379082827202
-7.089462241785232   0.05388325974005359   -0.08290831248190839
-7.089462241785232   0.05388325974005359   -0.08290831248190839
-7.089462241785232   0.05388325974005359   -0.08290831248190839
-7.089462241785232   0.05388325974005359   -0.08290831248190839
-7.0082160732825445   0.4014927440335576   0.1648708513449969
-7.0082160732825445   0.4014927440335576   0.1648708513449969
-7.0082160732825445   0.4014927440335576   0.1648708513449969
-7.0082160732825445   0.4014927440335576   0.1648708513449969
-11.154728094740648   -0.6653367334260911   -0.1717712032441832
-11.154728094740648   -0.6653367334260911   -0.1717712032441832
-11.154728094740648   -0.6653367334260911   -0.1717712032441832
-11.154728094740648   -0.6653367334260911   -0.1717712032441832
-8.878969226822814   -0.19743133036435379   -0.08349584310289743
-8.878969226822814   -0.19743133036435379   -0.08349584310289743
-8.878969226822814   -0.19743133036435379   -0.08349584310289743
-8.878969226822814   -0.19743133036435379   -0.08349584310289743
-10.955913401016193   -0.3246898211598266   0.48165535311172436
-10.955913401016193   -0.3246898211598266   0.48165535311172436
-10.955913401016193   -0.3246898211598266   0.48165535311172436
-10.955913401016193   -0.3246898211598266   0.48165535311172436
-7.123858954156449   0.14401764461783784   -0.15586845360873763
-7.123858954156449   0.14401764461783784   -0.15586845360873763
-7.123858954156449   0.14401764461783784   -0.15586845360873763
-7.123858954156449   0.14401764461783784   -0.15586845360873763
-6.882394229557339   0.6988282392244756   0.3009152808419664
-6.882394229557339   0.6988282392244756   0.3009152808419664
-6.882394229557339   0.6988282392244756   0.3009152808419664
-6.882394229557339   0.6988282392244756   0.3009152808419664
-10.849538891095929   -0.538124677754523   -0.2816758724066486
-10.849538891095929   -0.538124677754523   -0.2816758724066486
-10.849538891095929   -0.538124677754523   -0.2816758724066486
-10.849538891095929   -0.538124677754523   -0.2816758724066486
-8.541702958764402   0.0782942720573856   0.18881179412411386
-8.541702958764402   0.0782942720573856   0.18881179412411386
-8.541702958764402   0.0782942720573856   0.18881179412411386
-8.541702958764402   0.0782942720573856   0.18881179412411386
-7.122464633847395   -0.9432742448500022   -0.12548056369228694
-7.122464633847395   -0.9432742448500022   -0.12548056369228694
-7.122464633847395   -0.9432742448500022   -0.12548056369228694
-7.122464633847395   -0.9432742448500022   -0.12548056369228694
-3.277710407484284   -0.07109030202599376   0.035213769176803106
-3.277710407484284   -0.07109030202599376   0.035213769176803106
-3.277710407484284   -0.07109030202599376   0.035213769176803106
-3.277710407484284   -0.07109030202599376   0.035213769176803106
-3.3272832627470077   0.0639840475305381   0.048923114379101657
-3.3272832627470077   0.0639840475305381   0.048923114379101657
-3.3272832627470077   0.0639840475305381   0.048923114379101657
-3.3272832627470077   0.0639840475305381   0.048923114379101657
-7.264535991545685   -0.6907260231161403   -0.21366777842810758
-7.264535991545685   -0.6907260231161403   -0.21366777842810758
-7.264535991545685   -0.6907260231161403   -0.21366777842810758
-7.264535991545685   -0.6907260231161403   -0.21366777842810758
-5.247720898853177   -0.4252271781324335   -0.11956804737663584
-5.247720898853177   -0.4252271781324335   -0.11956804737663584
-5.247720898853177   -0.4252271781324335   -0.11956804737663584
-5.247720898853177   -0.4252271781324335   -0.11956804737663584
-7.257988147374558   -0.7552270570070997   -0.11642752368153722
-7.257988147374558   -0.7552270570070997   -0.11642752368153722
-7.257988147374558   -0.7552270570070997   -0.11642752368153722
-7.257988147374558   -0.7552270570070997   -0.11642752368153722
-3.3208536276578817   0.141462560681752   0.003592776673550735
-3.3208536276578817   0.141462560681752   0.003592776673550735
-3.3208536276578817   0.141462560681752   0.003592776673550735
-3.3208536276578817   0.141462560681752   0.003592776673550735
-3.31607953793702   0.23129573422476268   0.06698568493086227
-3.31607953793702   0.23129573422476268   0.06698568493086227
-3.31607953793702   0.23129573422476268   0.06698568493086227
-3.31607953793702   0.23129573422476268   0.06698568493086227
-7.269070800330381   -0.5069194697680617   -0.23099057009256585
-7.269070800330381   -0.5069194697680617   -0.23099057009256585
-7.269070800330381   -0.5069194697680617   -0.23099057009256585
-7.269070800330381   -0.5069194697680617   -0.23099057009256585
-5.2388925198116   -0.2369598476491217   -0.05678944280320092
-5.2388925198116   -0.2369598476491217   -0.05678944280320092
-5.2388925198116   -0.2369598476491217   -0.05678944280320092
-5.2388925198116   -0.2369598476491217   -0.05678944280320092
-7.240892273805136   -0.572056192818261   -0.024961214416140354
-7.240892273805136   -0.572056192818261   -0.024961214416140354
-7.240892273805136   -0.572056192818261   -0.024961214416140354
-7.240892273805136   -0.572056192818261   -0.024961214416140354
-3.3201787749349645   0.3205117468022779   -0.04272651263631583
-3.3201787749349645   0.3205117468022779   -0.04272651263631583
-3.3201787749349645   0.3205117468022779   -0.04272651263631583
-3.3201787749349645   0.3205117468022779   -0.04272651263631583
-3.261816959890643   0.39950064167819477   0.13531933973625404
-3.261816959890643   0.39950064167819477   0.13531933973625404
-3.261816959890643   0.39950064167819477   0.13531933973625404
-3.261816959890643   0.39950064167819477   0.13531933973625404
-7.192728342454705   -0.2945676535237156   -0.25735939089670123
-7.192728342454705   -0.2945676535237156   -0.25735939089670123
-7.192728342454705   -0.2945676535237156   -0.25735939089670123
-7.192728342454705   -0.2945676535237156   -0.25735939089670123
-5.218461075708813   -0.05882789729164872   0.02626595723801156
-5.218461075708813   -0.05882789729164872   0.02626595723801156
-5.218461075708813   -0.05882789729164872   0.02626595723801156
-5.218461075708813   -0.05882789729164872   0.02626595723801156
-3.4569177572700482   -0.7850939064553539   -0.1468193753226863
-3.4569177572700482   -0.7850939064553539   -0.1468193753226863
-3.4569177572700482   -0.7850939064553539   -0.1468193753226863
-3.4569177572700482   -0.7850939064553539   -0.1468193753226863
0.3655227181826633   0.08316174260605994   0.13468023360377626
0.3655227181826633   0.08316174260605994   0.13468023360377626
0.3655227181826633   0.08316174260605994   0.13468023360377626
0.3655227181826633   0.08316174260605994   0.13468023360377626
0.3478704592039796   0.19904183472961678   0.010555913645772769
0.3478704592039796   0.19904183472961678   0.010555913645772769
0.3478704592039796   0.19904183472961678   0.010555913645772769
0.3478704592039796   0.19904183472961678   0.010555913645772769
-3.472725528412404   -0.5206108098447647   -0.09369335657257508
-3.472725528412404   -0.5206108098447647   -0.09369335657257508
-3.472725528412404   -0.5206108098447647   -0.09369335657257508
-3.472725528412404   -0.5206108098447647   -0.09369335657257508
-1.5690682855633669   -0.2598049424681936   -0.04926294328472926
-1.5690682855633669   -0.2598049424681936   -0.04926294328472926
-1.5690682855633669   -0.2598049424681936   -0.04926294328472926
-1.5690682855633669   -0.2598049424681936   -0.04926294328472926
-3.49671104852299   -0.5990266691158201   -0.13520509785444984
-3.49671104852299   -0.5990266691158201   -0.13520509785444984
-3.49671104852299   -0.5990266691158201   -0.13520509785444984
-3.49671104852299   -0.5990266691158201   -0.13520509785444984
0.3852887328067521   0.29089044749285986   0.1057986688963921
0.3852887328067521   0.29089044749285986   0.1057986688963921
0.3852887328067521   0.29089044749285986   0.1057986688963921
0.3852887328067521   0.29089044749285986   0.1057986688963921
0.3737170739150228   0.3833448873309528   0.06273024323221167
0.3737170739150228   0.3833448873309528   0.06273024323221167
0.3737170739150228   0.3833448873309528   0.06273024323221167
0.3737170739150228   0.3833448873309528   0.06273024323221167
-3.4628035163941826   -0.3185406332667758   -0.11679783986341348
-3.4628035163941826   -0.3185406332667758   -0.11679783986341348
-3.4628035163941826   -0.3185406332667758   -0.11679783986341348
-3.4628035163941826   -0.3185406332667758   -0.11679783986341348
-1.5457039999124669   -0.06385500225390917   0.01877885817424324
-1.5457039999124669   -0.06385500225390917   0.01877885817424324
-1.5457039999124669   -0.06385500225390917   0.01877885817424324
-1.5457039999124669   -0.06385500225390917   0.01877885817424324
-3.471973683275647   -0.4121476452176048   -0.06904166231990667
-3.471973683275647   -0.4121476452176048   -0.06904166231990667
-3.471973683275647   -0.4121476452176048   -0.06904166231990667
-3.471973683275647   -0.4121476452176048   -0.06904166231990667
0.3973283904337562   0.49139304891904523   0.07273866423778394
0.3973283904337562   0.49139304891904523   0.07273866423778394
0.3973283904337562   0.49139304891904523   0.07273866423778394
0.3973283904337562   0.49139304891904523   0.07273866423778394
0.38111971599002176   0.588493266218015   0.10348727221132496
0.38111971599002176   0.588493266218015   0.10348727221132496
0.38111971599002176   0.588493266218015   0.10348727221132496
0.38111971599002176   0.588493266218015   0.10348727221132496
-3.4186678822438106   -0.1024232890773572   -0.1470113412740137
-3.4186678822438106   -0.1024232890773572   -0.1470113412740137
-3.4186678822438106   -0.1024232890773572   -0.1470113412740137
-3.4186678822438106   -0.1024232890773572   -0.1470113412740137
-1.5081671345926224   0.14106819212735705   0.09326493946155355
-1.5081671345926224   0.14106819212735705   0.09326493946155355
-1.5081671345926224   0.14106819212735705   0.09326493946155355
-1.5081671345926224   0.14106819212735705   0.09326493946155355
0.17099707219075494   -0.5751326025390917   -0.17965365121061386
0.17099707219075494   -0.5751326025390917   -0.17965365121061386
0.17099707219075494   -0.5751326025390917   -0.17965365121061386
0.17099707219075494   -0.5751326025390917   -0.17965365121061386
4.130649063954003   0.2858655540574023   0.24674670191338413
4.130649063954003   0.2858655540574023   0.24674670191338413
4.130649063954003   0.2858655540574023   0.24674670191338413
4.130649063954003   0.2858655540574023   0.24674670191338413
4.12464483051916   0.38425011406543846   -0.03920239835549365
4.12464483051916   0.38425011406543846   -0.03920239835549365
4.12464483051916   0.38425011406543846   -0.03920239835549365
4.12464483051916   0.38425011406543846   -0.03920239835549365
0.2414759205142038   -0.34634455885196935   0.023969613778480017
0.2414759205142038   -0.34634455885196935   0.023969613778480017
0.2414759205142038   -0.34634455885196935   0.023969613778480017
0.2414759205142038   -0.34634455885196935   0.023969613778480017
2.140317794773119   -0.04874302864081059   0.004942207650872638
2.140317794773119   -0.04874302864081059   0.004942207650872638
2.140317794773119   -0.04874302864081059   0.004942207650872638
2.140317794773119   -0.04874302864081059   0.004942207650872638
0.19507864353647905   -0.4205790913770189   -0.13378223858509142
0.19507864353647905   -0.4205790913770189   -0.13378223858509142
0.19507864353647905   -0.4205790913770189   -0.13378223858509142
0.19507864353647905   -0.4205790913770189   -0.13378223858509142
4.195108339832923   0.482550878926519   0.21481438335220354
4.195108339832923   0.482550878926519   0.21481438335220354
4.195108339832923   0.482550878926519   0.21481438335220354
4.195108339832923   0.482550878926519   0.21481438335220354
4.155839282391636   0.5664545164764407   0.04256163676173827
4.155839282391636   0.5664545164764407   0.04256163676173827
4.155839282391636   0.5664545164764407   0.04256163676173827
4.155839282391636   0.5664545164764407   0.04256163676173827
0.24876796467295373   -0.1658223678485355   -0.012848047798645103
0.24876796467295373   -0.1658223678485355   -0.012848047798645103
0.24876796467295373   -0.1658223678485355   -0.012848047798645103
0.24876796467295373   -0.1658223678485355   -0.012848047798645103
2.1675777478034646   0.1254702320523018   0.0885560686004199
2.1675777478034646   0.1254702320523018   0.0885560686004199
2.1675777478034646   0.1254702320523018   0.0885560686004199
2.1675777478034646   0.1254702320523018   0.0885560686004199
0.2150964443402895   -0.24967665162356373   -0.09735136568693724
0.2150964443402895   -0.24967665162356373   -0.09735136568693724
0.2150964443402895   -0.24967665162356373   -0.09735136568693724
0.2150964443402895   -0.24967665162356373   -0.09735136568693724
4.206913626372921   0.6677116239000824   0.19667624924444665
4.206913626372921   0.6677116239000824   0.19667624924444665
4.206913626372921   0.6677116239000824   0.19667624924444665
4.206913626372921   0.6677116239000824   0.19667624924444665
4.0880462327291305   0.7767805269152902   0.0888792889173418
4.0880462327291305   0.7767805269152902   0.0888792889173418
4.0880462327291305   0.7767805269152902   0.0888792889173418
4.0880462327291305   0.7767805269152902   0.0888792889173418
0.245455765731274   0.05797938135176912   -0.04431859421616771
0.245455765731274   0.05797938135176912   -0.04431859421616771
0.245455765731274   0.05797938135176912   -0.04431859421616771
0.245455765731274   0.05797938135176912   -0.04431859421616771
2.1983518347664734   0.3246820511488388   0.16587833237981653
2.1983518347664734   0.3246820511488388   0.16587833237981653
2.1983518347664734   0.3246820511488388   0.16587833237981653
2.1983518347664734   0.3246820511488388   0.16587833237981653
3.806587137483213   -0.756694513839494   -0.33100286254366873
3.806587137483213   -0.756694513839494   -0.33100286254366873
3.806587137483213   -0.756694513839494   -0.33100286254366873
3.806587137483213   -0.756694513839494   -0.33100286254366873
7.8318643096485365   0.5172332988991013   0.23911899132703512
7.8318643096485365   0.5172332988991013   0.23911899132703512
7.8318643096485365   0.5172332988991013   0.23911899132703512
7.8318643096485365   0.5172332988991013   0.23911899132703512
7.919020022202686   0.24760958332479688   -0.4977677541859606
7.919020022202686   0.24760958332479688   -0.4977677541859606
7.919020022202686   0.24760958332479688   -0.4977677541859606
7.919020022202686   0.24760958332479688   -0.4977677541859606
4.052709602357288   -0.15717843656836972   0.14255001146888507
4.052709602357288   -0.15717843656836972   0.14255001146888507
4.052709602357288   -0.15717843656836972   0.14255001146888507
4.052709602357288   -0.15717843656836972   0.14255001146888507
5.609359136577894   -0.09657082428935437   -0.1392637207025293
5.609359136577894   -0.09657082428935437   -0.1392637207025293
5.609359136577894   -0.09657082428935437   -0.1392637207025293
5.609359136577894   -0.09657082428935437   -0.1392637207025293
3.9122230989495215   -0.4980070324302467   -0.21905390970802147
3.9122230989495215   -0.4980070324302467   -0.21905390970802147
3.9122230989495215   -0.4980070324302467   -0.21905390970802147
3.9122230989495215   -0.4980070324302467   -0.21905390970802147
8.13113137766674   0.6600630312429716   0.15033557521613966
8.13113137766674   0.6600630312429716   0.15033557521613966
8.13113137766674   0.6600630312429716   0.15033557521613966
8.13113137766674   0.6600630312429716   0.15033557521613966
8.004158104401672   0.44812653871637864   -0.11102017798033215
8.004158104401672   0.44812653871637864   -0.11102017798033215
8.004158104401672   0.44812653871637864   -0.11102017798033215
8.004158104401672   0.44812653871637864   -0.11102017798033215
4.035141608887773   -0.06731922971589777   0.07284701543469041
4.035141608887773   -0.06731922971589777   0.07284701543469041
4.035141608887773   -0.06731922971589777   0.07284701543469041
4.035141608887773   -0.06731922971589777   0.07284701543469041
5.900661292577002   0.1472641700011672   0.09668844305673524
5.900661292577002   0.1472641700011672   0.09668844305673524
5.900661292577002   0.1472641700011672   0.09668844305673524
5.900661292577002   0.1472641700011672   0.09668844305673524
3.922654749276834   -0.381126165983079   -0.1757803463527906
3.922654749276834   -0.381126165983079   -0.1757803463527906
3.922654749276834   -0.381126165983079   -0.1757803463527906
3.922654749276834   -0.381126165983079   -0.1757803463527906
8.10701062718954   0.7522991381604958   0.09906983651489154
8.10701062718954   0.7522991381604958   0.09906983651489154
8.10701062718954   0.7522991381604958   0.09906983651489154
8.10701062718954   0.7522991381604958   0.09906983651489154
7.988386261646615   0.6832785025105239   -0.17061775180338723
7.988386261646615   0.6832785025105239   -0.17061775180338723
7.988386261646615   0.6832785025105239   -0.17061775180338723
7.988386261646615   0.6832785025105239   -0.17061775180338723
3.950978551387136   0.14031208304609444   0.04000932607649213
3.950978551387136   0.14031208304609444   0.04000932607649213
3.950978551387136   0.14031208304609444   0.04000932607649213
3.950978551387136   0.14031208304609444   0.04000932607649213
5.748127983947812   0.25724087242751414   0.07083531553465228
5.748127983947812   0.25724087242751414   0.07083531553465228
5.748127983947812   0.25724087242751414   0.07083531553465228
5.748127983947812   0.25724087242751414   0.07083531553465228
-8.601550098518402   -0.39144340129369715   0.43943451341259976
-8.601550098518402   -0.39144340129369715   0.43943451341259976
-8.601550098518402   -0.39144340129369715   0.43943451341259976
-8.601550098518402   -0.39144340129369715   0.43943451341259976
-5.707226949388116   -0.21465697227766412   -0.11434427609131659
-5.707226949388116   -0.21465697227766412   -0.11434427609131659
-5.707226949388116   -0.21465697227766412   -0.11434427609131659
-5.707226949388116   -0.21465697227766412   -0.11434427609131659
-5.503289434770701   0.4615050324472425   0.3690277440395671
-5.503289434770701   0.4615050324472425   0.3690277440395671
-5.503289434770701   0.4615050324472425   0.3690277440395671
-5.503289434770701   0.4615050324472425   0.3690277440395671
-8.641819816705638   -0.6161969691980951   -0.17937593612941272
-8.641819816705638   -0.6161969691980951   -0.17937593612941272
-8.641819816705638   -0.6161969691980951   -0.17937593612941272
-8.641819816705638   -0.6161969691980951   -0.17937593612941272
-6.824276387281417   -0.10556148410039579   -0.011074212578757736
-6.824276387281417   -0.10556148410039579   -0.011074212578757736
-6.824276387281417   -0.10556148410039579   -0.011074212578757736
-6.824276387281417   -0.10556148410039579   -0.011074212578757736
-8.40283939154942   -0.09362055302141603   0.4929497734749942
-8.40283939154942   -0.09362055302141603   0.4929497734749942
-8.40283939154942   -0.09362055302141603   0.4929497734749942
-8.40283939154942   -0.09362055302141603   0.4929497734749942
-5.704596809011802   -0.023398332814320355   -0.15260576190437458
-5.704596809011802   -0.023398332814320355   -0.15260576190437458
-5.704596809011802   -0.023398332814320355   -0.15260576190437458
-5.704596809011802   -0.023398332814320355   -0.15260576190437458
-5.481501252206057   0.5721295025279647   0.3423331339915043
-5.481501252206057   0.5721295025279647   0.3423331339915043
-5.481501252206057   0.5721295025279647   0.3423331339915043
-5.481501252206057   0.5721295025279647   0.3423331339915043
-8.509483917356132   -0.515993400390613   -0.24583544484365216
-8.509483917356132   -0.515993400390613   -0.24583544484365216
-8.509483917356132   -0.515993400390613   -0.24583544484365216
-8.509483917356132   -0.515993400390613   -0.24583544484365216
-6.84004865889414   0.024432279897294906   0.0795815775454421
-6.84004865889414   0.024432279897294906   0.0795815775454421
-6.84004865889414   0.024432279897294906   0.0795815775454421
-6.84004865889414   0.024432279897294906   0.0795815775454421
-8.286847951584111   0.010719777149350795   0.3406312064764882
-8.286847951584111   0.010719777149350795   0.3406312064764882
-8.286847951584111   0.010719777149350795   0.3406312064764882
-8.286847951584111   0.010719777149350795   0.3406312064764882
-5.691712449099419   0.057841093866679794   -0.1944344418139618
-5.691712449099419   0.057841093866679794   -0.1944344418139618
-5.691712449099419   0.057841093866679794   -0.1944344418139618
-5.691712449099419   0.057841093866679794   -0.1944344418139618
-5.487399093241443   0.6449608898206693   0.27161216761482687
-5.487399093241443   0.6449608898206693   0.27161216761482687
-5.487399093241443   0.6449608898206693   0.27161216761482687
-5.487399093241443   0.6449608898206693   0.27161216761482687
-8.337298517894004   -0.4099068166965736   -0.31370301674970863
-8.337298517894004   -0.4099068166965736   -0.31370301674970863
-8.337298517894004   -0.4099068166965736   -0.31370301674970863
-8.337298517894004   -0.4099068166965736   -0.31370301674970863
-6.644515374462147   0.14065693691535963   0.16429774981705636
-6.644515374462147   0.14065693691535963   0.16429774981705636
-6.644515374462147   0.14065693691535963   0.16429774981705636
-6.644515374462147   0.14065693691535963   0.16429774981705636
-5.725253652421532   -0.5428905479633476   0.12375578442728277
-5.725253652421532   -0.5428905479633476   0.12375578442728277
-5.725253652421532   -0.5428905479633476   0.12375578442728277
-5.725253652421532   -0.5428905479633476   0.12375578442728277
-2.886446911159993   -0.1031453644317849   0.0057672770109950255
-2.886446911159993   -0.1031453644317849   0.0057672770109950255
-2.886446911159993   -0.1031453644317849   0.0057672770109950255
-2.886446911159993   -0.1031453644317849   0.0057672770109950255
-2.805447400221368   0.28396055941798115   0.20067654291818282
-2.805447400221368   0.28396055941798115   0.20067654291818282
-2.805447400221368   0.28396055941798115   0.20067654291818282
-2.805447400221368   0.28396055941798115   0.20067654291818282
-5.816545966144767   -0.5353943294970605   -0.20035555088652302
-5.816545966144767   -0.5353943294970605   -0.20035555088652302
-5.816545966144767   -0.5353943294970605   -0.20035555088652302
-5.816545966144767   -0.5353943294970605   -0.20035555088652302
-4.292949489923501   -0.21064510507741085   -0.08627010515420855
-4.292949489923501   -0.21064510507741085   -0.08627010515420855
-4.292949489923501   -0.21064510507741085   -0.08627010515420855
-4.292949489923501   -0.21064510507741085   -0.08627010515420855
-5.707906040407357   -0.31264710628512815   0.12009685458862562
-5.707906040407357   -0.31264710628512815   0.12009685458862562
-5.707906040407357   -0.31264710628512815   0.12009685458862562
-5.707906040407357   -0.31264710628512815   0.12009685458862562
-2.8920150061847063   0.08328565598013049   -0.031486583460629936
-2.8920150061847063   0.08328565598013049   -0.031486583460629936
-2.8920150061847063   0.08328565598013049   -0.031486583460629936
-2.8920150061847063   0.08328565598013049   -0.031486583460629936
-2.7971034260627685   0.46841893757835273   0.17373409237189352
-2.7971034260627685   0.46841893757835273   0.17373409237189352
-2.7971034260627685   0.46841893757835273   0.17373409237189352
-2.7971034260627685   0.46841893757835273   0.17373409237189352
-5.784313246575555   -0.36310662706146546   -0.23649070826655408
-5.784313246575555   -0.36310662706146546   -0.23649070826655408
-5.784313246575555   -0.36310662706146546   -0.23649070826655408
-5.784313246575555   -0.36310662706146546   -0.23649070826655408
-4.246677010256288   -0.023811661233045123   8.125514145962409e-05
-4.246677010256288   -0.023811661233045123   8.125514145962409e-05
-4.246677010256288   -0.023811661233045123   8.125514145962409e-05
-4.246677010256288   -0.023811661233045123   8.125514145962409e-05
-5.673439584840081   -0.12553409831801599   0.08030507166736212
-5.673439584840081   -0.12553409831801599   0.08030507166736212
-5.673439584840081   -0.12553409831801599   0.08030507166736212
-5.673439584840081   -0.12553409831801599   0.08030507166736212
-2.8899997391652144   0.24882375746793883   -0.07115229302987239
-2.8899997391652144   0.24882375746793883   -0.07115229302987239
-2.8899997391652144   0.24882375746793883   -0.07115229302987239
-2.8899997391652144   0.24882375746793883   -0.07115229302987239
-2.7968018402015717   0.6621446146835763   0.13027544788662393
-2.7968018402015717   0.6621446146835763   0.13027544788662393
-2.7968018402015717   0.6621446146835763   0.13027544788662393
-2.7968018402015717   0.6621446146835763   0.13027544788662393
-5.757093960490278   -0.17735192995268534   -0.25454934885600816
-5.757093960490278   -0.17735192995268534   -0.25454934885600816
-5.757093960490278   -0.17735192995268534   -0.25454934885600816
-5.757093960490278   -0.17735192995268534   -0.25454934885600816
-4.250088175312177   0.1473201435250967   0.06598461062137922
-4.250088175312177   0.1473201435250967   0.06598461062137922
-4.250088175312177   0.1473201435250967   0.06598461062137922
-4.250088175312177   0.1473201435250967   0.06598461062137922
-2.9943861420488025   -0.6193091037783008   -0.01776513808656191
-2.9943861420488025   -0.6193091037783008   -0.01776513808656191
-2.9943861420488025   -0.6193091037783008   -0.01776513808656191
-2.9943861420488025   -0.6193091037783008   -0.01776513808656191
-0.09214552435768936   0.032232419711718065   0.12792469479217122
-0.09214552435768936   0.032232419711718065   0.12792469479217122
-0.09214552435768936   0.032232419711718065   0.12792469479217122
-0.09214552435768936   0.032232419711718065   0.12792469479217122
-0.1036144923468624   0.18416058049811496   0.06105255907628212
-0.1036144923468624   0.18416058049811496   0.06105255907628212
-0.1036144923468624   0.18416058049811496   0.06105255907628212
-0.1036144923468624   0.18416058049811496   0.06105255907628212
-2.9969297050985344   -0.3975618442994254   -0.07521257775024134
-2.9969297050985344   -0.3975618442994254   -0.07521257775024134
-2.9969297050985344   -0.3975618442994254   -0.07521257775024134
-2.9969297050985344   -0.3975618442994254   -0.07521257775024134
-1.5514775244217018   -0.19368270871601112   -0.04813626695525719
-1.5514775244217018   -0.19368270871601112   -0.04813626695525719
-1.5514775244217018   -0.19368270871601112   -0.04813626695525719
-1.5514775244217018   -0.19368270871601112   -0.04813626695525719
-2.993709812648165   -0.4145033227808055   -0.04217163701701746
-2.993709812648165   -0.4145033227808055   -0.04217163701701746
-2.993709812648165   -0.4145033227808055   -0.04217163701701746
-2.993709812648165   -0.4145033227808055   -0.04217163701701746
-0.09036837767032832   0.21756806610638788   0.09387564685068109
-0.09036837767032832   0.21756806610638788   0.09387564685068109
-0.09036837767032832   0.21756806610638788   0.09387564685068109
-0.09036837767032832   0.21756806610638788   0.09387564685068109
-0.0905037587930952   0.38517844004343205   0.029497769086538617
-0.0905037587930952   0.38517844004343205   0.029497769086538617
-0.0905037587930952   0.38517844004343205   0.029497769086538617
-0.0905037587930952   0.38517844004343205   0.029497769086538617
-2.9899465623683934   -0.21194385473704586   -0.1101187968408026
-2.9899465623683934   -0.21194385473704586   -0.1101187968408026
-2.9899465623683934   -0.21194385473704586   -0.1101187968408026
-2.9899465623683934   -0.21194385473704586   -0.1101187968408026
-1.536927532560207   -0.00772551719660064   0.02160398254935346
-1.536927532560207   -0.00772551719660064   0.02160398254935346
-1.536927532560207   -0.00772551719660064   0.02160398254935346
-1.536927532560207   -0.00772551719660064   0.02160398254935346
-2.9854304436767602   -0.2163357186454592   -0.08314633947422234
-2.9854304436767602   -0.2163357186454592   -0.08314633947422234
-2.9854304436767602   -0.2163357186454592   -0.08314633947422234
-2.9854304436767602   -0.2163357186454592   -0.08314633947422234
-0.08141871046964198   0.40317147096691675   0.05692997978032088
-0.08141871046964198   0.40317147096691675   0.05692997978032088
-0.08141871046964198   0.40317147096691675   0.05692997978032088
-0.08141871046964198   0.40317147096691675   0.05692997978032088
-0.08814784831668912   0.5922457784412989   -0.0041860376078543815
-0.08814784831668912   0.5922457784412989   -0.0041860376078543815
-0.08814784831668912   0.5922457784412989   -0.0041860376078543815
-0.08814784831668912   0.5922457784412989   -0.0041860376078543815
-2.988979651111685   -0.023129970889689933   -0.14533902109069224
-2.988979651111685   -0.023129970889689933   -0.14533902109069224
-2.988979651111685   -0.023129970889689933   -0.14533902109069224
-2.988979651111685   -0.023129970889689933   -0.14533902109069224
-1.5257507394832177   0.1784048852644443   0.08554752228412643
-1.5257507394832177   0.1784048852644443   0.08554752228412643
-1.5257507394832177   0.1784048852644443   0.08554752228412643
-1.5257507394832177   0.1784048852644443   0.08554752228412643
-0.2892716796399759   -0.6771355561879824   -0.14833810571956005
-0.2892716796399759   -0.6771355561879824   -0.14833810571956005
-0.2892716796399759   -0.6771355561879824   -0.14833810571956005
-0.2892716796399759   -0.6771355561879824   -0.14833810571956005
2.692637503776141   0.1908834664031004   0.24311393363868924
2.692637503776141   0.1908834664031004   0.24311393363868924
2.692637503776141   0.1908834664031004   0.24311393363868924
2.692637503776141   0.1908834664031004   0.24311393363868924
2.604735802186215   0.10249133591292298   -0.09511079406906935
2.604735802186215   0.10249133591292298   -0.09511079406906935
2.604735802186215   0.10249133591292298   -0.09511079406906935
2.604735802186215   0.10249133591292298   -0.09511079406906935
-0.19205719946646882   -0.2487468932097519   0.0517464971861183
-0.19205719946646882   -0.2487468932097519   0.0517464971861183
-0.19205719946646882   -0.2487468932097519   0.0517464971861183
-0.19205719946646882   -0.2487468932097519   0.0517464971861183
1.1870247195687331   -0.15577900865647215   -0.02700024903095767
1.1870247195687331   -0.15577900865647215   -0.02700024903095767
1.1870247195687331   -0.15577900865647215   -0.02700024903095767
1.1870247195687331   -0.15577900865647215   -0.02700024903095767
-0.2887498094225009   -0.4943969306298043   -0.1860665151739898
-0.2887498094225009   -0.4943969306298043   -0.1860665151739898
-0.2887498094225009   -0.4943969306298043   -0.1860665151739898
-0.2887498094225009   -0.4943969306298043   -0.1860665151739898
2.720151113805832   0.36686407499656026   0.21759302494537827
2.720151113805832   0.36686407499656026   0.21759302494537827
2.720151113805832   0.36686407499656026   0.21759302494537827
2.720151113805832   0.36686407499656026   0.21759302494537827
2.6458714016869695   0.28943676364743565   -0.1336558273328052
2.6458714016869695   0.28943676364743565   -0.1336558273328052
2.6458714016869695   0.28943676364743565   -0.1336558273328052
2.6458714016869695   0.28943676364743565   -0.1336558273328052
-0.18702423922856687   -0.0824642119709496   0.014538018923564346
-0.18702423922856687   -0.0824642119709496   0.014538018923564346
-0.18702423922856687   -0.0824642119709496   0.014538018923564346
-0.18702423922856687   -0.0824642119709496   0.014538018923564346
1.196638525362776   0.012290928449048777   0.042237362543407916
1.196638525362776   0.012290928449048777   0.042237362543407916
1.196638525362776   0.012290928449048777   0.042237362543407916
1.196638525362776   0.012290928449048777   0.042237362543407916
-0.28104666037014586   -0.31401945254039726   -0.224018846214885
-0.28104666037014586   -0.31401945254039726   -0.224018846214885
-0.28104666037014586   -0.31401945254039726   -0.224018846214885
-0.28104666037014586   -0.31401945254039726   -0.224018846214885
2.7602921217610494   0.541390303149389   0.18649423353564087
2.7602921217610494   0.541390303149389   0.18649423353564087
2.7602921217610494   0.541390303149389   0.18649423353564087
2.7602921217610494   0.541390303149389   0.18649423353564087
2.6709501974260776   0.5240939940301836   -0.13923996251889859
2.6709501974260776   0.5240939940301836   -0.13923996251889859
2.6709501974260776   0.5240939940301836   -0.13923996251889859
2.6709501974260776   0.5240939940301836   -0.13923996251889859
-0.18785713189358416   0.11208776803901896   -0.022574445090047114
-0.18785713189358416   0.11208776803901896   -0.022574445090047114
-0.18785713189358416   0.11208776803901896   -0.022574445090047114
-0.18785713189358416   0.11208776803901896   -0.022574445090047114
1.2370353920723816   0.19995904636898382   0.1245672975478107
1.2370353920723816   0.19995904636898382   0.1245672975478107
1.2370353920723816   0.19995904636898382   0.1245672975478107
1.2370353920723816   0.19995904636898382   0.1245672975478107
2.413842364468392   -0.6718254564180957   -0.2881528400788377
2.413842364468392   -0.6718254564180957   -0.2881528400788377
2.413842364468392   -0.6718254564180957   -0.2881528400788377
2.413842364468392   -0.6718254564180957   -0.2881528400788377
5.29895755967996   0.39357633913614587   0.26931723321339907
5.29895755967996   0.39357633913614587   0.26931723321339907
5.29895755967996   0.39357633913614587   0.26931723321339907
5.29895755967996   0.39357633913614587   0.26931723321339907
5.257425927611941   -0.021446086232531414   -0.3835045621066059
5.257425927611941   -0.021446086232531414   -0.3835045621066059
5.257425927611941   -0.021446086232531414   -0.3835045621066059
5.257425927611941   -0.021446086232531414   -0.3835045621066059
2.627835920166393   -0.05757982657612726   0.1804609583208941
2.627835920166393   -0.05757982657612726   0.1804609583208941
2.627835920166393   -0.05757982657612726   0.1804609583208941
2.627835920166393   -0.05757982657612726   0.1804609583208941
3.710282878722224   -0.13019500274730045   -0.12108318669055662
3.710282878722224   -0.13019500274730045   -0.12108318669055662
3.710282878722224   -0.13019500274730045   -0.12108318669055662
3.710282878722224   -0.13019500274730045   -0.12108318669055662
2.4155808209823495   -0.5839942233101849   -0.3544001408652518
2.4155808209823495   -0.5839942233101849   -0.3544001408652518
2.4155808209823495   -0.5839942233101849   -0.3544001408652518
2.4155808209823495   -0.5839942233101849   -0.3544001408652518
5.484953857617933   0.5202411413234727   0.21244786036735408
5.484953857617933   0.5202411413234727   0.21244786036735408
5.484953857617933   0.5202411413234727   0.21244786036735408
5.484953857617933   0.5202411413234727   0.21244786036735408
5.384480875124144   0.08518520222525416   -0.5139700910959203
5.384480875124144   0.08518520222525416   -0.5139700910959203
5.384480875124144   0.08518520222525416   -0.5139700910959203
5.384480875124144   0.08518520222525416   -0.5139700910959203
2.6463016675887077   0.023734954267273123   0.13419731155609602
2.6463016675887077   0.023734954267273123   0.13419731155609602
2.6463016675887077   0.023734954267273123   0.13419731155609602
2.6463016675887077   0.023734954267273123   0.13419731155609602
3.8765991091827554   -0.015077546529840946   -0.03730535387544187
3.8765991091827554   -0.015077546529840946   -0.03730535387544187
3.8765991091827554   -0.015077546529840946   -0.03730535387544187
3.8765991091827554   -0.015077546529840946   -0.03730535387544187
2.442137528418226   -0.47755594575213167   -0.385332484276932
2.442137528418226   -0.47755594575213167   -0.385332484276932
2.442137528418226   -0.47755594575213167   -0.385332484276932
2.442137528418226   -0.47755594575213167   -0.385332484276932
5.6223530762846   0.6201841642346273   0.14039195269703597
5.6223530762846   0.6201841642346273   0.14039195269703597
5.6223530762846   0.6201841642346273   0.14039195269703597
5.6223530762846   0.6201841642346273   0.14039195269703597
5.5863276230637515   0.3627861601850483   -0.48296935990535406
5.5863276230637515   0.3627861601850483   -0.48296935990535406
5.5863276230637515   0.3627861601850483   -0.48296935990535406
5.5863276230637515   0.3627861601850483   -0.48296935990535406
2.65433378009824   0.2039562002491187   0.09781574462302499
2.65433378009824   0.2039562002491187   0.09781574462302499
2.65433378009824   0.2039562002491187   0.09781574462302499
2.65433378009824   0.2039562002491187   0.09781574462302499
3.9036175752957707   0.11680403785828297   0.05514916780675591
3.9036175752957707   0.11680403785828297   0.05514916780675591
3.9036175752957707   0.11680403785828297   0.05514916780675591
3.9036175752957707   0.11680403785828297   0.05514916780675591
-6.162692751449442   -0.20306614929101752   0.399075640903242
-6.162692751449442   -0.20306614929101752   0.399075640903242
-6.162692751449442   -0.20306614929101752   0.399075640903242
-6.162692751449442   -0.20306614929101752   0.399075640903242
-4.30491021576926   -0.2857820538084982   -0.15114836138102858
-4.30491021576926   -0.2857820538084982   -0.15114836138102858
-4.30491021576926   -0.2857820538084982   -0.15114836138102858
-4.30491021576926   -0.2857820538084982   -0.15114836138102858
-4.053064820342234   0.4055345063907778   0.3405264454515482
-4.053064820342234   0.4055345063907778   0.3405264454515482
-4.053064820342234   0.4055345063907778   0.3405264454515482
-4.053064820342234   0.4055345063907778   0.3405264454515482
-6.163252463967719   -0.5069130790898508   -0.22100466362919163
-6.163252463967719   -0.5069130790898508   -0.22100466362919163
-6.163252463967719   -0.5069130790898508   -0.22100466362919163
-6.163252463967719   -0.5069130790898508   -0.22100466362919163
-4.958756278368307   -0.07943315963524822   -0.0095026796580861
-4.958756278368307   -0.07943315963524822   -0.0095026796580861
-4.958756278368307   -0.07943315963524822   -0.0095026796580861
-4.958756278368307   -0.07943315963524822   -0.0095026796580861
-5.934270406005842   0.03715550798817935   0.37983703910216415
-5.934270406005842   0.03715550798817935   0.37983703910216415
-5.934270406005842   0.03715550798817935   0.37983703910216415
-5.934270406005842   0.03715550798817935   0.37983703910216415
-4.263450337916995   -0.11993754030011916   -0.1859290957313183
-4.263450337916995   -0.11993754030011916   -0.1859290957313183
-4.263450337916995   -0.11993754030011916   -0.1859290957313183
-4.263450337916995   -0.11993754030011916   -0.1859290957313183
-4.014958701001553   0.4896656636470218   0.28793465898994364
-4.014958701001553   0.4896656636470218   0.28793465898994364
-4.014958701001553   0.4896656636470218   0.28793465898994364
-4.014958701001553   0.4896656636470218   0.28793465898994364
-6.018288144471202   -0.41317144761936275   -0.2796073146324458
-6.018288144471202   -0.41317144761936275   -0.2796073146324458
-6.018288144471202   -0.41317144761936275   -0.2796073146324458
-6.018288144471202   -0.41317144761936275   -0.2796073146324458
-4.924746278131389   0.031624910568476494   0.052984707126862374
-4.924746278131389   0.031624910568476494   0.052984707126862374
-4.924746278131389   0.031624910568476494   0.052984707126862374
-4.924746278131389   0.031624910568476494   0.052984707126862374
-5.7911447349626695   0.13785765176248366   0.3050806335283698
-5.7911447349626695   0.13785765176248366   0.3050806335283698
-5.7911447349626695   0.13785765176248366   0.3050806335283698
-5.7911447349626695   0.13785765176248366   0.3050806335283698
-4.22525932217428   -0.04452064739899253   -0.2293821358276402
-4.22525932217428   -0.04452064739899253   -0.2293821358276402
-4.22525932217428   -0.04452064739899253   -0.2293821358276402
-4.22525932217428   -0.04452064739899253   -0.2293821358276402
-3.993828869045386   0.5710859661539516   0.24779124865429764
-3.993828869045386   0.5710859661539516   0.24779124865429764
-3.993828869045386   0.5710859661539516   0.24779124865429764
-3.993828869045386   0.5710859661539516   0.24779124865429764
-5.823868490639478   -0.28946394830085564   -0.33490406118428495
-5.823868490639478   -0.28946394830085564   -0.33490406118428495
-5.823868490639478   -0.28946394830085564   -0.33490406118428495
-5.823868490639478   -0.28946394830085564   -0.33490406118428495
-4.740410228746014   0.1354603289178138   0.14093601967825536
-4.740410228746014   0.1354603289178138   0.14093601967825536
-4.740410228746014   0.1354603289178138   0.14093601967825536
-4.740410228746014   0.1354603289178138   0.14093601967825536
-4.257520405634875   -0.3487581596937499   0.14877679517611436
-4.257520405634875   -0.3487581596937499   0.14877679517611436
-4.257520405634875   -0.3487581596937499   0.14877679517611436
-4.257520405634875   -0.3487581596937499   0.14877679517611436
-2.462450929322732   -0.18522556893728753   -0.02436832191688408
-2.462450929322732   -0.18522556893728753   -0.02436832191688408
-2.462450929322732   -0.18522556893728753   -0.02436832191688408
-2.462450929322732   -0.18522556893728753   -0.02436832191688408
-2.33748736050956   0.23721474355498584   0.18363120873843894
-2.33748736050956   0.23721474355498584   0.18363120873843894
-2.33748736050956   0.23721474355498584   0.18363120873843894
-2.33748736050956   0.23721474355498584   0.18363120873843894
-4.3212295787687625   -0.4145891808925718   -0.18017365939774374
-4.3212295787687625   -0.4145891808925718   -0.18017365939774374
-4.3212295787687625   -0.4145891808925718   -0.18017365939774374
-4.3212295787687625   -0.4145891808925718   -0.18017365939774374
-3.3310249703422707   -0.16286090959294042   -0.06739820284325737
-3.3310249703422707   -0.16286090959294042   -0.06739820284325737
-3.3310249703422707   -0.16286090959294042   -0.06739820284325737
-3.3310249703422707   -0.16286090959294042   -0.06739820284325737
-4.207813556242426   -0.14926106905918202   0.12157834140052814
-4.207813556242426   -0.14926106905918202   0.12157834140052814
-4.207813556242426   -0.14926106905918202   0.12157834140052814
-4.207813556242426   -0.14926106905918202   0.12157834140052814
-2.436365934579385   -0.013575919821906757   -0.059970998233795786
-2.436365934579385   -0.013575919821906757   -0.059970998233795786
-2.436365934579385   -0.013575919821906757   -0.059970998233795786
-2.436365934579385   -0.013575919821906757   -0.059970998233795786
-2.3077321375222923   0.40963573772673245   0.15064000662117324
-2.3077321375222923   0.40963573772673245   0.15064000662117324
-2.3077321375222923   0.40963573772673245   0.15064000662117324
-2.3077321375222923   0.40963573772673245   0.15064000662117324
-4.263259105821297   -0.25166530017466693   -0.21223640128709143
-4.263259105821297   -0.25166530017466693   -0.21223640128709143
-4.263259105821297   -0.25166530017466693   -0.21223640128709143
-4.263259105821297   -0.25166530017466693   -0.21223640128709143
-3.267107229579553   0.006860670918789391   0.005497068633348562
-3.267107229579553   0.006860670918789391   0.005497068633348562
-3.267107229579553   0.006860670918789391   0.005497068633348562
-3.267107229579553   0.006860670918789391   0.005497068633348562
-4.141255852493401   0.03502158870318428   0.11109297647454106
-4.141255852493401   0.03502158870318428   0.11109297647454106
-4.141255852493401   0.03502158870318428   0.11109297647454106
-4.141255852493401   0.03502158870318428   0.11109297647454106
-2.4116816041160662   0.14100263558300608   -0.10047422420395791
-2.4116816041160662   0.14100263558300608   -0.10047422420395791
-2.4116816041160662   0.14100263558300608   -0.10047422420395791
-2.4116816041160662   0.14100263558300608   -0.10047422420395791
-2.2789906389603733   0.5931620408624986   0.11991718369000776
-2.2789906389603733   0.5931620408624986   0.11991718369000776
-2.2789906389603733   0.5931620408624986   0.11991718369000776
-2.2789906389603733   0.5931620408624986   0.11991718369000776
-4.219791895577841   -0.07629449735454852   -0.23464342049946377
-4.219791895577841   -0.07629449735454852   -0.23464342049946377
-4.219791895577841   -0.07629449735454852   -0.23464342049946377
-4.219791895577841   -0.07629449735454852   -0.23464342049946377
-3.2424445458103675   0.16630199656399525   0.07481468663765417
-3.2424445458103675   0.16630199656399525   0.07481468663765417
-3.2424445458103675   0.16630199656399525   0.07481468663765417
-3.2424445458103675   0.16630199656399525   0.07481468663765417
-2.5148239685703855   -0.47681668792311294   0.0053576008306508785
-2.5148239685703855   -0.47681668792311294   0.0053576008306508785
-2.5148239685703855   -0.47681668792311294   0.0053576008306508785
-2.5148239685703855   -0.47681668792311294   0.0053576008306508785
-0.6396131550235148   -0.05419082277997814   0.10267590470650723
-0.6396131550235148   -0.05419082277997814   0.10267590470650723
-0.6396131550235148   -0.05419082277997814   0.10267590470650723
-0.6396131550235148   -0.05419082277997814   0.10267590470650723
-0.6236251933321882   0.09914378022383075   0.035011033099694
-0.6236251933321882   0.09914378022383075   0.035011033099694
-0.6236251933321882   0.09914378022383075   0.035011033099694
-0.6236251933321882   0.09914378022383075   0.035011033099694
-2.4872098069682727   -0.27957608028468334   -0.048190199715471324
-2.4872098069682727   -0.27957608028468334   -0.048190199715471324
-2.4872098069682727   -0.27957608028468334   -0.048190199715471324
-2.4872098069682727   -0.27957608028468334   -0.048190199715471324
-1.5689576184383152   -0.1703044103874875   -0.04782368736255206
-1.5689576184383152   -0.1703044103874875   -0.04782368736255206
-1.5689576184383152   -0.1703044103874875   -0.04782368736255206
-1.5689576184383152   -0.1703044103874875   -0.04782368736255206
-2.483194529172876   -0.2844252264740661   -0.023264664549103115
-2.483194529172876   -0.2844252264740661   -0.023264664549103115
-2.483194529172876   -0.2844252264740661   -0.023264664549103115
-2.483194529172876   -0.2844252264740661   -0.023264664549103115
-0.6130676494135209   0.11856574812727802   0.06837678478958358
-0.6130676494135209   0.11856574812727802   0.06837678478958358
-0.6130676494135209   0.11856574812727802   0.06837678478958358
-0.6130676494135209   0.11856574812727802   0.06837678478958358
-0.5877115740588098   0.2924016470451668   0.009373723760739042
-0.5877115740588098   0.2924016470451668   0.009373723760739042
-0.5877115740588098   0.2924016470451668   0.009373723760739042
-0.5877115740588098   0.2924016470451668   0.009373723760739042
-2.4574350765263895   -0.1056410900114686   -0.0825978606611121
-2.4574350765263895   -0.1056410900114686   -0.0825978606611121
-2.4574350765263895   -0.1056410900114686   -0.0825978606611121
-2.4574350765263895   -0.1056410900114686   -0.0825978606611121
-1.5306086822639093   0.0034706441527236898   0.020832189865687356
-1.5306086822639093   0.0034706441527236898   0.020832189865687356
-1.5306086822639093   0.0034706441527236898   0.020832189865687356
-1.5306086822639093   0.0034706441527236898   0.020832189865687356
-2.448332506986977   -0.09178542073975487   -0.05094068223576363
-2.448332506986977   -0.09178542073975487   -0.05094068223576363
-2.448332506986977   -0.09178542073975487   -0.05094068223576363
-2.448332506986977   -0.09178542073975487   -0.05094068223576363
-0.5833602655423713   0.2919998558293153   0.0315320575587892
-0.5833602655423713   0.2919998558293153   0.0315320575587892
-0.5833602655423713   0.2919998558293153   0.0315320575587892
-0.5833602655423713   0.2919998558293153   0.0315320575587892
-0.5555275945333826   0.48846148583224913   -0.020833794059360783
-0.5555275945333826   0.48846148583224913   -0.020833794059360783
-0.5555275945333826   0.48846148583224913   -0.020833794059360783
-0.5555275945333826   0.48846148583224913   -0.020833794059360783
-2.4312444179668815   0.07033136967556497   -0.11852104015560608
-2.4312444179668815   0.07033136967556497   -0.11852104015560608
-2.4312444179668815   0.07033136967556497   -0.11852104015560608
-2.4312444179668815   0.07033136967556497   -0.11852104015560608
-1.4955888046817714   0.17807664947211838   0.08697434694652115
-1.4955888046817714   0.17807664947211838   0.08697434694652115
-1.4955888046817714   0.17807664947211838   0.08697434694652115
-1.4955888046817714   0.17807664947211838   0.08697434694652115
-0.7926667197204947   -0.5817972611130333   -0.13498548044534314
-0.7926667197204947   -0.5817972611130333   -0.13498548044534314
-0.7926667197204947   -0.5817972611130333   -0.13498548044534314
-0.7926667197204947   -0.5817972611130333   -0.13498548044534314
1.1604877774282254   0.09287554633073555   0.2227369423578594
1.1604877774282254   0.09287554633073555   0.2227369423578594
1.1604877774282254   0.09287554633073555   0.2227369423578594
1.1604877774282254   0.09287554633073555   0.2227369423578594
1.081224671276807   -0.029071753881957985   -0.12315967691818772
1.081224671276807   -0.029071753881957985   -0.12315967691818772
1.081224671276807   -0.029071753881957985   -0.12315967691818772
1.081224671276807   -0.029071753881957985   -0.12315967691818772
-0.6611575502608306   -0.1355934679456055   0.08208649662591856
-0.6611575502608306   -0.1355934679456055   0.08208649662591856
-0.6611575502608306   -0.1355934679456055   0.08208649662591856
-0.6611575502608306   -0.1355934679456055   0.08208649662591856
0.18959759040140475   -0.15888017669912677   -0.03398443312989449
0.18959759040140475   -0.15888017669912677   -0.03398443312989449
0.18959759040140475   -0.15888017669912677   -0.03398443312989449
0.18959759040140475   -0.15888017669912677   -0.03398443312989449
-0.7650204632160515   -0.40687762718004206   -0.16594390891574953
-0.7650204632160515   -0.40687762718004206   -0.16594390891574953
-0.7650204632160515   -0.40687762718004206   -0.16594390891574953
-0.7650204632160515   -0.40687762718004206   -0.16594390891574953
1.2024370499445978   0.2595618710650471   0.19426859147375336
1.2024370499445978   0.2595618710650471   0.19426859147375336
1.2024370499445978   0.2595618710650471   0.19426859147375336
1.2024370499445978   0.2595618710650471   0.19426859147375336
1.1479273791933644   0.1537225005556777   -0.13948003686529178
1.1479273791933644   0.1537225005556777   -0.13948003686529178
1.1479273791933644   0.1537225005556777   -0.13948003686529178
1.1479273791933644   0.1537225005556777   -0.13948003686529178
-0.6352301788531466   0.01995934796502119   0.044222998869207074
-0.6352301788531466   0.01995934796502119   0.044222998869207074
-0.6352301788531466   0.01995934796502119   0.044222998869207074
-0.6352301788531466   0.01995934796502119   0.044222998869207074
0.22500390409652943   -0.001459843100391954   0.03580993461149927
0.22500390409652943   -0.001459843100391954   0.03580993461149927
0.22500390409652943   -0.001459843100391954   0.03580993461149927
0.22500390409652943   -0.001459843100391954   0.03580993461149927
-0.7354594814191804   -0.23537641449414498   -0.20158775150179917
-0.7354594814191804   -0.23537641449414498   -0.20158775150179917
-0.7354594814191804   -0.23537641449414498   -0.20158775150179917
-0.7354594814191804   -0.23537641449414498   -0.20158775150179917
1.263198216959414   0.42409979821485533   0.16649685430575584
1.263198216959414   0.42409979821485533   0.16649685430575584
1.263198216959414   0.42409979821485533   0.16649685430575584
1.263198216959414   0.42409979821485533   0.16649685430575584
1.2015931940010587   0.3622791663611562   -0.16106777937400377
1.2015931940010587   0.3622791663611562   -0.16106777937400377
1.2015931940010587   0.3622791663611562   -0.16106777937400377
1.2015931940010587   0.3622791663611562   -0.16106777937400377
-0.6075082034642331   0.19951845692506387   0.008206190193566554
-0.6075082034642331   0.19951845692506387   0.008206190193566554
-0.6075082034642331   0.19951845692506387   0.008206190193566554
-0.6075082034642331   0.19951845692506387   0.008206190193566554
0.27994720449436533   0.1700816277067659   0.10818165221251448
0.27994720449436533   0.1700816277067659   0.10818165221251448
0.27994720449436533   0.1700816277067659   0.10818165221251448
0.27994720449436533   0.1700816277067659   0.10818165221251448
0.9266089552561992   -0.5879276273546687   -0.26585399481685296
0.9266089552561992   -0.5879276273546687   -0.26585399481685296
0.9266089552561992   -0.5879276273546687   -0.26585399481685296
0.9266089552561992   -0.5879276273546687   -0.26585399481685296
2.7651132809954473   0.271757912090413   0.28755281916597086
2.7651132809954473   0.271757912090413   0.28755281916597086
2.7651132809954473   0.271757912090413   0.28755281916597086
2.7651132809954473   0.271757912090413   0.28755281916597086
2.7381221206366884   -0.14159146107369147   -0.3498834146372226
2.7381221206366884   -0.14159146107369147   -0.3498834146372226
2.7381221206366884   -0.14159146107369147   -0.3498834146372226
2.7381221206366884   -0.14159146107369147   -0.3498834146372226
1.164111419690028   0.047763124768239185   0.2144391864977206
1.164111419690028   0.047763124768239185   0.2144391864977206
1.164111419690028   0.047763124768239185   0.2144391864977206
1.164111419690028   0.047763124768239185   0.2144391864977206
1.7996249730637996   -0.12070750672787423   -0.09421980210681352
1.7996249730637996   -0.12070750672787423   -0.09421980210681352
1.7996249730637996   -0.12070750672787423   -0.09421980210681352
1.7996249730637996   -0.12070750672787423   -0.09421980210681352
0.9521207262940727   -0.4903044067979444   -0.3074467489158715
0.9521207262940727   -0.4903044067979444   -0.3074467489158715
0.9521207262940727   -0.4903044067979444   -0.3074467489158715
0.9521207262940727   -0.4903044067979444   -0.3074467489158715
2.9678024487865486   0.41416570524641505   0.24276105979201798
2.9678024487865486   0.41416570524641505   0.24276105979201798
2.9678024487865486   0.41416570524641505   0.24276105979201798
2.9678024487865486   0.41416570524641505   0.24276105979201798
2.8855203744038413   -0.03912310373850425   -0.41931168528786267
2.8855203744038413   -0.03912310373850425   -0.41931168528786267
2.8855203744038413   -0.03912310373850425   -0.41931168528786267
2.8855203744038413   -0.03912310373850425   -0.41931168528786267
1.2030468660611882   0.12280143128785012   0.16703846674163206
1.2030468660611882   0.12280143128785012   0.16703846674163206
1.2030468660611882   0.12280143128785012   0.16703846674163206
1.2030468660611882   0.12280143128785012   0.16703846674163206
1.9490716452976942   -0.01753345077374957   -0.011854313912168263
1.9490716452976942   -0.01753345077374957   -0.011854313912168263
1.9490716452976942   -0.01753345077374957   -0.011854313912168263
1.9490716452976942   -0.01753345077374957   -0.011854313912168263
0.9928079035591709   -0.40506186978832115   -0.35629304469227685
0.9928079035591709   -0.40506186978832115   -0.35629304469227685
0.9928079035591709   -0.40506186978832115   -0.35629304469227685
0.9928079035591709   -0.40506186978832115   -0.35629304469227685
3.1141648900254606   0.507145750457278   0.17764203862449932
3.1141648900254606   0.507145750457278   0.17764203862449932
3.1141648900254606   0.507145750457278   0.17764203862449932
3.1141648900254606   0.507145750457278   0.17764203862449932
3.111539659682673   0.18611741098681805   -0.4485840812729114
3.111539659682673   0.18611741098681805   -0.4485840812729114
3.111539659682673   0.18611741098681805   -0.4485840812729114
3.111539659682673   0.18611741098681805   -0.4485840812729114
1.2429118703698896   0.27515428623867616   0.13265048259261514
1.2429118703698896   0.27515428623867616   0.13265048259261514
1.2429118703698896   0.27515428623867616   0.13265048259261514
1.2429118703698896   0.27515428623867616   0.13265048259261514
2.022719989306782   0.09643053718972999   0.058798148097645955
2.022719989306782   0.09643053718972999   0.058798148097645955
2.022719989306782   0.09643053718972999   0.058798148097645955
2.022719989306782   0.09643053718972999   0.058798148097645955
-3.707241004508199   -0.06427342756662147   0.3587255585673552
-3.707241004508199   -0.06427342756662147   0.3587255585673552
-3.707241004508199   -0.06427342756662147   0.3587255585673552
-3.707241004508199   -0.06427342756662147   0.3587255585673552
-2.8825253212065793   -0.3643324004641349   -0.17818711241711982
-2.8825253212065793   -0.3643324004641349   -0.17818711241711982
-2.8825253212065793   -0.3643324004641349   -0.17818711241711982
-2.8825253212065793   -0.3643324004641349   -0.17818711241711982
-2.6095680839516286   0.3094166924875502   0.30695981424172275
-2.6095680839516286   0.3094166924875502   0.30695981424172275
-2.6095680839516286   0.3094166924875502   0.30695981424172275
-2.6095680839516286   0.3094166924875502   0.30695981424172275
-3.691127056532693   -0.4017329376913868   -0.2422475091176215
-3.691127056532693   -0.4017329376913868   -0.2422475091176215
-3.691127056532693   -0.4017329376913868   -0.2422475091176215
-3.691127056532693   -0.4017329376913868   -0.2422475091176215
-3.0988460579363477   -0.08576114133262547   -0.044169176174464364
-3.0988460579363477   -0.08576114133262547   -0.044169176174464364
-3.0988460579363477   -0.08576114133262547   -0.044169176174464364
-3.0988460579363477   -0.08576114133262547   -0.044169176174464364
-3.464639144018992   0.1455852839813605   0.34287383177813774
-3.464639144018992   0.1455852839813605   0.34287383177813774
-3.464639144018992   0.1455852839813605   0.34287383177813774
-3.464639144018992   0.1455852839813605   0.34287383177813774
-2.8204038319065305   -0.2222493646263956   -0.21555286841882765
-2.8204038319065305   -0.2222493646263956   -0.21555286841882765
-2.8204038319065305   -0.2222493646263956   -0.21555286841882765
-2.8204038319065305   -0.2222493646263956   -0.21555286841882765
-2.544332998253299   0.3894973131281233   0.25978134288708177
-2.544332998253299   0.3894973131281233   0.25978134288708177
-2.544332998253299   0.3894973131281233   0.25978134288708177
-2.544332998253299   0.3894973131281233   0.25978134288708177
-3.5222130827634817   -0.311008825572208   -0.30291523047946584
-3.5222130827634817   -0.311008825572208   -0.30291523047946584
-3.5222130827634817   -0.311008825572208   -0.30291523047946584
-3.5222130827634817   -0.311008825572208   -0.30291523047946584
-3.0105600943740396   0.019168441842428163   0.022647829378863005
-3.0105600943740396   0.019168441842428163   0.022647829378863005
-3.0105600943740396   0.019168441842428163   0.022647829378863005
-3.0105600943740396   0.019168441842428163   0.022647829378863005
-3.2954286153909487   0.24276798107114106   0.2772302997398204
-3.2954286153909487   0.24276798107114106   0.2772302997398204
-3.2954286153909487   0.24276798107114106   0.2772302997398204
-3.2954286153909487   0.24276798107114106   0.2772302997398204
-2.756270034555478   -0.14943206244487128   -0.26097446305078653
-2.756270034555478   -0.14943206244487128   -0.26097446305078653
-2.756270034555478   -0.14943206244487128   -0.26097446305078653
-2.756270034555478   -0.14943206244487128   -0.26097446305078653
-2.4913422282043776   0.4888366655335963   0.22407274555287315
-2.4913422282043776   0.4888366655335963   0.22407274555287315
-2.4913422282043776   0.4888366655335963   0.22407274555287315
-2.4913422282043776   0.4888366655335963   0.22407274555287315
-3.2952112678812084   -0.16584188751948215   -0.3506519599023515
-3.2952112678812084   -0.16584188751948215   -0.3506519599023515
-3.2952112678812084   -0.16584188751948215   -0.3506519599023515
-3.2952112678812084   -0.16584188751948215   -0.3506519599023515
-2.8320014485459897   0.12240485229343989   0.10573221656131951
-2.8320014485459897   0.12240485229343989   0.10573221656131951
-2.8320014485459897   0.12240485229343989   0.10573221656131951
-2.8320014485459897   0.12240485229343989   0.10573221656131951
-2.7824881390767104   -0.2106883891259071   0.1683547868939964
-2.7824881390767104   -0.2106883891259071   0.1683547868939964
-2.7824881390767104   -0.2106883891259071   0.1683547868939964
-2.7824881390767104   -0.2106883891259071   0.1683547868939964
-2.0345804421270723   -0.27634447397782635   -0.0528080040154145
-2.0345804421270723   -0.27634447397782635   -0.0528080040154145
-2.0345804421270723   -0.27634447397782635   -0.0528080040154145
-2.0345804421270723   -0.27634447397782635   -0.0528080040154145
-1.8820154408395504   0.14066787133985487   0.1568974638351777
-1.8820154408395504   0.14066787133985487   0.1568974638351777
-1.8820154408395504   0.14066787133985487   0.1568974638351777
-1.8820154408395504   0.14066787133985487   0.1568974638351777
-2.8227578265191897   -0.29683756060142136   -0.1527346455070992
-2.8227578265191897   -0.29683756060142136   -0.1527346455070992
-2.8227578265191897   -0.29683756060142136   -0.1527346455070992
-2.8227578265191897   -0.29683756060142136   -0.1527346455070992
-2.373683829004694   -0.14825813993980458   -0.06344335420279205
-2.373683829004694   -0.14825813993980458   -0.06344335420279205
-2.373683829004694   -0.14825813993980458   -0.06344335420279205
-2.373683829004694   -0.14825813993980458   -0.06344335420279205
-2.709703776260302   -0.027591399561794572   0.14328944474768215
-2.709703776260302   -0.027591399561794572   0.14328944474768215
-2.709703776260302   -0.027591399561794572   0.14328944474768215
-2.709703776260302   -0.027591399561794572   0.14328944474768215
-1.9824425916278408   -0.11595139022917994   -0.08861902853724095
-1.9824425916278408   -0.11595139022917994   -0.08861902853724095
-1.9824425916278408   -0.11595139022917994   -0.08861902853724095
-1.9824425916278408   -0.11595139022917994   -0.08861902853724095
-1.8257084512819974   0.3034033827798168   0.12555635894602646
-1.8257084512819974   0.3034033827798168   0.12555635894602646
-1.8257084512819974   0.3034033827798168   0.12555635894602646
-1.8257084512819974   0.3034033827798168   0.12555635894602646
-2.738774831250426   -0.1401277613400465   -0.182802747630337
-2.738774831250426   -0.1401277613400465   -0.182802747630337
-2.738774831250426   -0.1401277613400465   -0.182802747630337
-2.738774831250426   -0.1401277613400465   -0.182802747630337
-2.292511914603282   0.008903674824706997   0.006951810677456677
-2.292511914603282   0.008903674824706997   0.006951810677456677
-2.292511914603282   0.008903674824706997   0.006951810677456677
-2.292511914603282   0.008903674824706997   0.006951810677456677
-2.6190964606920373   0.14558898156075495   0.1298723622607576
-2.6190964606920373   0.14558898156075495   0.1298723622607576
-2.6190964606920373   0.14558898156075495   0.1298723622607576
-2.6190964606920373   0.14558898156075495   0.1298723622607576
-1.9308082894636454   0.03226517225574388   -0.12880462143816568
-1.9308082894636454   0.03226517225574388   -0.12880462143816568
-1.9308082894636454   0.03226517225574388   -0.12880462143816568
-1.9308082894636454   0.03226517225574388   -0.12880462143816568
-1.769590251160936   0.47981585362792334   0.09570668999605161
-1.769590251160936   0.47981585362792334   0.09570668999605161
-1.769590251160936   0.47981585362792334   0.09570668999605161
-1.769590251160936   0.47981585362792334   0.09570668999605161
-2.669268465089976   0.03080496943934885   -0.20752674278084218
-2.669268465089976   0.03080496943934885   -0.20752674278084218
-2.669268465089976   0.03080496943934885   -0.20752674278084218
-2.669268465089976   0.03080496943934885   -0.20752674278084218
-2.233732385979825   0.16269905833080744   0.07570815138147258
-2.233732385979825   0.16269905833080744   0.07570815138147258
-2.233732385979825   0.16269905833080744   0.07570815138147258
-2.233732385979825   0.16269905833080744   0.07570815138147258
-2.03239893919309   -0.34744346101655654   0.029198497693190544
-2.03239893919309   -0.34744346101655654   0.029198497693190544
-2.03239893919309   -0.34744346101655654   0.029198497693190544
-2.03239893919309   -0.34744346101655654   0.029198497693190544
-1.1986989400316406   -0.14462486585673684   0.07491788426601183
-1.1986989400316406   -0.14462486585673684   0.07491788426601183
-1.1986989400316406   -0.14462486585673684   0.07491788426601183
-1.1986989400316406   -0.14462486585673684   0.07491788426601183
-1.1565901330126278   -0.0018649696016003192   0.009745679744360178
-1.1565901330126278   -0.0018649696016003192   0.009745679744360178
-1.1565901330126278   -0.0018649696016003192   0.009745679744360178
-1.1565901330126278   -0.0018649696016003192   0.009745679744360178
-1.976879790096767   -0.15896452691438645   -0.017791884196665428
-1.976879790096767   -0.15896452691438645   -0.017791884196665428
-1.976879790096767   -0.15896452691438645   -0.017791884196665428
-1.976879790096767   -0.15896452691438645   -0.017791884196665428
-1.5936556694163624   -0.15561823457933416   -0.046126370079578746
-1.5936556694163624   -0.15561823457933416   -0.046126370079578746
-1.5936556694163624   -0.15561823457933416   -0.046126370079578746
-1.5936556694163624   -0.15561823457933416   -0.046126370079578746
-1.9746090938332506   -0.16708206972773204   0.0016791399342630103
-1.9746090938332506   -0.16708206972773204   0.0016791399342630103
-1.9746090938332506   -0.16708206972773204   0.0016791399342630103
-1.9746090938332506   -0.16708206972773204   0.0016791399342630103
-1.1463101077144018   0.018803294773518497   0.040477541860371224
-1.1463101077144018   0.018803294773518497   0.040477541860371224
-1.1463101077144018   0.018803294773518497   0.040477541860371224
-1.1463101077144018   0.018803294773518497   0.040477541860371224
-1.0955000902558847   0.18010511330623524   -0.01580183034309776
-1.0955000902558847   0.18010511330623524   -0.01580183034309776
-1.0955000902558847   0.18010511330623524   -0.01580183034309776
-1.0955000902558847   0.18010511330623524   -0.01580183034309776
-1.9204789425238544   0.006786088489285136   -0.05167880297275061
-1.9204789425238544   0.006786088489285136   -0.05167880297275061
-1.9204789425238544   0.006786088489285136   -0.05167880297275061
-1.9204789425238544   0.006786088489285136   -0.05167880297275061
-1.529255501112086   0.008095551087519581   0.022087719525763827
-1.529255501112086   0.008095551087519581   0.022087719525763827
-1.529255501112086   0.008095551087519581   0.022087719525763827
-1.529255501112086   0.008095551087519581   0.022087719525763827
-1.9138818143277627   0.014339766549895328   -0.0262468400529193
-1.9138818143277627   0.014339766549895328   -0.0262468400529193
-1.9138818143277627   0.014339766549895328   -0.0262468400529193
-1.9138818143277627   0.014339766549895328   -0.0262468400529193
-1.09075099602581   0.18389765767179034   0.004151096441731075
-1.09075099602581   0.18389765767179034   0.004151096441731075
-1.09075099602581   0.18389765767179034   0.004151096441731075
-1.09075099602581   0.18389765767179034   0.004151096441731075
-1.0378093584423074   0.36371983663977997   -0.045013764859105104
-1.0378093584423074   0.36371983663977997   -0.045013764859105104
-1.0378093584423074   0.36371983663977997   -0.045013764859105104
-1.0378093584423074   0.36371983663977997   -0.045013764859105104
-1.867496290956014   0.17382300069698914   -0.08783065604839035
-1.867496290956014   0.17382300069698914   -0.08783065604839035
-1.867496290956014   0.17382300069698914   -0.08783065604839035
-1.867496290956014   0.17382300069698914   -0.08783065604839035
-1.4682966938249307   0.17239381700574535   0.08756233453393701
-1.4682966938249307   0.17239381700574535   0.08756233453393701
-1.4682966938249307   0.17239381700574535   0.08756233453393701
-1.4682966938249307   0.17239381700574535   0.08756233453393701
-1.3003785756147894   -0.4662217872089476   -0.11188337229754158
-1.3003785756147894   -0.4662217872089476   -0.11188337229754158
-1.3003785756147894   -0.4662217872089476   -0.11188337229754158
-1.3003785756147894   -0.4662217872089476   -0.11188337229754158
-0.3847027304882639   -0.004733882125673404   0.19655634369299024
-0.3847027304882639   -0.004733882125673404   0.19655634369299024
-0.3847027304882639   -0.004733882125673404   0.19655634369299024
-0.3847027304882639   -0.004733882125673404   0.19655634369299024
-0.4394804631600683   -0.13629345089148548   -0.14309050520424357
-0.4394804631600683   -0.13629345089148548   -0.14309050520424357
-0.4394804631600683   -0.13629345089148548   -0.14309050520424357
-0.4394804631600683   -0.13629345089148548   -0.14309050520424357
-1.1393086817865923   -0.01786078567786331   0.1121487519507901
-1.1393086817865923   -0.01786078567786331   0.1121487519507901
-1.1393086817865923   -0.01786078567786331   0.1121487519507901
-1.1393086817865923   -0.01786078567786331   0.1121487519507901
-0.8160045500265478   -0.14943280103998974   -0.033266662558727955
-0.8160045500265478   -0.14943280103998974   -0.033266662558727955
-0.8160045500265478   -0.14943280103998974   -0.033266662558727955
-0.8160045500265478   -0.14943280103998974   -0.033266662558727955
-1.2458797756490259   -0.2972239274635655   -0.1413435755756861
-1.2458797756490259   -0.2972239274635655   -0.1413435755756861
-1.2458797756490259   -0.2972239274635655   -0.1413435755756861
-1.2458797756490259   -0.2972239274635655   -0.1413435755756861
-0.3188359018799916   0.15714315831185804   0.16669569199279613
-0.3188359018799916   0.15714315831185804   0.16669569199279613
-0.3188359018799916   0.15714315831185804   0.16669569199279613
-0.3188359018799916   0.15714315831185804   0.16669569199279613
-0.35048708624940184   0.03585171324616408   -0.16105826732882317
-0.35048708624940184   0.03585171324616408   -0.16105826732882317
-0.35048708624940184   0.03585171324616408   -0.16105826732882317
-0.35048708624940184   0.03585171324616408   -0.16105826732882317
-1.087217064682695   0.13098576609756113   0.07473264473152416
-1.087217064682695   0.13098576609756113   0.07473264473152416
-1.087217064682695   0.13098576609756113   0.07473264473152416
-1.087217064682695   0.13098576609756113   0.07473264473152416
-0.7476474933455572   0.0029253776589053537   0.03620862586900094
-0.7476474933455572   0.0029253776589053537   0.03620862586900094
-0.7476474933455572   0.0029253776589053537   0.03620862586900094
-0.7476474933455572   0.0029253776589053537   0.03620862586900094
-1.190410573314119   -0.1349759643055202   -0.17527316802252746
-1.190410573314119   -0.1349759643055202   -0.17527316802252746
-1.190410573314119   -0.1349759643055202   -0.17527316802252746
-1.190410573314119   -0.1349759643055202   -0.17527316802252746
-0.23419638633419712   0.31491063493302657   0.1413363105603532
-0.23419638633419712   0.31491063493302657   0.1413363105603532
-0.23419638633419712   0.31491063493302657   0.1413363105603532
-0.23419638633419712   0.31491063493302657   0.1413363105603532
-0.275180324166216   0.2282739917015348   -0.1803440152220343
-0.275180324166216   0.2282739917015348   -0.1803440152220343
-0.275180324166216   0.2282739917015348   -0.1803440152220343
-0.275180324166216   0.2282739917015348   -0.1803440152220343
-1.0338933971451956   0.2996189946522842   0.038666883613949654
-1.0338933971451956   0.2996189946522842   0.038666883613949654
-1.0338933971451956   0.2996189946522842   0.038666883613949654
-1.0338933971451956   0.2996189946522842   0.038666883613949654
-0.6767214645324899   0.16201523672438697   0.10578674775551994
-0.6767214645324899   0.16201523672438697   0.10578674775551994
-0.6767214645324899   0.16201523672438697   0.10578674775551994
-0.6767214645324899   0.16201523672438697   0.10578674775551994
-0.5719388670951928   -0.5016956047119701   -0.24266261675536538
-0.5719388670951928   -0.5016956047119701   -0.24266261675536538
-0.5719388670951928   -0.5016956047119701   -0.24266261675536538
-0.5719388670951928   -0.5016956047119701   -0.24266261675536538
0.23586401813238678   0.15103718428337712   0.2988208821138158
0.23586401813238678   0.15103718428337712   0.2988208821138158
0.23586401813238678   0.15103718428337712   0.2988208821138158
0.23586401813238678   0.15103718428337712   0.2988208821138158
0.23818207642582437   -0.24452873126806385   -0.3210907504196522
0.23818207642582437   -0.24452873126806385   -0.3210907504196522
0.23818207642582437   -0.24452873126806385   -0.3210907504196522
0.23818207642582437   -0.24452873126806385   -0.3210907504196522
-0.30383586496952925   0.15430211802924523   0.2445369168277209
-0.30383586496952925   0.15430211802924523   0.2445369168277209
-0.30383586496952925   0.15430211802924523   0.2445369168277209
-0.30383586496952925   0.15430211802924523   0.2445369168277209
-0.1083510443001139   -0.10561112046136811   -0.057487919644467866
-0.1083510443001139   -0.10561112046136811   -0.057487919644467866
-0.1083510443001139   -0.10561112046136811   -0.057487919644467866
-0.1083510443001139   -0.10561112046136811   -0.057487919644467866
-0.5168035769336566   -0.3870896807073031   -0.27890984425636756
-0.5168035769336566   -0.3870896807073031   -0.27890984425636756
-0.5168035769336566   -0.3870896807073031   -0.27890984425636756
-0.5168035769336566   -0.3870896807073031   -0.27890984425636756
0.4662091434001961   0.3119224224787289   0.26259343070541386
0.4662091434001961   0.3119224224787289   0.26259343070541386
0.4662091434001961   0.3119224224787289   0.26259343070541386
0.4662091434001961   0.3119224224787289   0.26259343070541386
0.40802513655567446   -0.14585012156484872   -0.38119756801640964
0.40802513655567446   -0.14585012156484872   -0.38119756801640964
0.40802513655567446   -0.14585012156484872   -0.38119756801640964
0.40802513655567446   -0.14585012156484872   -0.38119756801640964
-0.24106646428010106   0.22589633992787483   0.19600021583597763
-0.24106646428010106   0.22589633992787483   0.19600021583597763
-0.24106646428010106   0.22589633992787483   0.19600021583597763
-0.24106646428010106   0.22589633992787483   0.19600021583597763
0.031862955961609055   -0.004210588022540266   0.017941825914083734
0.031862955961609055   -0.004210588022540266   0.017941825914083734
0.031862955961609055   -0.004210588022540266   0.017941825914083734
0.031862955961609055   -0.004210588022540266   0.017941825914083734
-0.4511004127036922   -0.30590862923689555   -0.32236455711721557
-0.4511004127036922   -0.30590862923689555   -0.32236455711721557
-0.4511004127036922   -0.30590862923689555   -0.32236455711721557
-0.4511004127036922   -0.30590862923689555   -0.32236455711721557
0.6331100022462701   0.40100576486691464   0.1973708740048055
0.6331100022462701   0.40100576486691464   0.1973708740048055
0.6331100022462701   0.40100576486691464   0.1973708740048055
0.6331100022462701   0.40100576486691464   0.1973708740048055
0.645516878238163   0.04754359221761645   -0.4080079953808956
0.645516878238163   0.04754359221761645   -0.4080079953808956
0.645516878238163   0.04754359221761645   -0.4080079953808956
0.645516878238163   0.04754359221761645   -0.4080079953808956
-0.1823827984833877   0.35266725312478087   0.15925035176886898
-0.1823827984833877   0.35266725312478087   0.15925035176886898
-0.1823827984833877   0.35266725312478087   0.15925035176886898
-0.1823827984833877   0.35266725312478087   0.15925035176886898
0.1572838779161845   0.10256167731772708   0.09147211445366198
0.1572838779161845   0.10256167731772708   0.09147211445366198
0.1572838779161845   0.10256167731772708   0.09147211445366198
0.1572838779161845   0.10256167731772708   0.09147211445366198
-1.242762846221417   0.06751239699260808   0.34127439988143266
-1.242762846221417   0.06751239699260808   0.34127439988143266
-1.242762846221417   0.06751239699260808   0.34127439988143266
-1.242762846221417   0.06751239699260808   0.34127439988143266
-1.4598550720317074   -0.4457876891183075   -0.20195299153707585
-1.4598550720317074   -0.4457876891183075   -0.20195299153707585
-1.4598550720317074   -0.4457876891183075   -0.20195299153707585
-1.4598550720317074   -0.4457876891183075   -0.20195299153707585
-1.1654921952537638   0.2077715989178931   0.27964031264984895
-1.1654921952537638   0.2077715989178931   0.27964031264984895
-1.1654921952537638   0.2077715989178931   0.27964031264984895
-1.1654921952537638   0.2077715989178931   0.27964031264984895
-1.2063180520276386   -0.2954923545628243   -0.25986628157234604
-1.2063180520276386   -0.2954923545628243   -0.25986628157234604
-1.2063180520276386   -0.2954923545628243   -0.25986628157234604
-1.2063180520276386   -0.2954923545628243   -0.25986628157234604
-1.235974049941999   -0.09516821308758824   -0.09254607104198828
-1.235974049941999   -0.09516821308758824   -0.09254607104198828
-1.235974049941999   -0.09516821308758824   -0.09254607104198828
-1.235974049941999   -0.09516821308758824   -0.09254607104198828
-0.9811983812711315   0.25229186892826905   0.31794784871909654
-0.9811983812711315   0.25229186892826905   0.31794784871909654
-0.9811983812711315   0.25229186892826905   0.31794784871909654
-0.9811983812711315   0.25229186892826905   0.31794784871909654
-1.376625388060286   -0.3260261466232127   -0.24222790584164083
-1.376625388060286   -0.3260261466232127   -0.24222790584164083
-1.376625388060286   -0.3260261466232127   -0.24222790584164083
-1.376625388060286   -0.3260261466232127   -0.24222790584164083
-1.0738168262712044   0.2863503676550458   0.23548447916452575
-1.0738168262712044   0.2863503676550458   0.23548447916452575
-1.0738168262712044   0.2863503676550458   0.23548447916452575
-1.0738168262712044   0.2863503676550458   0.23548447916452575
-1.0113807497407634   -0.20668815398962814   -0.32400446897954793
-1.0113807497407634   -0.20668815398962814   -0.32400446897954793
-1.0113807497407634   -0.20668815398962814   -0.32400446897954793
-1.0113807497407634   -0.20668815398962814   -0.32400446897954793
-1.0921319927455562   0.005351079168028683   -0.018498140841595553
-1.0921319927455562   0.005351079168028683   -0.018498140841595553
-1.0921319927455562   0.005351079168028683   -0.018498140841595553
-1.0921319927455562   0.005351079168028683   -0.018498140841595553
-0.7848314978704292   0.3478843873156624   0.2541692490668333
-0.7848314978704292   0.3478843873156624   0.2541692490668333
-0.7848314978704292   0.3478843873156624   0.2541692490668333
-0.7848314978704292   0.3478843873156624   0.2541692490668333
-1.2871380420291467   -0.25499413753785244   -0.2897770944322863
-1.2871380420291467   -0.25499413753785244   -0.2897770944322863
-1.2871380420291467   -0.25499413753785244   -0.2897770944322863
-1.2871380420291467   -0.25499413753785244   -0.2897770944322863
-0.9898212267476234   0.4060488071746682   0.2034114724346922
-0.9898212267476234   0.4060488071746682   0.2034114724346922
-0.9898212267476234   0.4060488071746682   0.2034114724346922
-0.9898212267476234   0.4060488071746682   0.2034114724346922
-0.7512374057804726   -0.03785231370428199   -0.3650910498398562
-0.7512374057804726   -0.03785231370428199   -0.3650910498398562
-0.7512374057804726   -0.03785231370428199   -0.3650910498398562
-0.7512374057804726   -0.03785231370428199   -0.3650910498398562
-0.9188381743072916   0.1101568899513165   0.060932250005021046
-0.9188381743072916   0.1101568899513165   0.060932250005021046
-0.9188381743072916   0.1101568899513165   0.060932250005021046
-0.9188381743072916   0.1101568899513165   0.060932250005021046
-1.3080305823430147   -0.08183045638361708   0.19321222417169667
-1.3080305823430147   -0.08183045638361708   0.19321222417169667
-1.3080305823430147   -0.08183045638361708   0.19321222417169667
-1.3080305823430147   -0.08183045638361708   0.19321222417169667
-1.61197226409755   -0.36354577679147126   -0.07892853287711243
-1.61197226409755   -0.36354577679147126   -0.07892853287711243
-1.61197226409755   -0.36354577679147126   -0.07892853287711243
-1.61197226409755   -0.36354577679147126   -0.07892853287711243
-1.4354426195178243   0.037114688500674065   0.12971139300213522
-1.4354426195178243   0.037114688500674065   0.12971139300213522
-1.4354426195178243   0.037114688500674065   0.12971139300213522
-1.4354426195178243   0.037114688500674065   0.12971139300213522
-1.3216604761224398   -0.17356079853671574   -0.11986869423890703
-1.3216604761224398   -0.17356079853671574   -0.11986869423890703
-1.3216604761224398   -0.17356079853671574   -0.11986869423890703
-1.3216604761224398   -0.17356079853671574   -0.11986869423890703
-1.420096915355393   -0.1344125510987771   -0.06555077506454211
-1.420096915355393   -0.1344125510987771   -0.06555077506454211
-1.420096915355393   -0.1344125510987771   -0.06555077506454211
-1.420096915355393   -0.1344125510987771   -0.06555077506454211
-1.2112943348826817   0.08973525792660869   0.1686659554965429
-1.2112943348826817   0.08973525792660869   0.1686659554965429
-1.2112943348826817   0.08973525792660869   0.1686659554965429
-1.2112943348826817   0.08973525792660869   0.1686659554965429
-1.5348680782526558   -0.21524068545770836   -0.11506052671365413
-1.5348680782526558   -0.21524068545770836   -0.11506052671365413
-1.5348680782526558   -0.21524068545770836   -0.11506052671365413
-1.5348680782526558   -0.21524068545770836   -0.11506052671365413
-1.3535118187988249   0.1932884078033294   0.09901508563506413
-1.3535118187988249   0.1932884078033294   0.09901508563506413
-1.3535118187988249   0.1932884078033294   0.09901508563506413
-1.3535118187988249   0.1932884078033294   0.09901508563506413
-1.2124869359765649   -0.022767263005775695   -0.14874843870140925
-1.2124869359765649   -0.022767263005775695   -0.14874843870140925
-1.2124869359765649   -0.022767263005775695   -0.14874843870140925
-1.2124869359765649   -0.022767263005775695   -0.14874843870140925
-1.322411280941678   0.011559339642210509   0.002873958475243396
-1.322411280941678   0.011559339642210509   0.002873958475243396
-1.322411280941678   0.011559339642210509   0.002873958475243396
-1.322411280941678   0.011559339642210509   0.002873958475243396
-1.0967726310430794   0.25520366068294137   0.15185216227725562
-1.0967726310430794   0.25520366068294137   0.15185216227725562
-1.0967726310430794   0.25520366068294137   0.15185216227725562
-1.0967726310430794   0.25520366068294137   0.15185216227725562
-1.4575691474670585   -0.0730255396201458   -0.15495761028264363
-1.4575691474670585   -0.0730255396201458   -0.15495761028264363
-1.4575691474670585   -0.0730255396201458   -0.15495761028264363
-1.4575691474670585   -0.0730255396201458   -0.15495761028264363
-1.2712042759932236   0.365891442891481   0.06984143538306617
-1.2712042759932236   0.365891442891481   0.06984143538306617
-1.2712042759932236   0.365891442891481   0.06984143538306617
-1.2712042759932236   0.365891442891481   0.06984143538306617
-1.1180656557435416   0.14433493691448313   -0.17609680228469812
-1.1180656557435416   0.14433493691448313   -0.17609680228469812
-1.1180656557435416   0.14433493691448313   -0.17609680228469812
-1.1180656557435416   0.14433493691448313   -0.17609680228469812
-1.230081344375381   0.16202260473587726   0.07241515608466534
-1.230081344375381   0.16202260473587726   0.07241515608466534
-1.230081344375381   0.16202260473587726   0.07241515608466534
-1.230081344375381   0.16202260473587726   0.07241515608466534
-1.5567781344870395   -0.22043751160350308   0.05393384998745677
-1.5567781344870395   -0.22043751160350308   0.05393384998745677
-1.5567781344870395   -0.22043751160350308   0.05393384998745677
-1.5567781344870395   -0.22043751160350308   0.05393384998745677
-1.7642110810179412   -0.22817574331819257   0.04789530573137804
-1.7642110810179412   -0.22817574331819257   0.04789530573137804
-1.7642110810179412   -0.22817574331819257   0.04789530573137804
-1.7642110810179412   -0.22817574331819257   0.04789530573137804
-1.6983076389270044   -0.10302864198900502   -0.016684610739520697
-1.6983076389270044   -0.10302864198900502   -0.016684610739520697
-1.6983076389270044   -0.10302864198900502   -0.016684610739520697
-1.6983076389270044   -0.10302864198900502   -0.016684610739520697
-1.4720444596248592   -0.03162441867341664   0.015441299641036632
-1.4720444596248592   -0.03162441867341664   0.015441299641036632
-1.4720444596248592   -0.03162441867341664   0.015441299641036632
-1.4720444596248592   -0.03162441867341664   0.015441299641036632
-1.625265969125043   -0.13754261407956686   -0.04336264173006127
-1.625265969125043   -0.13754261407956686   -0.04336264173006127
-1.625265969125043   -0.13754261407956686   -0.04336264173006127
-1.625265969125043   -0.13754261407956686   -0.04336264173006127
-1.473389379859738   -0.049408010057504614   0.02650028985071469
-1.473389379859738   -0.049408010057504614   0.02650028985071469
-1.473389379859738   -0.049408010057504614   0.02650028985071469
-1.473389379859738   -0.049408010057504614   0.02650028985071469
-1.686664339861997   -0.07494667177478831   0.013449914371315985
-1.686664339861997   -0.07494667177478831   0.013449914371315985
-1.686664339861997   -0.07494667177478831   0.013449914371315985
-1.686664339861997   -0.07494667177478831   0.013449914371315985
-1.6123172419653253   0.07026800042360704   -0.04243094385979268
-1.6123172419653253   0.07026800042360704   -0.04243094385979268
-1.6123172419653253   0.07026800042360704   -0.04243094385979268
-1.6123172419653253   0.07026800042360704   -0.04243094385979268
-1.390392229507091   0.12584888314171583   -0.017947443244653305
-1.390392229507091   0.12584888314171583   -0.017947443244653305
-1.390392229507091   0.12584888314171583   -0.017947443244653305
-1.390392229507091   0.12584888314171583   -0.017947443244653305
-1.5354834363950693   0.01747388395218874   0.024134246316517782
-1.5354834363950693   0.01747388395218874   0.024134246316517782
-1.5354834363950693   0.01747388395218874   0.024134246316517782
-1.5354834363950693   0.01747388395218874   0.024134246316517782
-1.387713452876106   0.12327834301981627   -0.0019830199678432664
-1.387713452876106   0.12327834301981627   -0.0019830199678432664
-1.387713452876106   0.12327834301981627   -0.0019830199678432664
-1.387713452876106   0.12327834301981627   -0.0019830199678432664
-1.6060240004862156   0.08181055865557862   -0.022507294696214986
-1.6060240004862156   0.08181055865557862   -0.022507294696214986
-1.6060240004862156   0.08181055865557862   -0.022507294696214986
-1.6060240004862156   0.08181055865557862   -0.022507294696214986
-1.5299875627189052   0.24457888319564036   -0.07155997179212104
-1.5299875627189052   0.24457888319564036   -0.07155997179212104
-1.5299875627189052   0.24457888319564036   -0.07155997179212104
-1.5299875627189052   0.24457888319564036   -0.07155997179212104
-1.3124652285063225   0.28396652856293303   -0.05453841285388067
-1.3124652285063225   0.28396652856293303   -0.05453841285388067
-1.3124652285063225   0.28396652856293303   -0.05453841285388067
-1.3124652285063225   0.28396652856293303   -0.05453841285388067
-1.4497934001382624   0.17276366664756776   0.08847984270513369
-1.4497934001382624   0.17276366664756776   0.08847984270513369
-1.4497934001382624   0.17276366664756776   0.08847984270513369
-1.4497934001382624   0.17276366664756776   0.08847984270513369
-1.815594981479236   -0.34805299086762814   -0.08914694902568852
-1.815594981479236   -0.34805299086762814   -0.08914694902568852
-1.815594981479236   -0.34805299086762814   -0.08914694902568852
-1.815594981479236   -0.34805299086762814   -0.08914694902568852
-1.9286714819707582   -0.09564693756848297   0.16924345200622268
-1.9286714819707582   -0.09564693756848297   0.16924345200622268
-1.9286714819707582   -0.09564693756848297   0.16924345200622268
-1.9286714819707582   -0.09564693756848297   0.16924345200622268
-1.9588747651591416   -0.23715626052681388   -0.1647625389214134
-1.9588747651591416   -0.23715626052681388   -0.1647625389214134
-1.9588747651591416   -0.23715626052681388   -0.1647625389214134
-1.9588747651591416   -0.23715626052681388   -0.1647625389214134
-1.6249614397994758   0.10469780022534281   0.14231994268377515
-1.6249614397994758   0.10469780022534281   0.14231994268377515
-1.6249614397994758   0.10469780022534281   0.14231994268377515
-1.6249614397994758   0.10469780022534281   0.14231994268377515
-1.8245366607655704   -0.1346315328813591   -0.027197232094544443
-1.8245366607655704   -0.1346315328813591   -0.027197232094544443
-1.8245366607655704   -0.1346315328813591   -0.027197232094544443
-1.8245366607655704   -0.1346315328813591   -0.027197232094544443
-1.7344194024409285   -0.1828059118821001   -0.11746615841605784
-1.7344194024409285   -0.1828059118821001   -0.11746615841605784
-1.7344194024409285   -0.1828059118821001   -0.11746615841605784
-1.7344194024409285   -0.1828059118821001   -0.11746615841605784
-1.838615219644918   0.06114903445339814   0.1382298936694936
-1.838615219644918   0.06114903445339814   0.1382298936694936
-1.838615219644918   0.06114903445339814   0.1382298936694936
-1.838615219644918   0.06114903445339814   0.1382298936694936
-1.8465730529229931   -0.07280003590879003   -0.1848403770599338
-1.8465730529229931   -0.07280003590879003   -0.1848403770599338
-1.8465730529229931   -0.07280003590879003   -0.1848403770599338
-1.8465730529229931   -0.07280003590879003   -0.1848403770599338
-1.5474039530549288   0.24676014585674622   0.10564335525903651
-1.5474039530549288   0.24676014585674622   0.10564335525903651
-1.5474039530549288   0.24676014585674622   0.10564335525903651
-1.5474039530549288   0.24676014585674622   0.10564335525903651
-1.722800130799017   0.014554530347808958   0.042430135715581296
-1.722800130799017   0.014554530347808958   0.042430135715581296
-1.722800130799017   0.014554530347808958   0.042430135715581296
-1.722800130799017   0.014554530347808958   0.042430135715581296
-1.6534817219199984   -0.027342302448434663   -0.15064304076115162
-1.6534817219199984   -0.027342302448434663   -0.15064304076115162
-1.6534817219199984   -0.027342302448434663   -0.15064304076115162
-1.6534817219199984   -0.027342302448434663   -0.15064304076115162
-1.7295781007936235   0.2122195956606887   0.11511475201744364
-1.7295781007936235   0.2122195956606887   0.11511475201744364
-1.7295781007936235   0.2122195956606887   0.11511475201744364
-1.7295781007936235   0.2122195956606887   0.11511475201744364
-1.7482425893658946   0.10846330008214661   -0.20276239701616225
-1.7482425893658946   0.10846330008214661   -0.20276239701616225
-1.7482425893658946   0.10846330008214661   -0.20276239701616225
-1.7482425893658946   0.10846330008214661   -0.20276239701616225
-1.469628690463111   0.4053363475876691   0.06947692509482095
-1.469628690463111   0.4053363475876691   0.06947692509482095
-1.469628690463111   0.4053363475876691   0.06947692509482095
-1.469628690463111   0.4053363475876691   0.06947692509482095
-1.6360252667972945   0.16286294033202936   0.10909772038850477
-1.6360252667972945   0.16286294033202936   0.10909772038850477
-1.6360252667972945   0.16286294033202936   0.10909772038850477
-1.6360252667972945   0.16286294033202936   0.10909772038850477
-2.0708386858286914   -0.4145961949183275   -0.22264330993362919
-2.0708386858286914   -0.4145961949183275   -0.22264330993362919
-2.0708386858286914   -0.4145961949183275   -0.22264330993362919
-2.0708386858286914   -0.4145961949183275   -0.22264330993362919
-2.2781012719015434   0.034820986893559114   0.30334697859477316
-2.2781012719015434   0.034820986893559114   0.30334697859477316
-2.2781012719015434   0.034820986893559114   0.30334697859477316
-2.2781012719015434   0.034820986893559114   0.30334697859477316
-2.2456147463987284   -0.3421848991166201   -0.29611928747240657
-2.2456147463987284   -0.3421848991166201   -0.29611928747240657
-2.2456147463987284   -0.3421848991166201   -0.29611928747240657
-2.2456147463987284   -0.3421848991166201   -0.29611928747240657
-1.7718956069421494   0.2610408142592312   0.27193617737748726
-1.7718956069421494   0.2610408142592312   0.27193617737748726
-1.7718956069421494   0.2610408142592312   0.27193617737748726
-1.7718956069421494   0.2610408142592312   0.27193617737748726
-2.0080557828062893   -0.08811852177168455   -0.01442064373690033
-2.0080557828062893   -0.08811852177168455   -0.01442064373690033
-2.0080557828062893   -0.08811852177168455   -0.01442064373690033
-2.0080557828062893   -0.08811852177168455   -0.01442064373690033
-1.985768853531645   -0.28189142609239864   -0.25449781521838283
-1.985768853531645   -0.28189142609239864   -0.25449781521838283
-1.985768853531645   -0.28189142609239864   -0.25449781521838283
-1.985768853531645   -0.28189142609239864   -0.25449781521838283
-2.020317176831913   0.2121716642123026   0.2760119970327306
-2.020317176831913   0.2121716642123026   0.2760119970327306
-2.020317176831913   0.2121716642123026   0.2760119970327306
-2.020317176831913   0.2121716642123026   0.2760119970327306
-2.0524627716192594   -0.2461333875687468   -0.3527521143079724
-2.0524627716192594   -0.2461333875687468   -0.3527521143079724
-2.0524627716192594   -0.2461333875687468   -0.3527521143079724
-2.0524627716192594   -0.2461333875687468   -0.3527521143079724
-1.6848074234865194   0.3286884068359628   0.22249932737768316
-1.6848074234865194   0.3286884068359628   0.22249932737768316
-1.6848074234865194   0.3286884068359628   0.22249932737768316
-1.6848074234865194   0.3286884068359628   0.22249932737768316
-1.876471887295201   0.012137987615364776   0.05251121860189796
-1.876471887295201   0.012137987615364776   0.05251121860189796
-1.876471887295201   0.012137987615364776   0.05251121860189796
-1.876471887295201   0.012137987615364776   0.05251121860189796
-1.8944657863499155   -0.20283698639496112   -0.294267093708388
-1.8944657863499155   -0.20283698639496112   -0.294267093708388
-1.8944657863499155   -0.20283698639496112   -0.294267093708388
-1.8944657863499155   -0.20283698639496112   -0.294267093708388
-1.8308423531495128   0.29735406126852526   0.2118625292034889
-1.8308423531495128   0.29735406126852526   0.2118625292034889
-1.8308423531495128   0.29735406126852526   0.2118625292034889
-1.8308423531495128   0.29735406126852526   0.2118625292034889
-1.7995460843069944   -0.0796747642183176   -0.38529644912289385
-1.7995460843069944   -0.0796747642183176   -0.38529644912289385
-1.7995460843069944   -0.0796747642183176   -0.38529644912289385
-1.7995460843069944   -0.0796747642183176   -0.38529644912289385
-1.6067029808068183   0.4301275741488994   0.18327137171244992
-1.6067029808068183   0.4301275741488994   0.18327137171244992
-1.6067029808068183   0.4301275741488994   0.18327137171244992
-1.6067029808068183   0.4301275741488994   0.18327137171244992
-1.6981917350166507   0.11253941077146673   0.12977923378025663
-1.6981917350166507   0.11253941077146673   0.12977923378025663
-1.6981917350166507   0.11253941077146673   0.12977923378025663
-1.6981917350166507   0.11253941077146673   0.12977923378025663
1.2508693004912812   0.20300178714844364   0.3312700172736915
1.2508693004912812   0.20300178714844364   0.3312700172736915
1.2508693004912812   0.20300178714844364   0.3312700172736915
1.2508693004912812   0.20300178714844364   0.3312700172736915
-0.0353611563602714   -0.5331737730659573   -0.21945900788306738
-0.0353611563602714   -0.5331737730659573   -0.21945900788306738
-0.0353611563602714   -0.5331737730659573   -0.21945900788306738
-0.0353611563602714   -0.5331737730659573   -0.21945900788306738
0.2798586629197689   0.10494344103802351   0.25613598148448563
0.2798586629197689   0.10494344103802351   0.25613598148448563
0.2798586629197689   0.10494344103802351   0.25613598148448563
0.2798586629197689   0.10494344103802351   0.25613598148448563
1.3073335708554983   -0.18937368724002474   -0.2743196266859722
1.3073335708554983   -0.18937368724002474   -0.2743196266859722
1.3073335708554983   -0.18937368724002474   -0.2743196266859722
1.3073335708554983   -0.18937368724002474   -0.2743196266859722
0.6377987025315052   -0.10457823502711096   -0.15729973354333465
0.6377987025315052   -0.10457823502711096   -0.15729973354333465
0.6377987025315052   -0.10457823502711096   -0.15729973354333465
0.6377987025315052   -0.10457823502711096   -0.15729973354333465
1.5326785440240251   0.364072109454421   0.2989594424622166
1.5326785440240251   0.364072109454421   0.2989594424622166
1.5326785440240251   0.364072109454421   0.2989594424622166
1.5326785440240251   0.364072109454421   0.2989594424622166
0.0682429530013831   -0.43477309240628104   -0.2622260346631387
0.0682429530013831   -0.43477309240628104   -0.2622260346631387
0.0682429530013831   -0.43477309240628104   -0.2622260346631387
0.0682429530013831   -0.43477309240628104   -0.2622260346631387
0.3957811872985764   0.18233005721365025   0.21392464999750424
0.3957811872985764   0.18233005721365025   0.21392464999750424
0.3957811872985764   0.18233005721365025   0.21392464999750424
0.3957811872985764   0.18233005721365025   0.21392464999750424
1.5278359056262378   -0.10191720075665728   -0.3435713233426255
1.5278359056262378   -0.10191720075665728   -0.3435713233426255
1.5278359056262378   -0.10191720075665728   -0.3435713233426255
1.5278359056262378   -0.10191720075665728   -0.3435713233426255
0.8366214590499483   -0.00793428903356605   -0.07349371919067997
0.8366214590499483   -0.00793428903356605   -0.07349371919067997
0.8366214590499483   -0.00793428903356605   -0.07349371919067997
0.8366214590499483   -0.00793428903356605   -0.07349371919067997
1.7557917293322038   0.45867112875581517   0.2356194656747016
1.7557917293322038   0.45867112875581517   0.2356194656747016
1.7557917293322038   0.45867112875581517   0.2356194656747016
1.7557917293322038   0.45867112875581517   0.2356194656747016
0.18131405750490137   -0.3647695783865311   -0.3113113633706588
0.18131405750490137   -0.3647695783865311   -0.3113113633706588
0.18131405750490137   -0.3647695783865311   -0.3113113633706588
0.18131405750490137   -0.3647695783865311   -0.3113113633706588
0.5083444119742   0.3241103172810561   0.18514028733216173
0.5083444119742   0.3241103172810561   0.18514028733216173
0.5083444119742   0.3241103172810561   0.18514028733216173
0.5083444119742   0.3241103172810561   0.18514028733216173
1.8203802497213801   0.09392266538073488   -0.3790302710828001
1.8203802497213801   0.09392266538073488   -0.3790302710828001
1.8203802497213801   0.09392266538073488   -0.3790302710828001
1.8203802497213801   0.09392266538073488   -0.3790302710828001
1.0042915925121878   0.10015007016007806   0.005936828382620499
1.0042915925121878   0.10015007016007806   0.005936828382620499
1.0042915925121878   0.10015007016007806   0.005936828382620499
1.0042915925121878   0.10015007016007806   0.005936828382620499
0.17068653961514513   0.053577358593418216   0.2240283403346398
0.17068653961514513   0.053577358593418216   0.2240283403346398
0.17068653961514513   0.053577358593418216   0.2240283403346398
0.17068653961514513   0.053577358593418216   0.2240283403346398
-1.2013417675252915   -0.45229422769521554   -0.10060359590873652
-1.2013417675252915   -0.45229422769521554   -0.10060359590873652
-1.2013417675252915   -0.45229422769521554   -0.10060359590873652
-1.2013417675252915   -0.45229422769521554   -0.10060359590873652
-1.001852658443956   -0.06506727857380923   0.10279108789714181
-1.001852658443956   -0.06506727857380923   0.10279108789714181
-1.001852658443956   -0.06506727857380923   0.10279108789714181
-1.001852658443956   -0.06506727857380923   0.10279108789714181
0.1807867179300351   -0.05390468667862093   -0.0803756157475388
0.1807867179300351   -0.05390468667862093   -0.0803756157475388
0.1807867179300351   -0.05390468667862093   -0.0803756157475388
0.1807867179300351   -0.05390468667862093   -0.0803756157475388
-0.47272725764810225   -0.11783342977627367   -0.07583150598074688
-0.47272725764810225   -0.11783342977627367   -0.07583150598074688
-0.47272725764810225   -0.11783342977627367   -0.07583150598074688
-0.47272725764810225   -0.11783342977627367   -0.07583150598074688
0.28989404174768907   0.21247925601459455   0.19877706064751563
0.28989404174768907   0.21247925601459455   0.19877706064751563
0.28989404174768907   0.21247925601459455   0.19877706064751563
0.28989404174768907   0.21247925601459455   0.19877706064751563
-1.101006294358908   -0.32149753336432274   -0.13654683688710476
-1.101006294358908   -0.32149753336432274   -0.13654683688710476
-1.101006294358908   -0.32149753336432274   -0.13654683688710476
-1.101006294358908   -0.32149753336432274   -0.13654683688710476
-0.8960762811022229   0.08480598924056754   0.07270716765608762
-0.8960762811022229   0.08480598924056754   0.07270716765608762
-0.8960762811022229   0.08480598924056754   0.07270716765608762
-0.8960762811022229   0.08480598924056754   0.07270716765608762
0.31251233487647595   0.08860665408959649   -0.10869620898894465
0.31251233487647595   0.08860665408959649   -0.10869620898894465
0.31251233487647595   0.08860665408959649   -0.10869620898894465
0.31251233487647595   0.08860665408959649   -0.10869620898894465
-0.3606542526053028   0.014594397602787287   -0.0090147012715113
-0.3606542526053028   0.014594397602787287   -0.0090147012715113
-0.3606542526053028   0.014594397602787287   -0.0090147012715113
-0.3606542526053028   0.014594397602787287   -0.0090147012715113
0.4261805935656422   0.37030523196020354   0.17794650658627964
0.4261805935656422   0.37030523196020354   0.17794650658627964
0.4261805935656422   0.37030523196020354   0.17794650658627964
0.4261805935656422   0.37030523196020354   0.17794650658627964
-1.0001823564279035   -0.18733040526653333   -0.17568681446521442
-1.0001823564279035   -0.18733040526653333   -0.17568681446521442
-1.0001823564279035   -0.18733040526653333   -0.17568681446521442
-1.0001823564279035   -0.18733040526653333   -0.17568681446521442
-0.7897052843464772   0.2540316934415999   0.044026608953821766
-0.7897052843464772   0.2540316934415999   0.044026608953821766
-0.7897052843464772   0.2540316934415999   0.044026608953821766
-0.7897052843464772   0.2540316934415999   0.044026608953821766
0.42870141108665616   0.2499296476270833   -0.13889404745158496
0.42870141108665616   0.2499296476270833   -0.13889404745158496
0.42870141108665616   0.2499296476270833   -0.13889404745158496
0.42870141108665616   0.2499296476270833   -0.13889404745158496
-0.23698928741897515   0.16053245861346943   0.06211783402215262
-0.23698928741897515   0.16053245861346943   0.06211783402215262
-0.23698928741897515   0.16053245861346943   0.06211783402215262
-0.23698928741897515   0.16053245861346943   0.06211783402215262
-1.0921628678272894   -0.08728818904095373   0.08028486392704318
-1.0921628678272894   -0.08728818904095373   0.08028486392704318
-1.0921628678272894   -0.08728818904095373   0.08028486392704318
-1.0921628678272894   -0.08728818904095373   0.08028486392704318
-2.346405517057014   -0.3198893903181136   0.021219095748812082
-2.346405517057014   -0.3198893903181136   0.021219095748812082
-2.346405517057014   -0.3198893903181136   0.021219095748812082
-2.346405517057014   -0.3198893903181136   0.021219095748812082
-2.2535070261191703   -0.1998655612765966   -0.044301846880551665
-2.2535070261191703   -0.1998655612765966   -0.044301846880551665
-2.2535070261191703   -0.1998655612765966   -0.044301846880551665
-2.2535070261191703   -0.1998655612765966   -0.044301846880551665
-0.9827104445823676   0.08321113701033428   0.05022374162095511
-0.9827104445823676   0.08321113701033428   0.05022374162095511
-0.9827104445823676   0.08321113701033428   0.05022374162095511
-0.9827104445823676   0.08321113701033428   0.05022374162095511
-1.6711455016243617   -0.1201640813688988   -0.04395654200409612
-1.6711455016243617   -0.1201640813688988   -0.04395654200409612
-1.6711455016243617   -0.1201640813688988   -0.04395654200409612
-1.6711455016243617   -0.1201640813688988   -0.04395654200409612
-0.9841478449674257   0.07343018305921878   0.05281769364678035
-0.9841478449674257   0.07343018305921878   0.05281769364678035
-0.9841478449674257   0.07343018305921878   0.05281769364678035
-0.9841478449674257   0.07343018305921878   0.05281769364678035
-2.2435685571559034   -0.18158353874727196   -0.012891524593540316
-2.2435685571559034   -0.18158353874727196   -0.012891524593540316
-2.2435685571559034   -0.18158353874727196   -0.012891524593540316
-2.2435685571559034   -0.18158353874727196   -0.012891524593540316
-2.1423488534890796   -0.03488800396414554   -0.06967525479197195
-2.1423488534890796   -0.03488800396414554   -0.06967525479197195
-2.1423488534890796   -0.03488800396414554   -0.06967525479197195
-2.1423488534890796   -0.03488800396414554   -0.06967525479197195
-0.8779686374115279   0.22974264514575593   0.018308730204390056
-0.8779686374115279   0.22974264514575593   0.018308730204390056
-0.8779686374115279   0.22974264514575593   0.018308730204390056
-0.8779686374115279   0.22974264514575593   0.018308730204390056
-1.5564272300531037   0.024839667000429   0.02328978542479447
-1.5564272300531037   0.024839667000429   0.02328978542479447
-1.5564272300531037   0.024839667000429   0.02328978542479447
-1.5564272300531037   0.024839667000429   0.02328978542479447
-0.8754548625276019   0.23712491261708304   0.023495337152693474
-0.8754548625276019   0.23712491261708304   0.023495337152693474
-0.8754548625276019   0.23712491261708304   0.023495337152693474
-0.8754548625276019   0.23712491261708304   0.023495337152693474
-2.1380967368133885   -0.03550437987589966   -0.04779829550178159
-2.1380967368133885   -0.03550437987589966   -0.04779829550178159
-2.1380967368133885   -0.03550437987589966   -0.04779829550178159
-2.1380967368133885   -0.03550437987589966   -0.04779829550178159
-2.035693226210399   0.13048745966506214   -0.09870575963915812
-2.035693226210399   0.13048745966506214   -0.09870575963915812
-2.035693226210399   0.13048745966506214   -0.09870575963915812
-2.035693226210399   0.13048745966506214   -0.09870575963915812
-0.7776501324018898   0.37670695893755557   -0.018372896819196988
-0.7776501324018898   0.37670695893755557   -0.018372896819196988
-0.7776501324018898   0.37670695893755557   -0.018372896819196988
-0.7776501324018898   0.37670695893755557   -0.018372896819196988
-1.4476258169224179   0.16941926700086496   0.08614459285834819
-1.4476258169224179   0.16941926700086496   0.08614459285834819
-1.4476258169224179   0.16941926700086496   0.08614459285834819
-1.4476258169224179   0.16941926700086496   0.08614459285834819
-2.345576248208216   -0.226484476068544   -0.06803947425674721
-2.345576248208216   -0.226484476068544   -0.06803947425674721
-2.345576248208216   -0.226484476068544   -0.06803947425674721
-2.345576248208216   -0.226484476068544   -0.06803947425674721
-3.477507361298422   -0.19552089837454611   0.14099225433934548
-3.477507361298422   -0.19552089837454611   0.14099225433934548
-3.477507361298422   -0.19552089837454611   0.14099225433934548
-3.477507361298422   -0.19552089837454611   0.14099225433934548
-3.4769050495452745   -0.3316767552703841   -0.18760922504906083
-3.4769050495452745   -0.3316767552703841   -0.18760922504906083
-3.4769050495452745   -0.3316767552703841   -0.18760922504906083
-3.4769050495452745   -0.3316767552703841   -0.18760922504906083
-2.127637101337957   0.21352629899389597   0.17165591675502237
-2.127637101337957   0.21352629899389597   0.17165591675502237
-2.127637101337957   0.21352629899389597   0.17165591675502237
-2.127637101337957   0.21352629899389597   0.17165591675502237
-2.8410151543451003   -0.12095886030039038   -0.018353526610834697
-2.8410151543451003   -0.12095886030039038   -0.018353526610834697
-2.8410151543451003   -0.12095886030039038   -0.018353526610834697
-2.8410151543451003   -0.12095886030039038   -0.018353526610834697
-2.2365822115566174   -0.06499917477642769   -0.09454416056793594
-2.2365822115566174   -0.06499917477642769   -0.09454416056793594
-2.2365822115566174   -0.06499917477642769   -0.09454416056793594
-2.2365822115566174   -0.06499917477642769   -0.09454416056793594
-3.3609810045279414   -0.04617234670137915   0.10650659146863076
-3.3609810045279414   -0.04617234670137915   0.10650659146863076
-3.3609810045279414   -0.04617234670137915   0.10650659146863076
-3.3609810045279414   -0.04617234670137915   0.10650659146863076
-3.338011141509919   -0.17423519000510035   -0.2087261355952063
-3.338011141509919   -0.17423519000510035   -0.2087261355952063
-3.338011141509919   -0.17423519000510035   -0.2087261355952063
-3.338011141509919   -0.17423519000510035   -0.2087261355952063
-2.0247303903463822   0.3469468670329594   0.13658218992441024
-2.0247303903463822   0.3469468670329594   0.13658218992441024
-2.0247303903463822   0.3469468670329594   0.13658218992441024
-2.0247303903463822   0.3469468670329594   0.13658218992441024
-2.7038507250248   0.025158655673836683   0.05086494508570197
-2.7038507250248   0.025158655673836683   0.05086494508570197
-2.7038507250248   0.025158655673836683   0.05086494508570197
-2.7038507250248   0.025158655673836683   0.05086494508570197
-2.130082541073773   0.08370784822104271   -0.12693954490063675
-2.130082541073773   0.08370784822104271   -0.12693954490063675
-2.130082541073773   0.08370784822104271   -0.12693954490063675
-2.130082541073773   0.08370784822104271   -0.12693954490063675
-3.224799316740563   0.09686350284877965   0.08623429539769262
-3.224799316740563   0.09686350284877965   0.08623429539769262
-3.224799316740563   0.09686350284877965   0.08623429539769262
-3.224799316740563   0.09686350284877965   0.08623429539769262
-3.2137008944873466   -0.002296066048781187   -0.22461293906319496
-3.2137008944873466   -0.002296066048781187   -0.22461293906319496
-3.2137008944873466   -0.002296066048781187   -0.22461293906319496
-3.2137008944873466   -0.002296066048781187   -0.22461293906319496
-1.9228800767727763   0.49458461227708284   0.10126283493693738
-1.9228800767727763   0.49458461227708284   0.10126283493693738
-1.9228800767727763   0.49458461227708284   0.10126283493693738
-1.9228800767727763   0.49458461227708284   0.10126283493693738
-2.6005422361526147   0.16169244885658485   0.1129808147722218
-2.6005422361526147   0.16169244885658485   0.1129808147722218
-2.6005422361526147   0.16169244885658485   0.1129808147722218
-2.6005422361526147   0.16169244885658485   0.1129808147722218
-3.572924319026818   -0.32594642065490503   -0.2056670120222736
-3.572924319026818   -0.32594642065490503   -0.2056670120222736
-3.572924319026818   -0.32594642065490503   -0.2056670120222736
-3.572924319026818   -0.32594642065490503   -0.2056670120222736
-4.76501084822692   -0.08147974669546587   0.30373235375780683
-4.76501084822692   -0.08147974669546587   0.30373235375780683
-4.76501084822692   -0.08147974669546587   0.30373235375780683
-4.76501084822692   -0.08147974669546587   0.30373235375780683
-4.696108076286299   -0.4329506573096855   -0.2738087111228238
-4.696108076286299   -0.4329506573096855   -0.2738087111228238
-4.696108076286299   -0.4329506573096855   -0.2738087111228238
-4.696108076286299   -0.4329506573096855   -0.2738087111228238
-3.2411075461135153   0.36027094982343   0.29943058701592207
-3.2411075461135153   0.36027094982343   0.29943058701592207
-3.2411075461135153   0.36027094982343   0.29943058701592207
-3.2411075461135153   0.36027094982343   0.29943058701592207
-3.893573812953637   -0.06881232105974422   0.03151291687059726
-3.893573812953637   -0.06881232105974422   0.03151291687059726
-3.893573812953637   -0.06881232105974422   0.03151291687059726
-3.893573812953637   -0.06881232105974422   0.03151291687059726
-3.4548432175126713   -0.17644275613473182   -0.23253406402168308
-3.4548432175126713   -0.17644275613473182   -0.23253406402168308
-3.4548432175126713   -0.17644275613473182   -0.23253406402168308
-3.4548432175126713   -0.17644275613473182   -0.23253406402168308
-4.4760728160311185   0.11006263750448819   0.2833542953388153
-4.4760728160311185   0.11006263750448819   0.2833542953388153
-4.4760728160311185   0.11006263750448819   0.2833542953388153
-4.4760728160311185   0.11006263750448819   0.2833542953388153
-4.477251727352072   -0.33943975895357903   -0.32569719770447425
-4.477251727352072   -0.33943975895357903   -0.32569719770447425
-4.477251727352072   -0.33943975895357903   -0.32569719770447425
-4.477251727352072   -0.33943975895357903   -0.32569719770447425
-3.1277244901946637   0.42173297275031674   0.24673895822562242
-3.1277244901946637   0.42173297275031674   0.24673895822562242
-3.1277244901946637   0.42173297275031674   0.24673895822562242
-3.1277244901946637   0.42173297275031674   0.24673895822562242
-3.768195647240917   0.029186172959967838   0.08752750875789542
-3.768195647240917   0.029186172959967838   0.08752750875789542
-3.768195647240917   0.029186172959967838   0.08752750875789542
-3.768195647240917   0.029186172959967838   0.08752750875789542
-3.334983062904908   -0.09950897753191856   -0.2683119550433347
-3.334983062904908   -0.09950897753191856   -0.2683119550433347
-3.334983062904908   -0.09950897753191856   -0.2683119550433347
-3.334983062904908   -0.09950897753191856   -0.2683119550433347
-4.2622547473804735   0.18954059859000905   0.2203073446098941
-4.2622547473804735   0.18954059859000905   0.2203073446098941
-4.2622547473804735   0.18954059859000905   0.2203073446098941
-4.2622547473804735   0.18954059859000905   0.2203073446098941
-4.208226421950369   -0.1994254247754189   -0.36297018176546814
-4.208226421950369   -0.1994254247754189   -0.36297018176546814
-4.208226421950369   -0.1994254247754189   -0.36297018176546814
-4.208226421950369   -0.1994254247754189   -0.36297018176546814
-3.027894384124133   0.4965674711273911   0.20555607557670091
-3.027894384124133   0.4965674711273911   0.20555607557670091
-3.027894384124133   0.4965674711273911   0.20555607557670091
-3.027894384124133   0.4965674711273911   0.20555607557670091
-3.536731411653023   0.12121028878210172   0.16615431211033604
-3.536731411653023   0.12121028878210172   0.16615431211033604
-3.536731411653023   0.12121028878210172   0.16615431211033604
-3.536731411653023   0.12121028878210172   0.16615431211033604
3.8054911396788547   0.3453393881498149   0.3322545021566671
3.8054911396788547   0.3453393881498149   0.3322545021566671
3.8054911396788547   0.3453393881498149   0.3322545021566671
3.8054911396788547   0.3453393881498149   0.3322545021566671
1.3963242056311562   -0.6369250659770567   -0.2188116563912106
1.3963242056311562   -0.6369250659770567   -0.2188116563912106
1.3963242056311562   -0.6369250659770567   -0.2188116563912106
1.3963242056311562   -0.6369250659770567   -0.2188116563912106
1.7277296678476475   -0.002574750197977982   0.2392789615321123
1.7277296678476475   -0.002574750197977982   0.2392789615321123
1.7277296678476475   -0.002574750197977982   0.2392789615321123
1.7277296678476475   -0.002574750197977982   0.2392789615321123
3.8765900954408186   -0.09158641837413994   -0.2792004743364543
3.8765900954408186   -0.09158641837413994   -0.2792004743364543
3.8765900954408186   -0.09158641837413994   -0.2792004743364543
3.8765900954408186   -0.09158641837413994   -0.2792004743364543
2.5353249479231192   -0.11625540634196485   -0.2458002195907585
2.5353249479231192   -0.11625540634196485   -0.2458002195907585
2.5353249479231192   -0.11625540634196485   -0.2458002195907585
2.5353249479231192   -0.11625540634196485   -0.2458002195907585
4.105071765428138   0.4828018070474109   0.2888196501785653
4.105071765428138   0.4828018070474109   0.2888196501785653
4.105071765428138   0.4828018070474109   0.2888196501785653
4.105071765428138   0.4828018070474109   0.2888196501785653
1.5153222940106885   -0.5608886794691702   -0.26444397838147604
1.5153222940106885   -0.5608886794691702   -0.26444397838147604
1.5153222940106885   -0.5608886794691702   -0.26444397838147604
1.5153222940106885   -0.5608886794691702   -0.26444397838147604
1.859393724651846   0.07260455765269003   0.19747964967874806
1.859393724651846   0.07260455765269003   0.19747964967874806
1.859393724651846   0.07260455765269003   0.19747964967874806
1.859393724651846   0.07260455765269003   0.19747964967874806
4.115369518744662   -0.0060664556821015125   -0.352180472731248
4.115369518744662   -0.0060664556821015125   -0.352180472731248
4.115369518744662   -0.0060664556821015125   -0.352180472731248
4.115369518744662   -0.0060664556821015125   -0.352180472731248
2.7842125941878857   -0.023753647753013807   -0.14858860554937142
2.7842125941878857   -0.023753647753013807   -0.14858860554937142
2.7842125941878857   -0.023753647753013807   -0.14858860554937142
2.7842125941878857   -0.023753647753013807   -0.14858860554937142
4.346504068442409   0.5750132170751092   0.22241260300028068
4.346504068442409   0.5750132170751092   0.22241260300028068
4.346504068442409   0.5750132170751092   0.22241260300028068
4.346504068442409   0.5750132170751092   0.22241260300028068
1.6454507800730263   -0.49128350998563086   -0.30834700557701367
1.6454507800730263   -0.49128350998563086   -0.30834700557701367
1.6454507800730263   -0.49128350998563086   -0.30834700557701367
1.6454507800730263   -0.49128350998563086   -0.30834700557701367
1.9908540164130115   0.23805581432632814   0.17116170695353508
1.9908540164130115   0.23805581432632814   0.17116170695353508
1.9908540164130115   0.23805581432632814   0.17116170695353508
1.9908540164130115   0.23805581432632814   0.17116170695353508
4.428693155123273   0.21702943378101525   -0.38005837434881495
4.428693155123273   0.21702943378101525   -0.38005837434881495
4.428693155123273   0.21702943378101525   -0.38005837434881495
4.428693155123273   0.21702943378101525   -0.38005837434881495
2.938987140120823   0.0885493454319598   -0.06422820851168762
2.938987140120823   0.0885493454319598   -0.06422820851168762
2.938987140120823   0.0885493454319598   -0.06422820851168762
2.938987140120823   0.0885493454319598   -0.06422820851168762
1.6589525065036166   0.19280525224259762   0.26459952975142126
1.6589525065036166   0.19280525224259762   0.26459952975142126
1.6589525065036166   0.19280525224259762   0.26459952975142126
1.6589525065036166   0.19280525224259762   0.26459952975142126
-0.8034778842488978   -0.5941065393093875   -0.11445686124929853
-0.8034778842488978   -0.5941065393093875   -0.11445686124929853
-0.8034778842488978   -0.5941065393093875   -0.11445686124929853
-0.8034778842488978   -0.5941065393093875   -0.11445686124929853
-0.5749374938889519   -0.17286165106395382   0.08056377414478375
-0.5749374938889519   -0.17286165106395382   0.08056377414478375
-0.5749374938889519   -0.17286165106395382   0.08056377414478375
-0.5749374938889519   -0.17286165106395382   0.08056377414478375
1.6736039578006494   0.0017052948842161686   -0.03562963378505743
1.6736039578006494   0.0017052948842161686   -0.03562963378505743
1.6736039578006494   0.0017052948842161686   -0.03562963378505743
1.6736039578006494   0.0017052948842161686   -0.03562963378505743
0.46674159781262287   -0.1265233572044136   -0.10507994122129652
0.46674159781262287   -0.1265233572044136   -0.10507994122129652
0.46674159781262287   -0.1265233572044136   -0.10507994122129652
0.46674159781262287   -0.1265233572044136   -0.10507994122129652
1.794068996785001   0.33208921953838355   0.23631163648251777
1.794068996785001   0.33208921953838355   0.23631163648251777
1.794068996785001   0.33208921953838355   0.23631163648251777
1.794068996785001   0.33208921953838355   0.23631163648251777
-0.6857994541362068   -0.493642496981027   -0.15296518117441726
-0.6857994541362068   -0.493642496981027   -0.15296518117441726
-0.6857994541362068   -0.493642496981027   -0.15296518117441726
-0.6857994541362068   -0.493642496981027   -0.15296518117441726
-0.45221415571779566   -0.03239289867575159   0.051032517778831964
-0.45221415571779566   -0.03239289867575159   0.051032517778831964
-0.45221415571779566   -0.03239289867575159   0.051032517778831964
-0.45221415571779566   -0.03239289867575159   0.051032517778831964
1.8177199597361517   0.12791841007960997   -0.06620302732662738
1.8177199597361517   0.12791841007960997   -0.06620302732662738
1.8177199597361517   0.12791841007960997   -0.06620302732662738
1.8177199597361517   0.12791841007960997   -0.06620302732662738
0.5854338523754786   -0.015427752383720628   -0.04183682761781877
0.5854338523754786   -0.015427752383720628   -0.04183682761781877
0.5854338523754786   -0.015427752383720628   -0.04183682761781877
0.5854338523754786   -0.015427752383720628   -0.04183682761781877
1.9429807506833308   0.478369538788774   0.20964979870008812
1.9429807506833308   0.478369538788774   0.20964979870008812
1.9429807506833308   0.478369538788774   0.20964979870008812
1.9429807506833308   0.478369538788774   0.20964979870008812
-0.5678369658242212   -0.37320604654408285   -0.18626838488496406
-0.5678369658242212   -0.37320604654408285   -0.18626838488496406
-0.5678369658242212   -0.37320604654408285   -0.18626838488496406
-0.5678369658242212   -0.37320604654408285   -0.18626838488496406
-0.331089335677043   0.13007279365865976   0.021612429469996287
-0.331089335677043   0.13007279365865976   0.021612429469996287
-0.331089335677043   0.13007279365865976   0.021612429469996287
-0.331089335677043   0.13007279365865976   0.021612429469996287
1.9457166971710143   0.27797337102513936   -0.09444244595526206
1.9457166971710143   0.27797337102513936   -0.09444244595526206
1.9457166971710143   0.27797337102513936   -0.09444244595526206
1.9457166971710143   0.27797337102513936   -0.09444244595526206
0.7315020873087072   0.12059051677767842   0.03192883871440941
0.7315020873087072   0.12059051677767842   0.03192883871440941
0.7315020873087072   0.12059051677767842   0.03192883871440941
0.7315020873087072   0.12059051677767842   0.03192883871440941
-0.6310525887415974   0.041374992992308776   0.11218808398550717
-0.6310525887415974   0.041374992992308776   0.11218808398550717
-0.6310525887415974   0.041374992992308776   0.11218808398550717
-0.6310525887415974   0.041374992992308776   0.11218808398550717
-2.9595008228188564   -0.5239929129590627   -0.01475280082797915
-2.9595008228188564   -0.5239929129590627   -0.01475280082797915
-2.9595008228188564   -0.5239929129590627   -0.01475280082797915
-2.9595008228188564   -0.5239929129590627   -0.01475280082797915
-2.8137217957017984   -0.30696785200109156   -0.06965985231674338
-2.8137217957017984   -0.30696785200109156   -0.06965985231674338
-2.8137217957017984   -0.30696785200109156   -0.06965985231674338
-2.8137217957017984   -0.30696785200109156   -0.06965985231674338
-0.5264125068587256   0.07545794678445647   0.0748691114475047
-0.5264125068587256   0.07545794678445647   0.0748691114475047
-0.5264125068587256   0.07545794678445647   0.0748691114475047
-0.5264125068587256   0.07545794678445647   0.0748691114475047
-1.735752260098037   -0.16140018738427864   -0.0655227770480699
-1.735752260098037   -0.16140018738427864   -0.0655227770480699
-1.735752260098037   -0.16140018738427864   -0.0655227770480699
-1.735752260098037   -0.16140018738427864   -0.0655227770480699
-0.5022914632667537   0.18619720015635852   0.08473507603546238
-0.5022914632667537   0.18619720015635852   0.08473507603546238
-0.5022914632667537   0.18619720015635852   0.08473507603546238
-0.5022914632667537   0.18619720015635852   0.08473507603546238
-2.831503342328339   -0.4113676084075622   -0.054167829042975416
-2.831503342328339   -0.4113676084075622   -0.054167829042975416
-2.831503342328339   -0.4113676084075622   -0.054167829042975416
-2.831503342328339   -0.4113676084075622   -0.054167829042975416
-2.678511479413195   -0.15285453078600442   -0.09413430745274504
-2.678511479413195   -0.15285453078600442   -0.09413430745274504
-2.678511479413195   -0.15285453078600442   -0.09413430745274504
-2.678511479413195   -0.15285453078600442   -0.09413430745274504
-0.4069340159843897   0.20291992659830133   0.04212039117180873
-0.4069340159843897   0.20291992659830133   0.04212039117180873
-0.4069340159843897   0.20291992659830133   0.04212039117180873
-0.4069340159843897   0.20291992659830133   0.04212039117180873
-1.5994168177830608   -0.03242166366748023   -0.0010488893039383995
-1.5994168177830608   -0.03242166366748023   -0.0010488893039383995
-1.5994168177830608   -0.03242166366748023   -0.0010488893039383995
-1.5994168177830608   -0.03242166366748023   -0.0010488893039383995
-0.37785498713688626   0.3368256013011098   0.053609860706517645
-0.37785498713688626   0.3368256013011098   0.053609860706517645
-0.37785498713688626   0.3368256013011098   0.053609860706517645
-0.37785498713688626   0.3368256013011098   0.053609860706517645
-2.7016865134371137   -0.2808562106652287   -0.08200779769311711
-2.7016865134371137   -0.2808562106652287   -0.08200779769311711
-2.7016865134371137   -0.2808562106652287   -0.08200779769311711
-2.7016865134371137   -0.2808562106652287   -0.08200779769311711
-2.5526818574728067   0.0006794839120461971   -0.12347854687607293
-2.5526818574728067   0.0006794839120461971   -0.12347854687607293
-2.5526818574728067   0.0006794839120461971   -0.12347854687607293
-2.5526818574728067   0.0006794839120461971   -0.12347854687607293
-0.2927893551354763   0.33316898272908346   0.01001614310742123
-0.2927893551354763   0.33316898272908346   0.01001614310742123
-0.2927893551354763   0.33316898272908346   0.01001614310742123
-0.2927893551354763   0.33316898272908346   0.01001614310742123
-1.4741162376203703   0.09605537571866418   0.06033382528827863
-1.4741162376203703   0.09605537571866418   0.06033382528827863
-1.4741162376203703   0.09605537571866418   0.06033382528827863
-1.4741162376203703   0.09605537571866418   0.06033382528827863
-2.883540700001307   -0.11392919743570584   -0.045015902263568
-2.883540700001307   -0.11392919743570584   -0.045015902263568
-2.883540700001307   -0.11392919743570584   -0.045015902263568
-2.883540700001307   -0.11392919743570584   -0.045015902263568
-5.063771476434039   -0.4234903242656418   0.09940813260378362
-5.063771476434039   -0.4234903242656418   0.09940813260378362
-5.063771476434039   -0.4234903242656418   0.09940813260378362
-5.063771476434039   -0.4234903242656418   0.09940813260378362
-4.991540005766219   -0.4355494627277311   -0.20981998742485106
-4.991540005766219   -0.4355494627277311   -0.20981998742485106
-4.991540005766219   -0.4355494627277311   -0.20981998742485106
-4.991540005766219   -0.4355494627277311   -0.20981998742485106
-2.661519524703341   0.19561800773962168   0.18876564293486084
-2.661519524703341   0.19561800773962168   0.18876564293486084
-2.661519524703341   0.19561800773962168   0.18876564293486084
-2.661519524703341   0.19561800773962168   0.18876564293486084
-3.873101150561176   -0.16962522115648382   -0.022760599789998087
-3.873101150561176   -0.16962522115648382   -0.022760599789998087
-3.873101150561176   -0.16962522115648382   -0.022760599789998087
-3.873101150561176   -0.16962522115648382   -0.022760599789998087
-2.743534330237602   0.042397995386331266   -0.06808837238315632
-2.743534330237602   0.042397995386331266   -0.06808837238315632
-2.743534330237602   0.042397995386331266   -0.06808837238315632
-2.743534330237602   0.042397995386331266   -0.06808837238315632
-4.909415554948329   -0.28221980509080435   0.04747260902771863
-4.909415554948329   -0.28221980509080435   0.04747260902771863
-4.909415554948329   -0.28221980509080435   0.04747260902771863
-4.909415554948329   -0.28221980509080435   0.04747260902771863
-4.815127468087582   -0.2848610759174657   -0.2320604470865148
-4.815127468087582   -0.2848610759174657   -0.2320604470865148
-4.815127468087582   -0.2848610759174657   -0.2320604470865148
-4.815127468087582   -0.2848610759174657   -0.2320604470865148
-2.535505185430473   0.31728108971397173   0.15076154196090458
-2.535505185430473   0.31728108971397173   0.15076154196090458
-2.535505185430473   0.31728108971397173   0.15076154196090458
-2.535505185430473   0.31728108971397173   0.15076154196090458
-3.6939231783811417   -0.026998048871324287   0.0417977906135889
-3.6939231783811417   -0.026998048871324287   0.0417977906135889
-3.6939231783811417   -0.026998048871324287   0.0417977906135889
-3.6939231783811417   -0.026998048871324287   0.0417977906135889
-2.612487892252321   0.1822539568166791   -0.0991248592510523
-2.612487892252321   0.1822539568166791   -0.0991248592510523
-2.612487892252321   0.1822539568166791   -0.0991248592510523
-2.612487892252321   0.1822539568166791   -0.0991248592510523
-4.734293953358914   -0.14598313511335337   0.033229185752719215
-4.734293953358914   -0.14598313511335337   0.033229185752719215
-4.734293953358914   -0.14598313511335337   0.033229185752719215
-4.734293953358914   -0.14598313511335337   0.033229185752719215
-4.657354526981765   -0.12134659812100312   -0.2439187668445042
-4.657354526981765   -0.12134659812100312   -0.2439187668445042
-4.657354526981765   -0.12134659812100312   -0.2439187668445042
-4.657354526981765   -0.12134659812100312   -0.2439187668445042
-2.4134525526201696   0.45128102057988895   0.12206644071929218
-2.4134525526201696   0.45128102057988895   0.12206644071929218
-2.4134525526201696   0.45128102057988895   0.12206644071929218
-2.4134525526201696   0.45128102057988895   0.12206644071929218
-3.571918162906116   0.09510881668153703   0.09755162105144241
-3.571918162906116   0.09510881668153703   0.09755162105144241
-3.571918162906116   0.09510881668153703   0.09755162105144241
-3.571918162906116   0.09510881668153703   0.09755162105144241
-5.085957303870655   -0.24451481195396807   -0.19049651689097022
-5.085957303870655   -0.24451481195396807   -0.19049651689097022
-5.085957303870655   -0.24451481195396807   -0.19049651689097022
-5.085957303870655   -0.24451481195396807   -0.19049651689097022
-7.243619685377043   -0.26047371284063625   0.330422454640612
-7.243619685377043   -0.26047371284063625   0.330422454640612
-7.243619685377043   -0.26047371284063625   0.330422454640612
-7.243619685377043   -0.26047371284063625   0.330422454640612
-7.100949061659227   -0.5218909777154264   -0.25153753513264676
-7.100949061659227   -0.5218909777154264   -0.25153753513264676
-7.100949061659227   -0.5218909777154264   -0.25153753513264676
-7.100949061659227   -0.5218909777154264   -0.25153753513264676
-4.713997518345321   0.40690166489770907   0.33544132205419724
-4.713997518345321   0.40690166489770907   0.33544132205419724
-4.713997518345321   0.40690166489770907   0.33544132205419724
-4.713997518345321   0.40690166489770907   0.33544132205419724
-5.768601347124523   -0.07138665042744274   0.06572251056005618
-5.768601347124523   -0.07138665042744274   0.06572251056005618
-5.768601347124523   -0.07138665042744274   0.06572251056005618
-5.768601347124523   -0.07138665042744274   0.06572251056005618
-4.920366905440382   -0.07780652429150181   -0.21169742423186966
-4.920366905440382   -0.07780652429150181   -0.21169742423186966
-4.920366905440382   -0.07780652429150181   -0.21169742423186966
-4.920366905440382   -0.07780652429150181   -0.21169742423186966
-6.891357683373115   -0.03396079733516788   0.30848917591760566
-6.891357683373115   -0.03396079733516788   0.30848917591760566
-6.891357683373115   -0.03396079733516788   0.30848917591760566
-6.891357683373115   -0.03396079733516788   0.30848917591760566
-6.8348828615789285   -0.42826098065207185   -0.2960724374020557
-6.8348828615789285   -0.42826098065207185   -0.2960724374020557
-6.8348828615789285   -0.42826098065207185   -0.2960724374020557
-6.8348828615789285   -0.42826098065207185   -0.2960724374020557
-4.565687858399353   0.464678680067913   0.2655978453692575
-4.565687858399353   0.464678680067913   0.2655978453692575
-4.565687858399353   0.464678680067913   0.2655978453692575
-4.565687858399353   0.464678680067913   0.2655978453692575
-5.62959510397686   0.030736467837172432   0.11974796698639162
-5.62959510397686   0.030736467837172432   0.11974796698639162
-5.62959510397686   0.030736467837172432   0.11974796698639162
-5.62959510397686   0.030736467837172432   0.11974796698639162
-4.760339199063043   -0.0022781635372839393   -0.24070201434400074
-4.760339199063043   -0.0022781635372839393   -0.24070201434400074
-4.760339199063043   -0.0022781635372839393   -0.24070201434400074
-4.760339199063043   -0.0022781635372839393   -0.24070201434400074
-6.63705854684219   0.04186883702611399   0.22291931860334518
-6.63705854684219   0.04186883702611399   0.22291931860334518
-6.63705854684219   0.04186883702611399   0.22291931860334518
-6.63705854684219   0.04186883702611399   0.22291931860334518
-6.544599877512373   -0.31531125301301444   -0.3371320517370873
-6.544599877512373   -0.31531125301301444   -0.3371320517370873
-6.544599877512373   -0.31531125301301444   -0.3371320517370873
-6.544599877512373   -0.31531125301301444   -0.3371320517370873
-4.435093281695084   0.5198124286331152   0.22622843283477873
-4.435093281695084   0.5198124286331152   0.22622843283477873
-4.435093281695084   0.5198124286331152   0.22622843283477873
-4.435093281695084   0.5198124286331152   0.22622843283477873
-5.3375103490574105   0.11584859378792678   0.20089869649189546
-5.3375103490574105   0.11584859378792678   0.20089869649189546
-5.3375103490574105   0.11584859378792678   0.20089869649189546
-5.3375103490574105   0.11584859378792678   0.20089869649189546
6.412517114234263   0.4784753017096034   0.34199727343898334
6.412517114234263   0.4784753017096034   0.34199727343898334
6.412517114234263   0.4784753017096034   0.34199727343898334
6.412517114234263   0.4784753017096034   0.34199727343898334
2.832436371117038   -0.7595102609223806   -0.15618081736642175
2.832436371117038   -0.7595102609223806   -0.15618081736642175
2.832436371117038   -0.7595102609223806   -0.15618081736642175
2.832436371117038   -0.7595102609223806   -0.15618081736642175
3.161553072310035   -0.13169781469271913   0.23527956720143262
3.161553072310035   -0.13169781469271913   0.23527956720143262
3.161553072310035   -0.13169781469271913   0.23527956720143262
3.161553072310035   -0.13169781469271913   0.23527956720143262
6.485150348492703   -0.016240893753776797   -0.24547453452540796
6.485150348492703   -0.016240893753776797   -0.24547453452540796
6.485150348492703   -0.016240893753776797   -0.24547453452540796
6.485150348492703   -0.016240893753776797   -0.24547453452540796
4.4460837671935645   -0.13654663336038564   -0.34931563853278336
4.4460837671935645   -0.13654663336038564   -0.34931563853278336
4.4460837671935645   -0.13654663336038564   -0.34931563853278336
4.4460837671935645   -0.13654663336038564   -0.34931563853278336
6.712463419070961   0.5886652717846521   0.28618465282736255
6.712463419070961   0.5886652717846521   0.28618465282736255
6.712463419070961   0.5886652717846521   0.28618465282736255
6.712463419070961   0.5886652717846521   0.28618465282736255
2.9560292568501665   -0.7148147251127679   -0.20922259967782825
2.9560292568501665   -0.7148147251127679   -0.20922259967782825
2.9560292568501665   -0.7148147251127679   -0.20922259967782825
2.9560292568501665   -0.7148147251127679   -0.20922259967782825
3.2909883742468784   -0.06243041179535247   0.19038089120052556
3.2909883742468784   -0.06243041179535247   0.19038089120052556
3.2909883742468784   -0.06243041179535247   0.19038089120052556
3.2909883742468784   -0.06243041179535247   0.19038089120052556
6.71024926188084   0.06020936276329114   -0.30717926308896365
6.71024926188084   0.06020936276329114   -0.30717926308896365
6.71024926188084   0.06020936276329114   -0.30717926308896365
6.71024926188084   0.06020936276329114   -0.30717926308896365
4.728019717245074   -0.05468177637062799   -0.237334817911452
4.728019717245074   -0.05468177637062799   -0.237334817911452
4.728019717245074   -0.05468177637062799   -0.237334817911452
4.728019717245074   -0.05468177637062799   -0.237334817911452
6.936296058547054   0.671006469521381   0.21225761348401748
6.936296058547054   0.671006469521381   0.21225761348401748
6.936296058547054   0.671006469521381   0.21225761348401748
6.936296058547054   0.671006469521381   0.21225761348401748
3.0840538433665485   -0.6541152527675992   -0.2526069222288796
3.0840538433665485   -0.6541152527675992   -0.2526069222288796
3.0840538433665485   -0.6541152527675992   -0.2526069222288796
3.0840538433665485   -0.6541152527675992   -0.2526069222288796
3.4081442295545643   0.12231354250028315   0.16691109481647973
3.4081442295545643   0.12231354250028315   0.16691109481647973
3.4081442295545643   0.12231354250028315   0.16691109481647973
3.4081442295545643   0.12231354250028315   0.16691109481647973
6.986834999363338   0.28374814095199064   -0.32184269169453134
6.986834999363338   0.28374814095199064   -0.32184269169453134
6.986834999363338   0.28374814095199064   -0.32184269169453134
6.986834999363338   0.28374814095199064   -0.32184269169453134
4.8348933095323074   0.05525571308828081   -0.15957052314760825
4.8348933095323074   0.05525571308828081   -0.15957052314760825
4.8348933095323074   0.05525571308828081   -0.15957052314760825
4.8348933095323074   0.05525571308828081   -0.15957052314760825
3.1336353534909684   0.2785568726705492   0.311746960910273
3.1336353534909684   0.2785568726705492   0.311746960910273
3.1336353534909684   0.2785568726705492   0.311746960910273
3.1336353534909684   0.2785568726705492   0.311746960910273
-0.3798303775873619   -0.9375622418405696   -0.08867776098901056
-0.3798303775873619   -0.9375622418405696   -0.08867776098901056
-0.3798303775873619   -0.9375622418405696   -0.08867776098901056
-0.3798303775873619   -0.9375622418405696   -0.08867776098901056
-0.09559537849462793   -0.3289796417345726   0.0801450194165215
-0.09559537849462793   -0.3289796417345726   0.0801450194165215
-0.09559537849462793   -0.3289796417345726   0.0801450194165215
-0.09559537849462793   -0.3289796417345726   0.0801450194165215
3.1079028558573842   -0.17956988460055134   0.014900554846010383
3.1079028558573842   -0.17956988460055134   0.014900554846010383
3.1079028558573842   -0.17956988460055134   0.014900554846010383
3.1079028558573842   -0.17956988460055134   0.014900554846010383
1.4025069967316581   -0.26327299792005315   -0.16730958416080507
1.4025069967316581   -0.26327299792005315   -0.16730958416080507
1.4025069967316581   -0.26327299792005315   -0.16730958416080507
1.4025069967316581   -0.26327299792005315   -0.16730958416080507
3.2728129488956736   0.38387437245630673   0.2760067629806164
3.2728129488956736   0.38387437245630673   0.2760067629806164
3.2728129488956736   0.38387437245630673   0.2760067629806164
3.2728129488956736   0.38387437245630673   0.2760067629806164
-0.2491026912183366   -0.881021118476847   -0.1353500674597475
-0.2491026912183366   -0.881021118476847   -0.1353500674597475
-0.2491026912183366   -0.881021118476847   -0.1353500674597475
-0.2491026912183366   -0.881021118476847   -0.1353500674597475
0.03643520425280184   -0.20526654747059178   0.04915694040546841
0.03643520425280184   -0.20526654747059178   0.04915694040546841
0.03643520425280184   -0.20526654747059178   0.04915694040546841
0.03643520425280184   -0.20526654747059178   0.04915694040546841
3.24290464468246   -0.08631965944008646   -0.02614850897683324
3.24290464468246   -0.08631965944008646   -0.02614850897683324
3.24290464468246   -0.08631965944008646   -0.02614850897683324
3.24290464468246   -0.08631965944008646   -0.02614850897683324
1.5174851766561872   -0.18738401796379156   -0.10861114761839336
1.5174851766561872   -0.18738401796379156   -0.10861114761839336
1.5174851766561872   -0.18738401796379156   -0.10861114761839336
1.5174851766561872   -0.18738401796379156   -0.10861114761839336
3.416674354851844   0.5101883092117689   0.2461920732182298
3.416674354851844   0.5101883092117689   0.2461920732182298
3.416674354851844   0.5101883092117689   0.2461920732182298
3.416674354851844   0.5101883092117689   0.2461920732182298
-0.1306222141059716   -0.7950622243118395   -0.19633447454716646
-0.1306222141059716   -0.7950622243118395   -0.19633447454716646
-0.1306222141059716   -0.7950622243118395   -0.19633447454716646
-0.1306222141059716   -0.7950622243118395   -0.19633447454716646
0.14002866045757714   -0.06071516374005543   0.01780291693220108
0.14002866045757714   -0.06071516374005543   0.01780291693220108
0.14002866045757714   -0.06071516374005543   0.01780291693220108
0.14002866045757714   -0.06071516374005543   0.01780291693220108
3.344120221117263   0.03239599271285665   -0.06329139758264549
3.344120221117263   0.03239599271285665   -0.06329139758264549
3.344120221117263   0.03239599271285665   -0.06329139758264549
3.344120221117263   0.03239599271285665   -0.06329139758264549
1.65749732865939   -0.07400586525376368   -0.04585096141665493
1.65749732865939   -0.07400586525376368   -0.04585096141665493
1.65749732865939   -0.07400586525376368   -0.04585096141665493
1.65749732865939   -0.07400586525376368   -0.04585096141665493
-0.12844768690365738   0.07608580375609351   0.1545876468328488
-0.12844768690365738   0.07608580375609351   0.1545876468328488
-0.12844768690365738   0.07608580375609351   0.1545876468328488
-0.12844768690365738   0.07608580375609351   0.1545876468328488
-3.567645538037944   -1.1784678673431763   -0.07180916116744898
-3.567645538037944   -1.1784678673431763   -0.07180916116744898
-3.567645538037944   -1.1784678673431763   -0.07180916116744898
-3.567645538037944   -1.1784678673431763   -0.07180916116744898
-3.279162292396102   -0.5050449323362947   -0.07489549861887464
-3.279162292396102   -0.5050449323362947   -0.07489549861887464
-3.279162292396102   -0.5050449323362947   -0.07489549861887464
-3.279162292396102   -0.5050449323362947   -0.07489549861887464
-0.11457993403759015   -0.4130351467682691   0.06927774673540692
-0.11457993403759015   -0.4130351467682691   0.06927774673540692
-0.11457993403759015   -0.4130351467682691   0.06927774673540692
-0.11457993403759015   -0.4130351467682691   0.06927774673540692
-1.780682316967812   -0.4780695483339575   -0.14968623879740667
-1.780682316967812   -0.4780695483339575   -0.14968623879740667
-1.780682316967812   -0.4780695483339575   -0.14968623879740667
-1.780682316967812   -0.4780695483339575   -0.14968623879740667
0.0181600052199045   0.19448923846800314   0.12545305778660792
0.0181600052199045   0.19448923846800314   0.12545305778660792
0.0181600052199045   0.19448923846800314   0.12545305778660792
0.0181600052199045   0.19448923846800314   0.12545305778660792
-3.4036980795878007   -1.1043651655067712   -0.09825420140689316
-3.4036980795878007   -1.1043651655067712   -0.09825420140689316
-3.4036980795878007   -1.1043651655067712   -0.09825420140689316
-3.4036980795878007   -1.1043651655067712   -0.09825420140689316
-3.115472670838254   -0.367655747103721   -0.10221932248419323
-3.115472670838254   -0.367655747103721   -0.10221932248419323
-3.115472670838254   -0.367655747103721   -0.10221932248419323
-3.115472670838254   -0.367655747103721   -0.10221932248419323
0.008495612058868715   -0.32348448743822017   0.02767691940341585
0.008495612058868715   -0.32348448743822017   0.02767691940341585
0.008495612058868715   -0.32348448743822017   0.02767691940341585
0.008495612058868715   -0.32348448743822017   0.02767691940341585
-1.621781113904297   -0.3794149811170887   -0.0834076110228978
-1.621781113904297   -0.3794149811170887   -0.0834076110228978
-1.621781113904297   -0.3794149811170887   -0.0834076110228978
-1.621781113904297   -0.3794149811170887   -0.0834076110228978
0.15234760328132874   0.3258688748604444   0.09758351321705137
0.15234760328132874   0.3258688748604444   0.09758351321705137
0.15234760328132874   0.3258688748604444   0.09758351321705137
0.15234760328132874   0.3258688748604444   0.09758351321705137
-3.2595515810136497   -1.0172360283553576   -0.17303359210950758
-3.2595515810136497   -1.0172360283553576   -0.17303359210950758
-3.2595515810136497   -1.0172360283553576   -0.17303359210950758
-3.2595515810136497   -1.0172360283553576   -0.17303359210950758
-2.9998395639801108   -0.23681012582818994   -0.13282919083431186
-2.9998395639801108   -0.23681012582818994   -0.13282919083431186
-2.9998395639801108   -0.23681012582818994   -0.13282919083431186
-2.9998395639801108   -0.23681012582818994   -0.13282919083431186
0.08941548297419542   -0.25221970329667764   -0.04375843092810068
0.08941548297419542   -0.25221970329667764   -0.04375843092810068
0.08941548297419542   -0.25221970329667764   -0.04375843092810068
0.08941548297419542   -0.25221970329667764   -0.04375843092810068
-1.5051875861453516   -0.287555809142601   -0.042125525191459755
-1.5051875861453516   -0.287555809142601   -0.042125525191459755
-1.5051875861453516   -0.287555809142601   -0.042125525191459755
-1.5051875861453516   -0.287555809142601   -0.042125525191459755
-3.338620066254233   -0.099476335557381   -0.005673334034718092
-3.338620066254233   -0.099476335557381   -0.005673334034718092
-3.338620066254233   -0.099476335557381   -0.005673334034718092
-3.338620066254233   -0.099476335557381   -0.005673334034718092
-6.768476598266382   -1.266994798254025   -0.05822391060481916
-6.768476598266382   -1.266994798254025   -0.05822391060481916
-6.768476598266382   -1.266994798254025   -0.05822391060481916
-6.768476598266382   -1.266994798254025   -0.05822391060481916
-6.457695950368197   -0.6461522348399013   -0.22390914429789668
-6.457695950368197   -0.6461522348399013   -0.22390914429789668
-6.457695950368197   -0.6461522348399013   -0.22390914429789668
-6.457695950368197   -0.6461522348399013   -0.22390914429789668
-3.219380330711429   -0.4288067302485987   0.14777610771676955
-3.219380330711429   -0.4288067302485987   0.14777610771676955
-3.219380330711429   -0.4288067302485987   0.14777610771676955
-3.219380330711429   -0.4288067302485987   0.14777610771676955
-4.90246376764387   -0.5737614456419673   -0.1056311758766237
-4.90246376764387   -0.5737614456419673   -0.1056311758766237
-4.90246376764387   -0.5737614456419673   -0.1056311758766237
-4.90246376764387   -0.5737614456419673   -0.1056311758766237
-3.157811577672981   0.05330758090900334   -0.026494438248590685
-3.157811577672981   0.05330758090900334   -0.026494438248590685
-3.157811577672981   0.05330758090900334   -0.026494438248590685
-3.157811577672981   0.05330758090900334   -0.026494438248590685
-6.5221543745050194   -1.131156217095869   -0.06119728272599088
-6.5221543745050194   -1.131156217095869   -0.06119728272599088
-6.5221543745050194   -1.131156217095869   -0.06119728272599088
-6.5221543745050194   -1.131156217095869   -0.06119728272599088
-6.2239779128232335   -0.5024634838151386   -0.2594885982921321
-6.2239779128232335   -0.5024634838151386   -0.2594885982921321
-6.2239779128232335   -0.5024634838151386   -0.2594885982921321
-6.2239779128232335   -0.5024634838151386   -0.2594885982921321
-3.060213742287242   -0.32074677165616555   0.12716634482333966
-3.060213742287242   -0.32074677165616555   0.12716634482333966
-3.060213742287242   -0.32074677165616555   0.12716634482333966
-3.060213742287242   -0.32074677165616555   0.12716634482333966
-4.662722016560952   -0.43592318073656944   -0.035316580656015145
-4.662722016560952   -0.43592318073656944   -0.035316580656015145
-4.662722016560952   -0.43592318073656944   -0.035316580656015145
-4.662722016560952   -0.43592318073656944   -0.035316580656015145
-2.993683350596498   0.18608954551067214   -0.04701801388981372
-2.993683350596498   0.18608954551067214   -0.04701801388981372
-2.993683350596498   0.18608954551067214   -0.04701801388981372
-2.993683350596498   0.18608954551067214   -0.04701801388981372
-6.3020130806082255   -1.0208045770762215   -0.13132334395595668
-6.3020130806082255   -1.0208045770762215   -0.13132334395595668
-6.3020130806082255   -1.0208045770762215   -0.13132334395595668
-6.3020130806082255   -1.0208045770762215   -0.13132334395595668
-6.033890373534322   -0.3507484645820198   -0.2676431641760988
-6.033890373534322   -0.3507484645820198   -0.2676431641760988
-6.033890373534322   -0.3507484645820198   -0.2676431641760988
-6.033890373534322   -0.3507484645820198   -0.2676431641760988
-2.9686862384963604   -0.25204947609062633   0.03817678684689657
-2.9686862384963604   -0.25204947609062633   0.03817678684689657
-2.9686862384963604   -0.25204947609062633   0.03817678684689657
-2.9686862384963604   -0.25204947609062633   0.03817678684689657
-4.529233477473274   -0.35180171716714914   -0.012503177094236678
-4.529233477473274   -0.35180171716714914   -0.012503177094236678
-4.529233477473274   -0.35180171716714914   -0.012503177094236678
-4.529233477473274   -0.35180171716714914   -0.012503177094236678
-6.581862555535556   -0.22719706403446227   -0.16495143117025002
-6.581862555535556   -0.22719706403446227   -0.16495143117025002
-6.581862555535556   -0.22719706403446227   -0.16495143117025002
-6.581862555535556   -0.22719706403446227   -0.16495143117025002
-9.923605192595543   -0.8524469827511949   0.3798410099481359
-9.923605192595543   -0.8524469827511949   0.3798410099481359
-9.923605192595543   -0.8524469827511949   0.3798410099481359
-9.923605192595543   -0.8524469827511949   0.3798410099481359
-9.577528567024997   -0.6768184636179535   -0.21962827184444217
-9.577528567024997   -0.6768184636179535   -0.21962827184444217
-9.577528567024997   -0.6768184636179535   -0.21962827184444217
-9.577528567024997   -0.6768184636179535   -0.21962827184444217
-6.179006439690056   0.1752642445763346   0.348121929676515
-6.179006439690056   0.1752642445763346   0.348121929676515
-6.179006439690056   0.1752642445763346   0.348121929676515
-6.179006439690056   0.1752642445763346   0.348121929676515
-7.7051522413727005   -0.2687599731839747   0.03433267946164892
-7.7051522413727005   -0.2687599731839747   0.03433267946164892
-7.7051522413727005   -0.2687599731839747   0.03433267946164892
-7.7051522413727005   -0.2687599731839747   0.03433267946164892
-6.323978364714182   -0.018731215800369183   -0.18274223506733417
-6.323978364714182   -0.018731215800369183   -0.18274223506733417
-6.323978364714182   -0.018731215800369183   -0.18274223506733417
-6.323978364714182   -0.018731215800369183   -0.18274223506733417
-9.409156685882303   -0.45942304712266946   0.4048357173737416
-9.409156685882303   -0.45942304712266946   0.4048357173737416
-9.409156685882303   -0.45942304712266946   0.4048357173737416
-9.409156685882303   -0.45942304712266946   0.4048357173737416
-9.206593696033272   -0.5689325312106754   -0.26155237338952103
-9.206593696033272   -0.5689325312106754   -0.26155237338952103
-9.206593696033272   -0.5689325312106754   -0.26155237338952103
-9.206593696033272   -0.5689325312106754   -0.26155237338952103
-5.947654063535195   0.283110951204812   0.336556213128107
-5.947654063535195   0.283110951204812   0.336556213128107
-5.947654063535195   0.283110951204812   0.336556213128107
-5.947654063535195   0.283110951204812   0.336556213128107
-7.48391565819056   -0.10844631691633144   0.15276264836504144
-7.48391565819056   -0.10844631691633144   0.15276264836504144
-7.48391565819056   -0.10844631691633144   0.15276264836504144
-7.48391565819056   -0.10844631691633144   0.15276264836504144
-6.097880194301674   0.06568995492809404   -0.19715344442751565
-6.097880194301674   0.06568995492809404   -0.19715344442751565
-6.097880194301674   0.06568995492809404   -0.19715344442751565
-6.097880194301674   0.06568995492809404   -0.19715344442751565
-9.05178733759885   -0.346931307265977   0.29047819483781656
-9.05178733759885   -0.346931307265977   0.29047819483781656
-9.05178733759885   -0.346931307265977   0.29047819483781656
-9.05178733759885   -0.346931307265977   0.29047819483781656
-8.823212241103837   -0.466243840985918   -0.3159339558513877
-8.823212241103837   -0.466243840985918   -0.3159339558513877
-8.823212241103837   -0.466243840985918   -0.3159339558513877
-8.823212241103837   -0.466243840985918   -0.3159339558513877
-5.775356577655467   0.41342373215526607   0.2608536184808926
-5.775356577655467   0.41342373215526607   0.2608536184808926
-5.775356577655467   0.41342373215526607   0.2608536184808926
-5.775356577655467   0.41342373215526607   0.2608536184808926
-7.072974229429881   0.028883038806908568   0.27066121506407415
-7.072974229429881   0.028883038806908568   0.27066121506407415
-7.072974229429881   0.028883038806908568   0.27066121506407415
-7.072974229429881   0.028883038806908568   0.27066121506407415
8.774987246922484   0.5243586275981802   0.32061274943093654
8.774987246922484   0.5243586275981802   0.32061274943093654
8.774987246922484   0.5243586275981802   0.32061274943093654
8.774987246922484   0.5243586275981802   0.32061274943093654
4.187992640605541   -0.7872880842478716   0.07428848499168994
4.187992640605541   -0.7872880842478716   0.07428848499168994
4.187992640605541   -0.7872880842478716   0.07428848499168994
4.187992640605541   -0.7872880842478716   0.07428848499168994
4.421368307114977   -0.33041757366740887   0.24742410728415737
4.421368307114977   -0.33041757366740887   0.24742410728415737
4.421368307114977   -0.33041757366740887   0.24742410728415737
4.421368307114977   -0.33041757366740887   0.24742410728415737
8.822622923802992   0.06993792133221   -0.06919189963125394
8.822622923802992   0.06993792133221   -0.06919189963125394
8.822622923802992   0.06993792133221   -0.06919189963125394
8.822622923802992   0.06993792133221   -0.06919189963125394
6.172219806533374   -0.17057080499367605   -0.4118411476628121
6.172219806533374   -0.17057080499367605   -0.4118411476628121
6.172219806533374   -0.17057080499367605   -0.4118411476628121
6.172219806533374   -0.17057080499367605   -0.4118411476628121
8.99012439813505   0.5845829181266864   0.2536704752345604
8.99012439813505   0.5845829181266864   0.2536704752345604
8.99012439813505   0.5845829181266864   0.2536704752345604
8.99012439813505   0.5845829181266864   0.2536704752345604
4.294228436855539   -0.8047009663892646   0.0860081487088259
4.294228436855539   -0.8047009663892646   0.0860081487088259
4.294228436855539   -0.8047009663892646   0.0860081487088259
4.294228436855539   -0.8047009663892646   0.0860081487088259
4.510326776282797   -0.2806451165545034   0.1884708259203507
4.510326776282797   -0.2806451165545034   0.1884708259203507
4.510326776282797   -0.2806451165545034   0.1884708259203507
4.510326776282797   -0.2806451165545034   0.1884708259203507
8.978958968024536   0.1261480024998507   -0.019083327431095698
8.978958968024536   0.1261480024998507   -0.019083327431095698
8.978958968024536   0.1261480024998507   -0.019083327431095698
8.978958968024536   0.1261480024998507   -0.019083327431095698
6.428578923160884   -0.13525396999215045   -0.28085507000628795
6.428578923160884   -0.13525396999215045   -0.28085507000628795
6.428578923160884   -0.13525396999215045   -0.28085507000628795
6.428578923160884   -0.13525396999215045   -0.28085507000628795
9.120505604247336   0.6388800459090713   0.17591781027368458
9.120505604247336   0.6388800459090713   0.17591781027368458
9.120505604247336   0.6388800459090713   0.17591781027368458
9.120505604247336   0.6388800459090713   0.17591781027368458
4.3968617377187575   -0.7652955623049638   0.10579607885061154
4.3968617377187575   -0.7652955623049638   0.10579607885061154
4.3968617377187575   -0.7652955623049638   0.10579607885061154
4.3968617377187575   -0.7652955623049638   0.10579607885061154
4.640988871941794   -0.08659574935986858   0.1722839841677158
4.640988871941794   -0.08659574935986858   0.1722839841677158
4.640988871941794   -0.08659574935986858   0.1722839841677158
4.640988871941794   -0.08659574935986858   0.1722839841677158
9.141158667203518   0.2540167050536646   -0.0008584109657256422
9.141158667203518   0.2540167050536646   -0.0008584109657256422
9.141158667203518   0.2540167050536646   -0.0008584109657256422
9.141158667203518   0.2540167050536646   -0.0008584109657256422
6.461994731621635   -0.06341344697166962   -0.2092569279242728
6.461994731621635   -0.06341344697166962   -0.2092569279242728
6.461994731621635   -0.06341344697166962   -0.2092569279242728
6.461994731621635   -0.06341344697166962   -0.2092569279242728
4.418817663415683   0.10677335126395582   0.3343521635305716
4.418817663415683   0.10677335126395582   0.3343521635305716
4.418817663415683   0.10677335126395582   0.3343521635305716
4.418817663415683   0.10677335126395582   0.3343521635305716
0.2442827365328401   -1.5749934177116487   0.16405446923959538
0.2442827365328401   -1.5749934177116487   0.16405446923959538
0.2442827365328401   -1.5749934177116487   0.16405446923959538
0.2442827365328401   -1.5749934177116487   0.16405446923959538
0.5493692872973686   -0.6638768595943194   0.15189924843718555
0.5493692872973686   -0.6638768595943194   0.15189924843718555
0.5493692872973686   -0.6638768595943194   0.15189924843718555
0.5493692872973686   -0.6638768595943194   0.15189924843718555
4.30479612319923   -0.7674676536016929   0.10161326763966044
4.30479612319923   -0.7674676536016929   0.10161326763966044
4.30479612319923   -0.7674676536016929   0.10161326763966044
4.30479612319923   -0.7674676536016929   0.10161326763966044
2.3017354399594923   -0.7096532704614139   -0.2650446584770885
2.3017354399594923   -0.7096532704614139   -0.2650446584770885
2.3017354399594923   -0.7096532704614139   -0.2650446584770885
2.3017354399594923   -0.7096532704614139   -0.2650446584770885
4.525075535777752   0.156660896500333   0.278881780430309
4.525075535777752   0.156660896500333   0.278881780430309
4.525075535777752   0.156660896500333   0.278881780430309
4.525075535777752   0.156660896500333   0.278881780430309
0.38722026803933723   -1.5298750163758847   0.20715230892859388
0.38722026803933723   -1.5298750163758847   0.20715230892859388
0.38722026803933723   -1.5298750163758847   0.20715230892859388
0.38722026803933723   -1.5298750163758847   0.20715230892859388
0.6723703849525786   -0.5730906826007658   0.11053063494965176
0.6723703849525786   -0.5730906826007658   0.11053063494965176
0.6723703849525786   -0.5730906826007658   0.11053063494965176
0.6723703849525786   -0.5730906826007658   0.11053063494965176
4.409927679814524   -0.7202149696283231   0.1260451966528114
4.409927679814524   -0.7202149696283231   0.1260451966528114
4.409927679814524   -0.7202149696283231   0.1260451966528114
4.409927679814524   -0.7202149696283231   0.1260451966528114
2.406799238767766   -0.675131037272588   -0.13249274410073836
2.406799238767766   -0.675131037272588   -0.13249274410073836
2.406799238767766   -0.675131037272588   -0.13249274410073836
2.406799238767766   -0.675131037272588   -0.13249274410073836
4.624105836307953   0.24207873548225378   0.23464227400937493
4.624105836307953   0.24207873548225378   0.23464227400937493
4.624105836307953   0.24207873548225378   0.23464227400937493
4.624105836307953   0.24207873548225378   0.23464227400937493
0.5141477687018121   -1.4794288474686785   0.2257557185637467
0.5141477687018121   -1.4794288474686785   0.2257557185637467
0.5141477687018121   -1.4794288474686785   0.2257557185637467
0.5141477687018121   -1.4794288474686785   0.2257557185637467
0.8609323883510729   -0.43685991266930235   0.07361690827274989
0.8609323883510729   -0.43685991266930235   0.07361690827274989
0.8609323883510729   -0.43685991266930235   0.07361690827274989
0.8609323883510729   -0.43685991266930235   0.07361690827274989
4.525173639697253   -0.6482545817684453   0.15486665535361144
4.525173639697253   -0.6482545817684453   0.15486665535361144
4.525173639697253   -0.6482545817684453   0.15486665535361144
4.525173639697253   -0.6482545817684453   0.15486665535361144
2.589764363190591   -0.5911113369974813   0.0216241932756448
2.589764363190591   -0.5911113369974813   0.0216241932756448
2.589764363190591   -0.5911113369974813   0.0216241932756448
2.589764363190591   -0.5911113369974813   0.0216241932756448
0.5083627611954122   -0.3058434502457116   0.2153046250865189
0.5083627611954122   -0.3058434502457116   0.2153046250865189
0.5083627611954122   -0.3058434502457116   0.2153046250865189
0.5083627611954122   -0.3058434502457116   0.2153046250865189
-3.7337351851451106   -2.7104091322058164   0.23595628909606814
-3.7337351851451106   -2.7104091322058164   0.23595628909606814
-3.7337351851451106   -2.7104091322058164   0.23595628909606814
-3.7337351851451106   -2.7104091322058164   0.23595628909606814
-3.2505027838306932   -1.0506382015056706   0.017185322841502385
-3.2505027838306932   -1.0506382015056706   0.017185322841502385
-3.2505027838306932   -1.0506382015056706   0.017185322841502385
-3.2505027838306932   -1.0506382015056706   0.017185322841502385
0.27250578775466305   -1.9841607265807928   0.08786561771013124
0.27250578775466305   -1.9841607265807928   0.08786561771013124
0.27250578775466305   -1.9841607265807928   0.08786561771013124
0.27250578775466305   -1.9841607265807928   0.08786561771013124
-1.6004635080828695   -1.5237209866234598   -0.3181330173237468
-1.6004635080828695   -1.5237209866234598   -0.3181330173237468
-1.6004635080828695   -1.5237209866234598   -0.3181330173237468
-1.6004635080828695   -1.5237209866234598   -0.3181330173237468
0.6371553398018431   -0.2426275925620134   0.16958024392725207
0.6371553398018431   -0.2426275925620134   0.16958024392725207
0.6371553398018431   -0.2426275925620134   0.16958024392725207
0.6371553398018431   -0.2426275925620134   0.16958024392725207
-3.5313042193322186   -2.7083232189788307   0.270863162807068
-3.5313042193322186   -2.7083232189788307   0.270863162807068
-3.5313042193322186   -2.7083232189788307   0.270863162807068
-3.5313042193322186   -2.7083232189788307   0.270863162807068
-3.064162394290806   -0.9431732071229857   0.0018913273292628374
-3.064162394290806   -0.9431732071229857   0.0018913273292628374
-3.064162394290806   -0.9431732071229857   0.0018913273292628374
-3.064162394290806   -0.9431732071229857   0.0018913273292628374
0.40208283365582176   -1.941748024551626   0.12775022041674255
0.40208283365582176   -1.941748024551626   0.12775022041674255
0.40208283365582176   -1.941748024551626   0.12775022041674255
0.40208283365582176   -1.941748024551626   0.12775022041674255
-1.411975262889206   -1.472890379355287   -0.11934263704916215
-1.411975262889206   -1.472890379355287   -0.11934263704916215
-1.411975262889206   -1.472890379355287   -0.11934263704916215
-1.411975262889206   -1.472890379355287   -0.11934263704916215
0.7548924992602535   -0.15810865758430948   0.10815918147158454
0.7548924992602535   -0.15810865758430948   0.10815918147158454
0.7548924992602535   -0.15810865758430948   0.10815918147158454
0.7548924992602535   -0.15810865758430948   0.10815918147158454
-3.3410368538203574   -2.650877368015373   0.3252231905739399
-3.3410368538203574   -2.650877368015373   0.3252231905739399
-3.3410368538203574   -2.650877368015373   0.3252231905739399
-3.3410368538203574   -2.650877368015373   0.3252231905739399
-2.7567352266766916   -0.8192737314118702   -0.032877861853421564
-2.7567352266766916   -0.8192737314118702   -0.032877861853421564
-2.7567352266766916   -0.8192737314118702   -0.032877861853421564
-2.7567352266766916   -0.8192737314118702   -0.032877861853421564
0.6044271150064084   -1.8212222736985784   0.17545290257868906
0.6044271150064084   -1.8212222736985784   0.17545290257868906
0.6044271150064084   -1.8212222736985784   0.17545290257868906
0.6044271150064084   -1.8212222736985784   0.17545290257868906
-1.16708927026784   -1.3572882059409546   0.08943836709275299
-1.16708927026784   -1.3572882059409546   0.08943836709275299
-1.16708927026784   -1.3572882059409546   0.08943836709275299
-1.16708927026784   -1.3572882059409546   0.08943836709275299
-3.3276721229621207   -0.5466805229259778   0.10254299073115544
-3.3276721229621207   -0.5466805229259778   0.10254299073115544
-3.3276721229621207   -0.5466805229259778   0.10254299073115544
-3.3276721229621207   -0.5466805229259778   0.10254299073115544
-8.330780469740136   -4.226280347764687   -0.2042232451454863
-8.330780469740136   -4.226280347764687   -0.2042232451454863
-8.330780469740136   -4.226280347764687   -0.2042232451454863
-8.330780469740136   -4.226280347764687   -0.2042232451454863
-7.532348744139379   -1.3671619901075682   -0.2310317781501273
-7.532348744139379   -1.3671619901075682   -0.2310317781501273
-7.532348744139379   -1.3671619901075682   -0.2310317781501273
-7.532348744139379   -1.3671619901075682   -0.2310317781501273
-3.738492419084751   -3.5420731030697943   0.06867204813533845
-3.738492419084751   -3.5420731030697943   0.06867204813533845
-3.738492419084751   -3.5420731030697943   0.06867204813533845
-3.738492419084751   -3.5420731030697943   0.06867204813533845
-5.725653452820756   -2.499328867465924   -0.33364331915878914
-5.725653452820756   -2.499328867465924   -0.33364331915878914
-5.725653452820756   -2.499328867465924   -0.33364331915878914
-5.725653452820756   -2.499328867465924   -0.33364331915878914
-3.1073267417858563   -0.41622147307902935   0.09864880463904405
-3.1073267417858563   -0.41622147307902935   0.09864880463904405
-3.1073267417858563   -0.41622147307902935   0.09864880463904405
-3.1073267417858563   -0.41622147307902935   0.09864880463904405
-8.145642456615143   -4.475141655275203   -0.18952067536131278
-8.145642456615143   -4.475141655275203   -0.18952067536131278
-8.145642456615143   -4.475141655275203   -0.18952067536131278
-8.145642456615143   -4.475141655275203   -0.18952067536131278
-7.284898041076149   -1.238145682190493   -0.23514390905914478
-7.284898041076149   -1.238145682190493   -0.23514390905914478
-7.284898041076149   -1.238145682190493   -0.23514390905914478
-7.284898041076149   -1.238145682190493   -0.23514390905914478
-3.5582569220775078   -3.5157431539841535   0.10398863525694568
-3.5582569220775078   -3.5157431539841535   0.10398863525694568
-3.5582569220775078   -3.5157431539841535   0.10398863525694568
-3.5582569220775078   -3.5157431539841535   0.10398863525694568
-5.466931406743155   -2.4335380115651812   -0.2365712020814849
-5.466931406743155   -2.4335380115651812   -0.2365712020814849
-5.466931406743155   -2.4335380115651812   -0.2365712020814849
-5.466931406743155   -2.4335380115651812   -0.2365712020814849
-2.9320659543687206   -0.31392534922819687   0.033125669044907366
-2.9320659543687206   -0.31392534922819687   0.033125669044907366
-2.9320659543687206   -0.31392534922819687   0.033125669044907366
-2.9320659543687206   -0.31392534922819687   0.033125669044907366
-7.911628142750755   -4.4405026209123015   -0.1664374787102999
-7.911628142750755   -4.4405026209123015   -0.1664374787102999
-7.911628142750755   -4.4405026209123015   -0.1664374787102999
-7.911628142750755   -4.4405026209123015   -0.1664374787102999
-6.899442799568581   -1.0991310626468822   -0.26647458486216286
-6.899442799568581   -1.0991310626468822   -0.26647458486216286
-6.899442799568581   -1.0991310626468822   -0.26647458486216286
-6.899442799568581   -1.0991310626468822   -0.26647458486216286
-3.1684092202632383   -3.167038126738679   0.25651656554069957
-3.1684092202632383   -3.167038126738679   0.25651656554069957
-3.1684092202632383   -3.167038126738679   0.25651656554069957
-3.1684092202632383   -3.167038126738679   0.25651656554069957
-5.177505092080513   -2.209077467458015   -0.13476427146595293
-5.177505092080513   -2.209077467458015   -0.13476427146595293
-5.177505092080513   -2.209077467458015   -0.13476427146595293
-5.177505092080513   -2.209077467458015   -0.13476427146595293
-7.54820632837635   -0.46405165759602585   -0.05358122849521291
-7.54820632837635   -0.46405165759602585   -0.05358122849521291
-7.54820632837635   -0.46405165759602585   -0.05358122849521291
-7.54820632837635   -0.46405165759602585   -0.05358122849521291
-13.345270433961495   -2.641897101843978   0.1357849247416052
-13.345270433961495   -2.641897101843978   0.1357849247416052
-13.345270433961495   -2.641897101843978   0.1357849247416052
-13.345270433961495   -2.641897101843978   0.1357849247416052
-12.816282440354437   -1.2786003646900794   -0.2839251159914197
-12.816282440354437   -1.2786003646900794   -0.2839251159914197
-12.816282440354437   -1.2786003646900794   -0.2839251159914197
-12.816282440354437   -1.2786003646900794   -0.2839251159914197
-7.373236400998843   -1.3626447422589862   0.5600126897039126
-7.373236400998843   -1.3626447422589862   0.5600126897039126
-7.373236400998843   -1.3626447422589862   0.5600126897039126
-7.373236400998843   -1.3626447422589862   0.5600126897039126
-9.85413059110967   -1.5343992135544005   0.1443037281488303
-9.85413059110967   -1.5343992135544005   0.1443037281488303
-9.85413059110967   -1.5343992135544005   0.1443037281488303
-9.85413059110967   -1.5343992135544005   0.1443037281488303
-7.233314994382795   -0.10485571349368916   0.0018306940188900223
-7.233314994382795   -0.10485571349368916   0.0018306940188900223
-7.233314994382795   -0.10485571349368916   0.0018306940188900223
-7.233314994382795   -0.10485571349368916   0.0018306940188900223
-13.007280528767597   -2.5874660752525007   0.06995015250509162
-13.007280528767597   -2.5874660752525007   0.06995015250509162
-13.007280528767597   -2.5874660752525007   0.06995015250509162
-13.007280528767597   -2.5874660752525007   0.06995015250509162
-12.522779398652018   -1.1712772933284437   -0.3602596744213502
-12.522779398652018   -1.1712772933284437   -0.3602596744213502
-12.522779398652018   -1.1712772933284437   -0.3602596744213502
-12.522779398652018   -1.1712772933284437   -0.3602596744213502
-7.118423428968938   -1.293223326613743   0.6523067959002231
-7.118423428968938   -1.293223326613743   0.6523067959002231
-7.118423428968938   -1.293223326613743   0.6523067959002231
-7.118423428968938   -1.293223326613743   0.6523067959002231
-9.697430097381835   -1.2628777572826677   0.13801009091391145
-9.697430097381835   -1.2628777572826677   0.13801009091391145
-9.697430097381835   -1.2628777572826677   0.13801009091391145
-9.697430097381835   -1.2628777572826677   0.13801009091391145
-7.0062193840104925   -0.009910513916772778   -0.06998579200452038
-7.0062193840104925   -0.009910513916772778   -0.06998579200452038
-7.0062193840104925   -0.009910513916772778   -0.06998579200452038
-7.0062193840104925   -0.009910513916772778   -0.06998579200452038
-12.654354990057149   -2.4739616524721173   0.2845467276965623
-12.654354990057149   -2.4739616524721173   0.2845467276965623
-12.654354990057149   -2.4739616524721173   0.2845467276965623
-12.654354990057149   -2.4739616524721173   0.2845467276965623
-11.913512067781726   -0.9467439453284126   -0.4018292788112411
-11.913512067781726   -0.9467439453284126   -0.4018292788112411
-11.913512067781726   -0.9467439453284126   -0.4018292788112411
-11.913512067781726   -0.9467439453284126   -0.4018292788112411
-6.722582779512449   -1.2006480544567968   0.7193425072284652
-6.722582779512449   -1.2006480544567968   0.7193425072284652
-6.722582779512449   -1.2006480544567968   0.7193425072284652
-6.722582779512449   -1.2006480544567968   0.7193425072284652
-9.111535222571385   -0.9648621569623219   0.2799234023359979
-9.111535222571385   -0.9648621569623219   0.2799234023359979
-9.111535222571385   -0.9648621569623219   0.2799234023359979
-9.111535222571385   -0.9648621569623219   0.2799234023359979
9.610753959258492   0.30968315325318896   0.136383353844042
9.610753959258492   0.30968315325318896   0.136383353844042
9.610753959258492   0.30968315325318896   0.136383353844042
9.610753959258492   0.30968315325318896   0.136383353844042
4.915214408905913   -0.25559439997254607   0.10251268028823013
4.915214408905913   -0.25559439997254607   0.10251268028823013
4.915214408905913   -0.25559439997254607   0.10251268028823013
4.915214408905913   -0.25559439997254607   0.10251268028823013
4.7206516496597235   -0.6968358050414298   0.1989107426438147
4.7206516496597235   -0.6968358050414298   0.1989107426438147
4.7206516496597235   -0.6968358050414298   0.1989107426438147
4.7206516496597235   -0.6968358050414298   0.1989107426438147
9.540664871634686   0.5379248643913281   0.07497450347494827
9.540664871634686   0.5379248643913281   0.07497450347494827
9.540664871634686   0.5379248643913281   0.07497450347494827
9.540664871634686   0.5379248643913281   0.07497450347494827
6.813207524699526   -0.09813249365621401   -0.2511184683163024
6.813207524699526   -0.09813249365621401   -0.2511184683163024
6.813207524699526   -0.09813249365621401   -0.2511184683163024
6.813207524699526   -0.09813249365621401   -0.2511184683163024
9.486524163113225   0.23749642847691899   0.10469939678205575
9.486524163113225   0.23749642847691899   0.10469939678205575
9.486524163113225   0.23749642847691899   0.10469939678205575
9.486524163113225   0.23749642847691899   0.10469939678205575
4.758730165215581   -0.41246956209262353   0.10493707747429537
4.758730165215581   -0.41246956209262353   0.10493707747429537
4.758730165215581   -0.41246956209262353   0.10493707747429537
4.758730165215581   -0.41246956209262353   0.10493707747429537
4.5969992936657285   -0.713465379391613   0.16480943747039406
4.5969992936657285   -0.713465379391613   0.16480943747039406
4.5969992936657285   -0.713465379391613   0.16480943747039406
4.5969992936657285   -0.713465379391613   0.16480943747039406
9.427326466736615   0.514001782512135   0.12835299279842116
9.427326466736615   0.514001782512135   0.12835299279842116
9.427326466736615   0.514001782512135   0.12835299279842116
9.427326466736615   0.514001782512135   0.12835299279842116
6.790968146186023   -0.1354727075161435   -0.2919463341290743
6.790968146186023   -0.1354727075161435   -0.2919463341290743
6.790968146186023   -0.1354727075161435   -0.2919463341290743
6.790968146186023   -0.1354727075161435   -0.2919463341290743
9.347139287683909   0.20990375660611282   0.03151512344084223
9.347139287683909   0.20990375660611282   0.03151512344084223
9.347139287683909   0.20990375660611282   0.03151512344084223
9.347139287683909   0.20990375660611282   0.03151512344084223
4.648517341849643   -0.4380364843543938   0.14697078335274916
4.648517341849643   -0.4380364843543938   0.14697078335274916
4.648517341849643   -0.4380364843543938   0.14697078335274916
4.648517341849643   -0.4380364843543938   0.14697078335274916
4.466298642954838   -0.6523282324282946   0.1422769258731586
4.466298642954838   -0.6523282324282946   0.1422769258731586
4.466298642954838   -0.6523282324282946   0.1422769258731586
4.466298642954838   -0.6523282324282946   0.1422769258731586
9.252389268516117   0.5180638091717538   0.18346984380955045
9.252389268516117   0.5180638091717538   0.18346984380955045
9.252389268516117   0.5180638091717538   0.18346984380955045
9.252389268516117   0.5180638091717538   0.18346984380955045
6.533968794532965   -0.13719449556751306   -0.39529499763381243
6.533968794532965   -0.13719449556751306   -0.39529499763381243
6.533968794532965   -0.13719449556751306   -0.39529499763381243
6.533968794532965   -0.13719449556751306   -0.39529499763381243
4.866891590618092   -0.6351847524726686   0.24048894134924376
4.866891590618092   -0.6351847524726686   0.24048894134924376
4.866891590618092   -0.6351847524726686   0.24048894134924376
4.866891590618092   -0.6351847524726686   0.24048894134924376
0.9644591579917168   -0.5799469802095067   0.05386670515439404
0.9644591579917168   -0.5799469802095067   0.05386670515439404
0.9644591579917168   -0.5799469802095067   0.05386670515439404
0.9644591579917168   -0.5799469802095067   0.05386670515439404
0.6291569628511746   -1.4705338954063727   0.2619212189643176
0.6291569628511746   -1.4705338954063727   0.2619212189643176
0.6291569628511746   -1.4705338954063727   0.2619212189643176
0.6291569628511746   -1.4705338954063727   0.2619212189643176
4.894458940943822   0.18469243944379676   0.1864189545790803
4.894458940943822   0.18469243944379676   0.1864189545790803
4.894458940943822   0.18469243944379676   0.1864189545790803
4.894458940943822   0.18469243944379676   0.1864189545790803
2.7952010424715326   -0.6277069920854673   -0.01034473520154916
2.7952010424715326   -0.6277069920854673   -0.01034473520154916
2.7952010424715326   -0.6277069920854673   -0.01034473520154916
2.7952010424715326   -0.6277069920854673   -0.01034473520154916
4.72786104761197   -0.6629607806452957   0.20108270800890599
4.72786104761197   -0.6629607806452957   0.20108270800890599
4.72786104761197   -0.6629607806452957   0.20108270800890599
4.72786104761197   -0.6629607806452957   0.20108270800890599
0.7537241940989724   -0.6649113374013353   0.07913481719826976
0.7537241940989724   -0.6649113374013353   0.07913481719826976
0.7537241940989724   -0.6649113374013353   0.07913481719826976
0.7537241940989724   -0.6649113374013353   0.07913481719826976
0.47929170903589186   -1.4846280031604122   0.2346159997709994
0.47929170903589186   -1.4846280031604122   0.2346159997709994
0.47929170903589186   -1.4846280031604122   0.2346159997709994
0.47929170903589186   -1.4846280031604122   0.2346159997709994
4.780388332380322   0.1471055236049823   0.22118372804676473
4.780388332380322   0.1471055236049823   0.22118372804676473
4.780388332380322   0.1471055236049823   0.22118372804676473
4.780388332380322   0.1471055236049823   0.22118372804676473
2.591962413066965   -0.6693437293726134   -0.13497500029119353
2.591962413066965   -0.6693437293726134   -0.13497500029119353
2.591962413066965   -0.6693437293726134   -0.13497500029119353
2.591962413066965   -0.6693437293726134   -0.13497500029119353
4.605276451957201   -0.6731735705193138   0.1659034200554274
4.605276451957201   -0.6731735705193138   0.1659034200554274
4.605276451957201   -0.6731735705193138   0.1659034200554274
4.605276451957201   -0.6731735705193138   0.1659034200554274
0.6087645984398302   -0.7099879000553442   0.10734034368562373
0.6087645984398302   -0.7099879000553442   0.10734034368562373
0.6087645984398302   -0.7099879000553442   0.10734034368562373
0.6087645984398302   -0.7099879000553442   0.10734034368562373
0.3115088706850554   -1.4851438801570633   0.1840849324227184
0.3115088706850554   -1.4851438801570633   0.1840849324227184
0.3115088706850554   -1.4851438801570633   0.1840849324227184
0.3115088706850554   -1.4851438801570633   0.1840849324227184
4.650932864408662   0.14838217998214165   0.26473762073185686
4.650932864408662   0.14838217998214165   0.26473762073185686
4.650932864408662   0.14838217998214165   0.26473762073185686
4.650932864408662   0.14838217998214165   0.26473762073185686
2.4672255651044774   -0.665225944463258   -0.2412489967363371
2.4672255651044774   -0.665225944463258   -0.2412489967363371
2.4672255651044774   -0.665225944463258   -0.2412489967363371
2.4672255651044774   -0.665225944463258   -0.2412489967363371
0.7494566956917517   -1.8176504426405378   0.21655785608559996
0.7494566956917517   -1.8176504426405378   0.21655785608559996
0.7494566956917517   -1.8176504426405378   0.21655785608559996
0.7494566956917517   -1.8176504426405378   0.21655785608559996
-2.832196139932936   -0.9027088316533775   0.005238138792930058
-2.832196139932936   -0.9027088316533775   0.005238138792930058
-2.832196139932936   -0.9027088316533775   0.005238138792930058
-2.832196139932936   -0.9027088316533775   0.005238138792930058
-3.438831188218272   -2.683955689930141   0.300227776936571
-3.438831188218272   -2.683955689930141   0.300227776936571
-3.438831188218272   -2.683955689930141   0.300227776936571
-3.438831188218272   -2.683955689930141   0.300227776936571
0.8622349026240383   -0.1605285230837588   0.11730554550600791
0.8622349026240383   -0.1605285230837588   0.11730554550600791
0.8622349026240383   -0.1605285230837588   0.11730554550600791
0.8622349026240383   -0.1605285230837588   0.11730554550600791
-1.1488691276125174   -1.371689455932223   0.05113381839290759
-1.1488691276125174   -1.371689455932223   0.05113381839290759
-1.1488691276125174   -1.371689455932223   0.05113381839290759
-1.1488691276125174   -1.371689455932223   0.05113381839290759
0.5174906231890262   -1.9217714649887547   0.15482709023595764
0.5174906231890262   -1.9217714649887547   0.15482709023595764
0.5174906231890262   -1.9217714649887547   0.15482709023595764
0.5174906231890262   -1.9217714649887547   0.15482709023595764
-3.1527203175860685   -0.9813461568279152   0.028172596995333088
-3.1527203175860685   -0.9813461568279152   0.028172596995333088
-3.1527203175860685   -0.9813461568279152   0.028172596995333088
-3.1527203175860685   -0.9813461568279152   0.028172596995333088
-3.6479107599345464   -2.7285994663088804   0.2434866052205925
-3.6479107599345464   -2.7285994663088804   0.2434866052205925
-3.6479107599345464   -2.7285994663088804   0.2434866052205925
-3.6479107599345464   -2.7285994663088804   0.2434866052205925
0.7218924724389293   -0.20229910560062755   0.16529091922640268
0.7218924724389293   -0.20229910560062755   0.16529091922640268
0.7218924724389293   -0.20229910560062755   0.16529091922640268
0.7218924724389293   -0.20229910560062755   0.16529091922640268
-1.4099575712614227   -1.4559677111370222   -0.12347965722291487
-1.4099575712614227   -1.4559677111370222   -0.12347965722291487
-1.4099575712614227   -1.4559677111370222   -0.12347965722291487
-1.4099575712614227   -1.4559677111370222   -0.12347965722291487
0.35785381605725763   -1.9563201381759625   0.09911866989337903
0.35785381605725763   -1.9563201381759625   0.09911866989337903
0.35785381605725763   -1.9563201381759625   0.09911866989337903
0.35785381605725763   -1.9563201381759625   0.09911866989337903
-3.3533374499846755   -1.0440437801653526   0.0317974688263816
-3.3533374499846755   -1.0440437801653526   0.0317974688263816
-3.3533374499846755   -1.0440437801653526   0.0317974688263816
-3.3533374499846755   -1.0440437801653526   0.0317974688263816
-3.8741052402769807   -2.7106899248894334   0.20664700190780316
-3.8741052402769807   -2.7106899248894334   0.20664700190780316
-3.8741052402769807   -2.7106899248894334   0.20664700190780316
-3.8741052402769807   -2.7106899248894334   0.20664700190780316
0.5656502573282652   -0.22588922499389633   0.19553721047560033
0.5656502573282652   -0.22588922499389633   0.19553721047560033
0.5656502573282652   -0.22588922499389633   0.19553721047560033
0.5656502573282652   -0.22588922499389633   0.19553721047560033
-1.621491844030937   -1.4883652686450375   -0.2973036468556773
-1.621491844030937   -1.4883652686450375   -0.2973036468556773
-1.621491844030937   -1.4883652686450375   -0.2973036468556773
-1.621491844030937   -1.4883652686450375   -0.2973036468556773
-3.22369512712909   -3.1125097966513486   0.25754416781016265
-3.22369512712909   -3.1125097966513486   0.25754416781016265
-3.22369512712909   -3.1125097966513486   0.25754416781016265
-3.22369512712909   -3.1125097966513486   0.25754416781016265
-7.15864306974434   -1.124744874254383   -0.1672536882885058
-7.15864306974434   -1.124744874254383   -0.1672536882885058
-7.15864306974434   -1.124744874254383   -0.1672536882885058
-7.15864306974434   -1.124744874254383   -0.1672536882885058
-8.217955105645592   -4.498937990170582   -0.23618970080775603
-8.217955105645592   -4.498937990170582   -0.23618970080775603
-8.217955105645592   -4.498937990170582   -0.23618970080775603
-8.217955105645592   -4.498937990170582   -0.23618970080775603
-2.9939003396903257   -0.2604272796049971   0.10135360925112816
-2.9939003396903257   -0.2604272796049971   0.10135360925112816
-2.9939003396903257   -0.2604272796049971   0.10135360925112816
-2.9939003396903257   -0.2604272796049971   0.10135360925112816
-5.347345172148554   -2.163458691663427   -0.1901230677132147
-5.347345172148554   -2.163458691663427   -0.1901230677132147
-5.347345172148554   -2.163458691663427   -0.1901230677132147
-5.347345172148554   -2.163458691663427   -0.1901230677132147
-3.649350778024684   -3.521036964074979   0.08471110204934829
-3.649350778024684   -3.521036964074979   0.08471110204934829
-3.649350778024684   -3.521036964074979   0.08471110204934829
-3.649350778024684   -3.521036964074979   0.08471110204934829
-7.545041249181194   -1.2208648875705554   -0.1496935210857939
-7.545041249181194   -1.2208648875705554   -0.1496935210857939
-7.545041249181194   -1.2208648875705554   -0.1496935210857939
-7.545041249181194   -1.2208648875705554   -0.1496935210857939
-8.466275824932271   -4.572779651250505   -0.2731749482197988
-8.466275824932271   -4.572779651250505   -0.2731749482197988
-8.466275824932271   -4.572779651250505   -0.2731749482197988
-8.466275824932271   -4.572779651250505   -0.2731749482197988
-3.1861893579715055   -0.32854489296412615   0.15203904169100346
-3.1861893579715055   -0.32854489296412615   0.15203904169100346
-3.1861893579715055   -0.32854489296412615   0.15203904169100346
-3.1861893579715055   -0.32854489296412615   0.15203904169100346
-5.6503866590955445   -2.395328122231769   -0.26567109858220284
-5.6503866590955445   -2.395328122231769   -0.26567109858220284
-5.6503866590955445   -2.395328122231769   -0.26567109858220284
-5.6503866590955445   -2.395328122231769   -0.26567109858220284
-3.862454503485135   -3.5907889275711016   0.03295734872983258
-3.862454503485135   -3.5907889275711016   0.03295734872983258
-3.862454503485135   -3.5907889275711016   0.03295734872983258
-3.862454503485135   -3.5907889275711016   0.03295734872983258
-7.789951348872878   -1.3104762860977346   -0.15385593307566547
-7.789951348872878   -1.3104762860977346   -0.15385593307566547
-7.789951348872878   -1.3104762860977346   -0.15385593307566547
-7.789951348872878   -1.3104762860977346   -0.15385593307566547
-8.67852575589916   -4.381987544172404   -0.3081139859920017
-8.67852575589916   -4.381987544172404   -0.3081139859920017
-8.67852575589916   -4.381987544172404   -0.3081139859920017
-8.67852575589916   -4.381987544172404   -0.3081139859920017
-3.4301399932519665   -0.42455200338550986   0.140335315528892
-3.4301399932519665   -0.42455200338550986   0.140335315528892
-3.4301399932519665   -0.42455200338550986   0.140335315528892
-3.4301399932519665   -0.42455200338550986   0.140335315528892
-5.928595822252064   -2.4750278009697544   -0.33714607197877683
-5.928595822252064   -2.4750278009697544   -0.33714607197877683
-5.928595822252064   -2.4750278009697544   -0.33714607197877683
-5.928595822252064   -2.4750278009697544   -0.33714607197877683
-7.02605125294097   -1.275848455244519   0.6468089767183745
-7.02605125294097   -1.275848455244519   0.6468089767183745
-7.02605125294097   -1.275848455244519   0.6468089767183745
-7.02605125294097   -1.275848455244519   0.6468089767183745
-12.410381352791207   -0.9330866114597356   -0.22455807880880674
-12.410381352791207   -0.9330866114597356   -0.22455807880880674
-12.410381352791207   -0.9330866114597356   -0.22455807880880674
-12.410381352791207   -0.9330866114597356   -0.22455807880880674
-13.176479760964291   -2.5996994335946773   0.1779825929909058
-13.176479760964291   -2.5996994335946773   0.1779825929909058
-13.176479760964291   -2.5996994335946773   0.1779825929909058
-13.176479760964291   -2.5996994335946773   0.1779825929909058
-7.2384413028265655   0.10058806930900155   0.06185325380772316
-7.2384413028265655   0.10058806930900155   0.06185325380772316
-7.2384413028265655   0.10058806930900155   0.06185325380772316
-7.2384413028265655   0.10058806930900155   0.06185325380772316
-9.48830164114081   -0.9135121026549937   0.19161576971984218
-9.48830164114081   -0.9135121026549937   0.19161576971984218
-9.48830164114081   -0.9135121026549937   0.19161576971984218
-9.48830164114081   -0.9135121026549937   0.19161576971984218
-7.430300589661908   -1.3711926167869866   0.5743375057269744
-7.430300589661908   -1.3711926167869866   0.5743375057269744
-7.430300589661908   -1.3711926167869866   0.5743375057269744
-7.430300589661908   -1.3711926167869866   0.5743375057269744
-12.950361793585765   -1.0936600669554892   -0.19746693675553134
-12.950361793585765   -1.0936600669554892   -0.19746693675553134
-12.950361793585765   -1.0936600669554892   -0.19746693675553134
-12.950361793585765   -1.0936600669554892   -0.19746693675553134
-13.504080065219199   -2.7116659593654013   -0.05424973160780899
-13.504080065219199   -2.7116659593654013   -0.05424973160780899
-13.504080065219199   -2.7116659593654013   -0.05424973160780899
-13.504080065219199   -2.7116659593654013   -0.05424973160780899
-7.469235935561754   0.024670273525017494   0.11457457385720571
-7.469235935561754   0.024670273525017494   0.11457457385720571
-7.469235935561754   0.024670273525017494   0.11457457385720571
-7.469235935561754   0.024670273525017494   0.11457457385720571
-10.061864375147334   -1.207323129206889   0.07980664258592504
-10.061864375147334   -1.207323129206889   0.07980664258592504
-10.061864375147334   -1.207323129206889   0.07980664258592504
-10.061864375147334   -1.207323129206889   0.07980664258592504
-7.690097485036246   -1.4425267308377465   0.47746383084751276
-7.690097485036246   -1.4425267308377465   0.47746383084751276
-7.690097485036246   -1.4425267308377465   0.47746383084751276
-7.690097485036246   -1.4425267308377465   0.47746383084751276
-13.215215143366493   -1.1764655826243846   -0.14512549908506722
-13.215215143366493   -1.1764655826243846   -0.14512549908506722
-13.215215143366493   -1.1764655826243846   -0.14512549908506722
-13.215215143366493   -1.1764655826243846   -0.14512549908506722
-13.791626890353534   -2.7582796275462136   0.0002287526224660219
-13.791626890353534   -2.7582796275462136   0.0002287526224660219
-13.791626890353534   -2.7582796275462136   0.0002287526224660219
-13.791626890353534   -2.7582796275462136   0.0002287526224660219
-7.792815753602391   -0.3076816348987852   0.04613011621822477
-7.792815753602391   -0.3076816348987852   0.04613011621822477
-7.792815753602391   -0.3076816348987852   0.04613011621822477
-7.792815753602391   -0.3076816348987852   0.04613011621822477
-10.188505562890748   -1.460308078572671   0.1262874854449573
-10.188505562890748   -1.460308078572671   0.1262874854449573
-10.188505562890748   -1.460308078572671   0.1262874854449573
-10.188505562890748   -1.460308078572671   0.1262874854449573
8.394983284179467   0.3828202933808815   -0.18518272821818493
8.394983284179467   0.3828202933808815   -0.18518272821818493
8.394983284179467   0.3828202933808815   -0.18518272821818493
8.394983284179467   0.3828202933808815   -0.18518272821818493
4.232090384383181   -0.08114592673209908   0.09229632467055121
4.232090384383181   -0.08114592673209908   0.09229632467055121
4.232090384383181   -0.08114592673209908   0.09229632467055121
4.232090384383181   -0.08114592673209908   0.09229632467055121
3.9593977391849124   -0.625864393256154   -0.1627046523126886
3.9593977391849124   -0.625864393256154   -0.1627046523126886
3.9593977391849124   -0.625864393256154   -0.1627046523126886
3.9593977391849124   -0.625864393256154   -0.1627046523126886
8.29682076857   0.6077836116497204   0.10798631397219816
8.29682076857   0.6077836116497204   0.10798631397219816
8.29682076857   0.6077836116497204   0.10798631397219816
8.29682076857   0.6077836116497204   0.10798631397219816
5.894698262456637   0.014379530646062122   -0.22780572518653824
5.894698262456637   0.014379530646062122   -0.22780572518653824
5.894698262456637   0.014379530646062122   -0.22780572518653824
5.894698262456637   0.014379530646062122   -0.22780572518653824
8.158208740583467   0.20915057885329946   -0.18644079316397533
8.158208740583467   0.20915057885329946   -0.18644079316397533
8.158208740583467   0.20915057885329946   -0.18644079316397533
8.158208740583467   0.20915057885329946   -0.18644079316397533
4.0902130474275245   -0.2350280802036504   0.10053557584782047
4.0902130474275245   -0.2350280802036504   0.10053557584782047
4.0902130474275245   -0.2350280802036504   0.10053557584782047
4.0902130474275245   -0.2350280802036504   0.10053557584782047
3.8127152436952554   -0.6614015203521054   -0.13405229848166605
3.8127152436952554   -0.6614015203521054   -0.13405229848166605
3.8127152436952554   -0.6614015203521054   -0.13405229848166605
3.8127152436952554   -0.6614015203521054   -0.13405229848166605
8.092764613531562   0.5576588768015498   0.15709388007683384
8.092764613531562   0.5576588768015498   0.15709388007683384
8.092764613531562   0.5576588768015498   0.15709388007683384
8.092764613531562   0.5576588768015498   0.15709388007683384
5.813006866777027   -0.060102479528427066   -0.2730745018964049
5.813006866777027   -0.060102479528427066   -0.2730745018964049
5.813006866777027   -0.060102479528427066   -0.2730745018964049
5.813006866777027   -0.060102479528427066   -0.2730745018964049
7.953194824305734   0.1640713480134368   -0.14716753726418952
7.953194824305734   0.1640713480134368   -0.14716753726418952
7.953194824305734   0.1640713480134368   -0.14716753726418952
7.953194824305734   0.1640713480134368   -0.14716753726418952
3.9415840692965496   -0.2785149551885664   0.1274052643612656
3.9415840692965496   -0.2785149551885664   0.1274052643612656
3.9415840692965496   -0.2785149551885664   0.1274052643612656
3.9415840692965496   -0.2785149551885664   0.1274052643612656
3.6704238732185464   -0.653366001406447   -0.09171381378388088
3.6704238732185464   -0.653366001406447   -0.09171381378388088
3.6704238732185464   -0.653366001406447   -0.09171381378388088
3.6704238732185464   -0.653366001406447   -0.09171381378388088
7.83989433837535   0.5222680457449986   0.20367969783916284
7.83989433837535   0.5222680457449986   0.20367969783916284
7.83989433837535   0.5222680457449986   0.20367969783916284
7.83989433837535   0.5222680457449986   0.20367969783916284
5.522769865793422   -0.10518599357849534   -0.35940033942727617
5.522769865793422   -0.10518599357849534   -0.35940033942727617
5.522769865793422   -0.10518599357849534   -0.35940033942727617
5.522769865793422   -0.10518599357849534   -0.35940033942727617
4.2517827069013405   0.07388899220615008   0.03572301832305472
4.2517827069013405   0.07388899220615008   0.03572301832305472
4.2517827069013405   0.07388899220615008   0.03572301832305472
4.2517827069013405   0.07388899220615008   0.03572301832305472
0.42130385955139   -0.2524623822216569   -0.008311897888779451
0.42130385955139   -0.2524623822216569   -0.008311897888779451
0.42130385955139   -0.2524623822216569   -0.008311897888779451
0.42130385955139   -0.2524623822216569   -0.008311897888779451
0.1643778270968707   -0.829832924206192   -0.15612674982391223
0.1643778270968707   -0.829832924206192   -0.15612674982391223
0.1643778270968707   -0.829832924206192   -0.15612674982391223
0.1643778270968707   -0.829832924206192   -0.15612674982391223
4.257482353777137   0.4902084362470569   0.21164559114517362
4.257482353777137   0.4902084362470569   0.21164559114517362
4.257482353777137   0.4902084362470569   0.21164559114517362
4.257482353777137   0.4902084362470569   0.21164559114517362
2.231986022318411   -0.11848978911196939   -0.0894325178316219
2.231986022318411   -0.11848978911196939   -0.0894325178316219
2.231986022318411   -0.11848978911196939   -0.0894325178316219
2.231986022318411   -0.11848978911196939   -0.0894325178316219
4.131291113995461   0.007462207362570417   0.06343562112131018
4.131291113995461   0.007462207362570417   0.06343562112131018
4.131291113995461   0.007462207362570417   0.06343562112131018
4.131291113995461   0.007462207362570417   0.06343562112131018
0.2952694581231416   -0.3423863040771058   0.0108847851783557
0.2952694581231416   -0.3423863040771058   0.0108847851783557
0.2952694581231416   -0.3423863040771058   0.0108847851783557
0.2952694581231416   -0.3423863040771058   0.0108847851783557
0.02295351367021084   -0.8702349958623803   -0.10808405057969153
0.02295351367021084   -0.8702349958623803   -0.10808405057969153
0.02295351367021084   -0.8702349958623803   -0.10808405057969153
0.02295351367021084   -0.8702349958623803   -0.10808405057969153
4.102177291342309   0.4182686489416604   0.23358777045983956
4.102177291342309   0.4182686489416604   0.23358777045983956
4.102177291342309   0.4182686489416604   0.23358777045983956
4.102177291342309   0.4182686489416604   0.23358777045983956
2.069654058606719   -0.18451456760262397   -0.12664316203181067
2.069654058606719   -0.18451456760262397   -0.12664316203181067
2.069654058606719   -0.18451456760262397   -0.12664316203181067
2.069654058606719   -0.18451456760262397   -0.12664316203181067
3.9830249314503425   -0.03782081516839786   0.09391543511008824
3.9830249314503425   -0.03782081516839786   0.09391543511008824
3.9830249314503425   -0.03782081516839786   0.09391543511008824
3.9830249314503425   -0.03782081516839786   0.09391543511008824
0.14138188719367814   -0.4148695181208174   0.028692339296082114
0.14138188719367814   -0.4148695181208174   0.028692339296082114
0.14138188719367814   -0.4148695181208174   0.028692339296082114
0.14138188719367814   -0.4148695181208174   0.028692339296082114
-0.12900669007145846   -0.8752047102723088   -0.07325727606002996
-0.12900669007145846   -0.8752047102723088   -0.07325727606002996
-0.12900669007145846   -0.8752047102723088   -0.07325727606002996
-0.12900669007145846   -0.8752047102723088   -0.07325727606002996
3.945505273116722   0.372028906781284   0.25829827751927315
3.945505273116722   0.372028906781284   0.25829827751927315
3.945505273116722   0.372028906781284   0.25829827751927315
3.945505273116722   0.372028906781284   0.25829827751927315
1.9418793199661772   -0.21152462240153208   -0.15890329618299
1.9418793199661772   -0.21152462240153208   -0.15890329618299
1.9418793199661772   -0.21152462240153208   -0.15890329618299
1.9418793199661772   -0.21152462240153208   -0.15890329618299
0.42596719457400994   -0.2496794279250756   0.012221822927738879
0.42596719457400994   -0.2496794279250756   0.012221822927738879
0.42596719457400994   -0.2496794279250756   0.012221822927738879
0.42596719457400994   -0.2496794279250756   0.012221822927738879
-3.26083978733739   -0.37768554443222835   -0.10283494118518205
-3.26083978733739   -0.37768554443222835   -0.10283494118518205
-3.26083978733739   -0.37768554443222835   -0.10283494118518205
-3.26083978733739   -0.37768554443222835   -0.10283494118518205
-3.546456549613277   -1.1011899562447554   -0.1773101680614138
-3.546456549613277   -1.1011899562447554   -0.1773101680614138
-3.546456549613277   -1.1011899562447554   -0.1773101680614138
-3.546456549613277   -1.1011899562447554   -0.1773101680614138
0.4573256648179585   0.3578288124720575   0.12095070210327713
0.4573256648179585   0.3578288124720575   0.12095070210327713
0.4573256648179585   0.3578288124720575   0.12095070210327713
0.4573256648179585   0.3578288124720575   0.12095070210327713
-1.4855526006369788   -0.3262232056264149   -0.08906153214195227
-1.4855526006369788   -0.3262232056264149   -0.08906153214195227
-1.4855526006369788   -0.3262232056264149   -0.08906153214195227
-1.4855526006369788   -0.3262232056264149   -0.08906153214195227
0.3197818557668032   -0.27855678974378745   0.0696172590633455
0.3197818557668032   -0.27855678974378745   0.0696172590633455
0.3197818557668032   -0.27855678974378745   0.0696172590633455
0.3197818557668032   -0.27855678974378745   0.0696172590633455
-3.3984635312297358   -0.4543551446965653   -0.08417988769189703
-3.3984635312297358   -0.4543551446965653   -0.08417988769189703
-3.3984635312297358   -0.4543551446965653   -0.08417988769189703
-3.3984635312297358   -0.4543551446965653   -0.08417988769189703
-3.712409965765346   -1.1455385388976063   -0.11660380905446066
-3.712409965765346   -1.1455385388976063   -0.11660380905446066
-3.712409965765346   -1.1455385388976063   -0.11660380905446066
-3.712409965765346   -1.1455385388976063   -0.11660380905446066
0.30214619952050165   0.28075582378011116   0.1368885590292711
0.30214619952050165   0.28075582378011116   0.1368885590292711
0.30214619952050165   0.28075582378011116   0.1368885590292711
0.30214619952050165   0.28075582378011116   0.1368885590292711
-1.6227384049471347   -0.3723795548270522   -0.106921386045793
-1.6227384049471347   -0.3723795548270522   -0.106921386045793
-1.6227384049471347   -0.3723795548270522   -0.106921386045793
-1.6227384049471347   -0.3723795548270522   -0.106921386045793
0.17286625330820368   -0.3257613357687289   0.09700598751662148
0.17286625330820368   -0.3257613357687289   0.09700598751662148
0.17286625330820368   -0.3257613357687289   0.09700598751662148
0.17286625330820368   -0.3257613357687289   0.09700598751662148
-3.580993329535629   -0.5368846893313901   -0.06817447747210484
-3.580993329535629   -0.5368846893313901   -0.06817447747210484
-3.580993329535629   -0.5368846893313901   -0.06817447747210484
-3.580993329535629   -0.5368846893313901   -0.06817447747210484
-3.896665246112395   -1.1781996194274647   -0.10369925825158169
-3.896665246112395   -1.1781996194274647   -0.10369925825158169
-3.896665246112395   -1.1781996194274647   -0.10369925825158169
-3.896665246112395   -1.1781996194274647   -0.10369925825158169
0.1343125080983994   0.21490136451313138   0.1532326400038192
0.1343125080983994   0.21490136451313138   0.1532326400038192
0.1343125080983994   0.21490136451313138   0.1532326400038192
0.1343125080983994   0.21490136451313138   0.1532326400038192
-1.8010996243041557   -0.42765382467825264   -0.14980244185606376
-1.8010996243041557   -0.42765382467825264   -0.14980244185606376
-1.8010996243041557   -0.42765382467825264   -0.14980244185606376
-1.8010996243041557   -0.42765382467825264   -0.14980244185606376
-3.212858097331449   -0.291882957693045   0.05127092210529398
-3.212858097331449   -0.291882957693045   0.05127092210529398
-3.212858097331449   -0.291882957693045   0.05127092210529398
-3.212858097331449   -0.291882957693045   0.05127092210529398
-6.850576343873624   -0.44179253091856996   -0.1820885718194421
-6.850576343873624   -0.44179253091856996   -0.1820885718194421
-6.850576343873624   -0.44179253091856996   -0.1820885718194421
-6.850576343873624   -0.44179253091856996   -0.1820885718194421
-7.175607637633038   -1.1522697775487907   -0.17615158252512694
-7.175607637633038   -1.1522697775487907   -0.17615158252512694
-7.175607637633038   -1.1522697775487907   -0.17615158252512694
-7.175607637633038   -1.1522697775487907   -0.17615158252512694
-3.2296247312279305   0.27226149058112104   0.03339747703938284
-3.2296247312279305   0.27226149058112104   0.03339747703938284
-3.2296247312279305   0.27226149058112104   0.03339747703938284
-3.2296247312279305   0.27226149058112104   0.03339747703938284
-5.074814616713151   -0.38468311438374836   -0.07542063537381616
-5.074814616713151   -0.38468311438374836   -0.07542063537381616
-5.074814616713151   -0.38468311438374836   -0.07542063537381616
-5.074814616713151   -0.38468311438374836   -0.07542063537381616
-3.330543927957552   -0.3231784352618169   0.12424141923425594
-3.330543927957552   -0.3231784352618169   0.12424141923425594
-3.330543927957552   -0.3231784352618169   0.12424141923425594
-3.330543927957552   -0.3231784352618169   0.12424141923425594
-7.054069296354952   -0.5362107071573889   -0.18451894652614403
-7.054069296354952   -0.5362107071573889   -0.18451894652614403
-7.054069296354952   -0.5362107071573889   -0.18451894652614403
-7.054069296354952   -0.5362107071573889   -0.18451894652614403
-7.405471202424993   -1.2274274760803259   -0.12309202943650766
-7.405471202424993   -1.2274274760803259   -0.12309202943650766
-7.405471202424993   -1.2274274760803259   -0.12309202943650766
-7.405471202424993   -1.2274274760803259   -0.12309202943650766
-3.414183777802538   0.18786791660758684   0.04112067525437299
-3.414183777802538   0.18786791660758684   0.04112067525437299
-3.414183777802538   0.18786791660758684   0.04112067525437299
-3.414183777802538   0.18786791660758684   0.04112067525437299
-5.220875334143734   -0.4267464358264892   -0.07593098296124268
-5.220875334143734   -0.4267464358264892   -0.07593098296124268
-5.220875334143734   -0.4267464358264892   -0.07593098296124268
-5.220875334143734   -0.4267464358264892   -0.07593098296124268
-3.5139908609864814   -0.3987686389307331   0.12872181487294432
-3.5139908609864814   -0.3987686389307331   0.12872181487294432
-3.5139908609864814   -0.3987686389307331   0.12872181487294432
-3.5139908609864814   -0.3987686389307331   0.12872181487294432
-7.2918715579180775   -0.6269983592190395   -0.15552292376321855
-7.2918715579180775   -0.6269983592190395   -0.15552292376321855
-7.2918715579180775   -0.6269983592190395   -0.15552292376321855
-7.2918715579180775   -0.6269983592190395   -0.15552292376321855
-7.6658011512878605   -1.326184818089885   -0.13216759995708904
-7.6658011512878605   -1.326184818089885   -0.13216759995708904
-7.6658011512878605   -1.326184818089885   -0.13216759995708904
-7.6658011512878605   -1.326184818089885   -0.13216759995708904
-3.6135919890499957   0.08398723261797658   0.0494801750148951
-3.6135919890499957   0.08398723261797658   0.0494801750148951
-3.6135919890499957   0.08398723261797658   0.0494801750148951
-3.6135919890499957   0.08398723261797658   0.0494801750148951
-5.478061811347197   -0.5274874414437665   -0.12268986914405572
-5.478061811347197   -0.5274874414437665   -0.12268986914405572
-5.478061811347197   -0.5274874414437665   -0.12268986914405572
-5.478061811347197   -0.5274874414437665   -0.12268986914405572
-6.616632032759052   0.31645246572952224   0.22938798710532693
-6.616632032759052   0.31645246572952224   0.22938798710532693
-6.616632032759052   0.31645246572952224   0.22938798710532693
-6.616632032759052   0.31645246572952224   0.22938798710532693
-10.262751806827035   -0.5116570443770929   -0.14038873657795908
-10.262751806827035   -0.5116570443770929   -0.14038873657795908
-10.262751806827035   -0.5116570443770929   -0.14038873657795908
-10.262751806827035   -0.5116570443770929   -0.14038873657795908
-10.5194663265688   -0.520769933807828   0.23608826196605615
-10.5194663265688   -0.520769933807828   0.23608826196605615
-10.5194663265688   -0.520769933807828   0.23608826196605615
-10.5194663265688   -0.520769933807828   0.23608826196605615
-6.879245269393431   0.21071194321980236   -0.05732146209572575
-6.879245269393431   0.21071194321980236   -0.05732146209572575
-6.879245269393431   0.21071194321980236   -0.05732146209572575
-6.879245269393431   0.21071194321980236   -0.05732146209572575
-8.170387183434316   0.007206483311029688   0.2068398056339455
-8.170387183434316   0.007206483311029688   0.2068398056339455
-8.170387183434316   0.007206483311029688   0.2068398056339455
-8.170387183434316   0.007206483311029688   0.2068398056339455
-6.805638910304343   0.23255196030483227   0.2888703162646539
-6.805638910304343   0.23255196030483227   0.2888703162646539
-6.805638910304343   0.23255196030483227   0.2888703162646539
-6.805638910304343   0.23255196030483227   0.2888703162646539
-10.588357918826766   -0.5378951840617003   -0.09124444906990237
-10.588357918826766   -0.5378951840617003   -0.09124444906990237
-10.588357918826766   -0.5378951840617003   -0.09124444906990237
-10.588357918826766   -0.5378951840617003   -0.09124444906990237
-10.844018805320447   -0.6090567503546223   0.3207223242176993
-10.844018805320447   -0.6090567503546223   0.3207223242176993
-10.844018805320447   -0.6090567503546223   0.3207223242176993
-10.844018805320447   -0.6090567503546223   0.3207223242176993
-7.117156115968769   0.15079174648470994   -0.05973581972048758
-7.117156115968769   0.15079174648470994   -0.05973581972048758
-7.117156115968769   0.15079174648470994   -0.05973581972048758
-7.117156115968769   0.15079174648470994   -0.05973581972048758
-8.586898078580665   -0.09636078704346085   0.11131075282975689
-8.586898078580665   -0.09636078704346085   0.11131075282975689
-8.586898078580665   -0.09636078704346085   0.11131075282975689
-8.586898078580665   -0.09636078704346085   0.11131075282975689
-7.049899184861687   0.14257568779459762   0.2847648945050394
-7.049899184861687   0.14257568779459762   0.2847648945050394
-7.049899184861687   0.14257568779459762   0.2847648945050394
-7.049899184861687   0.14257568779459762   0.2847648945050394
-10.923937097890056   -0.6135020531270374   -0.07442383585793788
-10.923937097890056   -0.6135020531270374   -0.07442383585793788
-10.923937097890056   -0.6135020531270374   -0.07442383585793788
-10.923937097890056   -0.6135020531270374   -0.07442383585793788
-11.304844681520528   -0.9634011476711029   0.27956148027477273
-11.304844681520528   -0.9634011476711029   0.27956148027477273
-11.304844681520528   -0.9634011476711029   0.27956148027477273
-11.304844681520528   -0.9634011476711029   0.27956148027477273
-7.391426849651324   -0.030372166331954942   -0.05610874353245415
-7.391426849651324   -0.030372166331954942   -0.05610874353245415
-7.391426849651324   -0.030372166331954942   -0.05610874353245415
-7.391426849651324   -0.030372166331954942   -0.05610874353245415
-8.767675038217003   -0.22616738021457228   0.026403591635714208
-8.767675038217003   -0.22616738021457228   0.026403591635714208
-8.767675038217003   -0.22616738021457228   0.026403591635714208
-8.767675038217003   -0.22616738021457228   0.026403591635714208
6.778363415500537   0.36062191537800503   -0.2451374958960394
6.778363415500537   0.36062191537800503   -0.2451374958960394
6.778363415500537   0.36062191537800503   -0.2451374958960394
6.778363415500537   0.36062191537800503   -0.2451374958960394
3.3657947582233954   0.00033591177597624977   0.08980435612068766
3.3657947582233954   0.00033591177597624977   0.08980435612068766
3.3657947582233954   0.00033591177597624977   0.08980435612068766
3.3657947582233954   0.00033591177597624977   0.08980435612068766
3.072425616160861   -0.5035147607833808   -0.22411039578416758
3.072425616160861   -0.5035147607833808   -0.22411039578416758
3.072425616160861   -0.5035147607833808   -0.22411039578416758
3.072425616160861   -0.5035147607833808   -0.22411039578416758
6.6488417784712475   0.5498915780798346   0.11250087737683051
6.6488417784712475   0.5498915780798346   0.11250087737683051
6.6488417784712475   0.5498915780798346   0.11250087737683051
6.6488417784712475   0.5498915780798346   0.11250087737683051
4.709603923308579   0.041773230254383065   -0.1548963476286547
4.709603923308579   0.041773230254383065   -0.1548963476286547
4.709603923308579   0.041773230254383065   -0.1548963476286547
4.709603923308579   0.041773230254383065   -0.1548963476286547
6.505356812964196   0.18073923609867748   -0.2357716081772121
6.505356812964196   0.18073923609867748   -0.2357716081772121
6.505356812964196   0.18073923609867748   -0.2357716081772121
6.505356812964196   0.18073923609867748   -0.2357716081772121
3.2096876948995825   -0.1405853055705525   0.09927054269655872
3.2096876948995825   -0.1405853055705525   0.09927054269655872
3.2096876948995825   -0.1405853055705525   0.09927054269655872
3.2096876948995825   -0.1405853055705525   0.09927054269655872
2.9256585555582144   -0.5460990126099979   -0.19458950900731115
2.9256585555582144   -0.5460990126099979   -0.19458950900731115
2.9256585555582144   -0.5460990126099979   -0.19458950900731115
2.9256585555582144   -0.5460990126099979   -0.19458950900731115
6.4291960114871385   0.49154107172088735   0.15329244636542486
6.4291960114871385   0.49154107172088735   0.15329244636542486
6.4291960114871385   0.49154107172088735   0.15329244636542486
6.4291960114871385   0.49154107172088735   0.15329244636542486
4.593422773656533   -0.03457822437661573   -0.20460406466825537
4.593422773656533   -0.03457822437661573   -0.20460406466825537
4.593422773656533   -0.03457822437661573   -0.20460406466825537
4.593422773656533   -0.03457822437661573   -0.20460406466825537
6.288847675159537   0.12839590033450987   -0.1853040638860946
6.288847675159537   0.12839590033450987   -0.1853040638860946
6.288847675159537   0.12839590033450987   -0.1853040638860946
6.288847675159537   0.12839590033450987   -0.1853040638860946
3.0604886102029156   -0.18847212290650572   0.12193387451268148
3.0604886102029156   -0.18847212290650572   0.12193387451268148
3.0604886102029156   -0.18847212290650572   0.12193387451268148
3.0604886102029156   -0.18847212290650572   0.12193387451268148
2.7914715486532096   -0.5599326057429159   -0.1589007698782693
2.7914715486532096   -0.5599326057429159   -0.1589007698782693
2.7914715486532096   -0.5599326057429159   -0.1589007698782693
2.7914715486532096   -0.5599326057429159   -0.1589007698782693
6.181575920293379   0.43946486011671604   0.19027186630477685
6.181575920293379   0.43946486011671604   0.19027186630477685
6.181575920293379   0.43946486011671604   0.19027186630477685
6.181575920293379   0.43946486011671604   0.19027186630477685
4.326971556384032   -0.08754845507753595   -0.2784212612921263
4.326971556384032   -0.08754845507753595   -0.2784212612921263
4.326971556384032   -0.08754845507753595   -0.2784212612921263
4.326971556384032   -0.08754845507753595   -0.2784212612921263
3.4216981881006827   0.352675288768855   0.01698212851424233
3.4216981881006827   0.352675288768855   0.01698212851424233
3.4216981881006827   0.352675288768855   0.01698212851424233
3.4216981881006827   0.352675288768855   0.01698212851424233
0.12500880124685432   -0.10938928496893849   -0.012948343066020638
0.12500880124685432   -0.10938928496893849   -0.012948343066020638
0.12500880124685432   -0.10938928496893849   -0.012948343066020638
0.12500880124685432   -0.10938928496893849   -0.012948343066020638
-0.0960735703420391   -0.4532196336358237   -0.15193883415029863
-0.0960735703420391   -0.4532196336358237   -0.15193883415029863
-0.0960735703420391   -0.4532196336358237   -0.15193883415029863
-0.0960735703420391   -0.4532196336358237   -0.15193883415029863
3.3547900111743942   0.49721716178697584   0.18697965671308728
3.3547900111743942   0.49721716178697584   0.18697965671308728
3.3547900111743942   0.49721716178697584   0.18697965671308728
3.3547900111743942   0.49721716178697584   0.18697965671308728
1.674885227653907   0.07077358950485119   -0.01958627973867018
1.674885227653907   0.07077358950485119   -0.01958627973867018
1.674885227653907   0.07077358950485119   -0.01958627973867018
1.674885227653907   0.07077358950485119   -0.01958627973867018
3.277134449878656   0.25916128303550134   0.03675772898587698
3.277134449878656   0.25916128303550134   0.03675772898587698
3.277134449878656   0.25916128303550134   0.03675772898587698
3.277134449878656   0.25916128303550134   0.03675772898587698
-0.017067693173278525   -0.21381343901136932   0.0036843570690345342
-0.017067693173278525   -0.21381343901136932   0.0036843570690345342
-0.017067693173278525   -0.21381343901136932   0.0036843570690345342
-0.017067693173278525   -0.21381343901136932   0.0036843570690345342
-0.23511906776733543   -0.5221367800094794   -0.13114301518621443
-0.23511906776733543   -0.5221367800094794   -0.13114301518621443
-0.23511906776733543   -0.5221367800094794   -0.13114301518621443
-0.23511906776733543   -0.5221367800094794   -0.13114301518621443
3.1973067727478144   0.4105342874586285   0.20701827687204125
3.1973067727478144   0.4105342874586285   0.20701827687204125
3.1973067727478144   0.4105342874586285   0.20701827687204125
3.1973067727478144   0.4105342874586285   0.20701827687204125
1.5054187405631527   -0.014508347349271866   -0.0681053959561844
1.5054187405631527   -0.014508347349271866   -0.0681053959561844
1.5054187405631527   -0.014508347349271866   -0.0681053959561844
1.5054187405631527   -0.014508347349271866   -0.0681053959561844
3.1225255882354466   0.18695840215174175   0.05668823961710964
3.1225255882354466   0.18695840215174175   0.05668823961710964
3.1225255882354466   0.18695840215174175   0.05668823961710964
3.1225255882354466   0.18695840215174175   0.05668823961710964
-0.16019368454040606   -0.2984166959879868   0.01976381692693964
-0.16019368454040606   -0.2984166959879868   0.01976381692693964
-0.16019368454040606   -0.2984166959879868   0.01976381692693964
-0.16019368454040606   -0.2984166959879868   0.01976381692693964
-0.37281366746649086   -0.5640928233766362   -0.10399143268711546
-0.37281366746649086   -0.5640928233766362   -0.10399143268711546
-0.37281366746649086   -0.5640928233766362   -0.10399143268711546
-0.37281366746649086   -0.5640928233766362   -0.10399143268711546
3.0475402851786577   0.3370597274307411   0.22445057957527922
3.0475402851786577   0.3370597274307411   0.22445057957527922
3.0475402851786577   0.3370597274307411   0.22445057957527922
3.0475402851786577   0.3370597274307411   0.22445057957527922
1.3795133440981673   -0.0695735507193011   -0.10403995823699351
1.3795133440981673   -0.0695735507193011   -0.10403995823699351
1.3795133440981673   -0.0695735507193011   -0.10403995823699351
1.3795133440981673   -0.0695735507193011   -0.10403995823699351
0.2363540320369154   0.3576649273855744   0.0767235985297719
0.2363540320369154   0.3576649273855744   0.0767235985297719
0.2363540320369154   0.3576649273855744   0.0767235985297719
0.2363540320369154   0.3576649273855744   0.0767235985297719
-3.0141353131657582   -0.1932544453111314   -0.10394874266617456
-3.0141353131657582   -0.1932544453111314   -0.10394874266617456
-3.0141353131657582   -0.1932544453111314   -0.10394874266617456
-3.0141353131657582   -0.1932544453111314   -0.10394874266617456
-3.186640609714628   -0.4142147731354178   -0.09530095140126753
-3.186640609714628   -0.4142147731354178   -0.09530095140126753
-3.186640609714628   -0.4142147731354178   -0.09530095140126753
-3.186640609714628   -0.4142147731354178   -0.09530095140126753
0.12439059152654902   0.40696372464424746   0.0901986169125555
0.12439059152654902   0.40696372464424746   0.0901986169125555
0.12439059152654902   0.40696372464424746   0.0901986169125555
0.12439059152654902   0.40696372464424746   0.0901986169125555
-1.4582057732259797   0.04638919728392782   0.00529822610878751
-1.4582057732259797   0.04638919728392782   0.00529822610878751
-1.4582057732259797   0.04638919728392782   0.00529822610878751
-1.4582057732259797   0.04638919728392782   0.00529822610878751
0.10064282953268092   0.28165567609316083   0.09676785549431688
0.10064282953268092   0.28165567609316083   0.09676785549431688
0.10064282953268092   0.28165567609316083   0.09676785549431688
0.10064282953268092   0.28165567609316083   0.09676785549431688
-3.1591184920037043   -0.2851323688672733   -0.08677276711479494
-3.1591184920037043   -0.2851323688672733   -0.08677276711479494
-3.1591184920037043   -0.2851323688672733   -0.08677276711479494
-3.1591184920037043   -0.2851323688672733   -0.08677276711479494
-3.3358946328599903   -0.48998861491408263   -0.0787928020614514
-3.3358946328599903   -0.48998861491408263   -0.0787928020614514
-3.3358946328599903   -0.48998861491408263   -0.0787928020614514
-3.3358946328599903   -0.48998861491408263   -0.0787928020614514
-0.018986879759236172   0.3177649477422506   0.109616197102567
-0.018986879759236172   0.3177649477422506   0.109616197102567
-0.018986879759236172   0.3177649477422506   0.109616197102567
-0.018986879759236172   0.3177649477422506   0.109616197102567
-1.6011649087222912   -0.027544415376137887   -0.03128648323178232
-1.6011649087222912   -0.027544415376137887   -0.03128648323178232
-1.6011649087222912   -0.027544415376137887   -0.03128648323178232
-1.6011649087222912   -0.027544415376137887   -0.03128648323178232
-0.03930936037808803   0.208533956953873   0.11723478479667002
-0.03930936037808803   0.208533956953873   0.11723478479667002
-0.03930936037808803   0.208533956953873   0.11723478479667002
-0.03930936037808803   0.208533956953873   0.11723478479667002
-3.3123021237157237   -0.3774875956003283   -0.07333127565384029
-3.3123021237157237   -0.3774875956003283   -0.07333127565384029
-3.3123021237157237   -0.3774875956003283   -0.07333127565384029
-3.3123021237157237   -0.3774875956003283   -0.07333127565384029
-3.484190263329898   -0.549721982339821   -0.05138132283264481
-3.484190263329898   -0.549721982339821   -0.05138132283264481
-3.484190263329898   -0.549721982339821   -0.05138132283264481
-3.484190263329898   -0.549721982339821   -0.05138132283264481
-0.16750301619295865   0.23373642542490247   0.12473257487900699
-0.16750301619295865   0.23373642542490247   0.12473257487900699
-0.16750301619295865   0.23373642542490247   0.12473257487900699
-0.16750301619295865   0.23373642542490247   0.12473257487900699
-1.754967546458282   -0.10275124653146805   -0.07120232566426937
-1.754967546458282   -0.10275124653146805   -0.07120232566426937
-1.754967546458282   -0.10275124653146805   -0.07120232566426937
-1.754967546458282   -0.10275124653146805   -0.07120232566426937
-2.8414355902479   0.4247603495773913   0.1415350770346399
-2.8414355902479   0.4247603495773913   0.1415350770346399
-2.8414355902479   0.4247603495773913   0.1415350770346399
-2.8414355902479   0.4247603495773913   0.1415350770346399
-6.045470096714827   -0.2663724871594064   -0.1707889132397336
-6.045470096714827   -0.2663724871594064   -0.1707889132397336
-6.045470096714827   -0.2663724871594064   -0.1707889132397336
-6.045470096714827   -0.2663724871594064   -0.1707889132397336
-6.180083073576122   -0.3296207870955081   -0.025555568995326017
-6.180083073576122   -0.3296207870955081   -0.025555568995326017
-6.180083073576122   -0.3296207870955081   -0.025555568995326017
-6.180083073576122   -0.3296207870955081   -0.025555568995326017
-3.0244823740581865   0.30720226627332126   -0.00592681252776972
-3.0244823740581865   0.30720226627332126   -0.00592681252776972
-3.0244823740581865   0.30720226627332126   -0.00592681252776972
-3.0244823740581865   0.30720226627332126   -0.00592681252776972
-4.490247222585724   0.04817095560419982   0.03252683990079769
-4.490247222585724   0.04817095560419982   0.03252683990079769
-4.490247222585724   0.04817095560419982   0.03252683990079769
-4.490247222585724   0.04817095560419982   0.03252683990079769
-2.983627519532512   0.34657615232255334   0.15897357405137152
-2.983627519532512   0.34657615232255334   0.15897357405137152
-2.983627519532512   0.34657615232255334   0.15897357405137152
-2.983627519532512   0.34657615232255334   0.15897357405137152
-6.2157293771358555   -0.3637861221788088   -0.1696217517107511
-6.2157293771358555   -0.3637861221788088   -0.1696217517107511
-6.2157293771358555   -0.3637861221788088   -0.1696217517107511
-6.2157293771358555   -0.3637861221788088   -0.1696217517107511
-6.363953128990484   -0.4147508364637825   -0.022203738914528898
-6.363953128990484   -0.4147508364637825   -0.022203738914528898
-6.363953128990484   -0.4147508364637825   -0.022203738914528898
-6.363953128990484   -0.4147508364637825   -0.022203738914528898
-3.175441386320024   0.22207973994077623   0.01140507578355407
-3.175441386320024   0.22207973994077623   0.01140507578355407
-3.175441386320024   0.22207973994077623   0.01140507578355407
-3.175441386320024   0.22207973994077623   0.01140507578355407
-4.619496136981118   -0.019760540243231484   0.0024661495909050757
-4.619496136981118   -0.019760540243231484   0.0024661495909050757
-4.619496136981118   -0.019760540243231484   0.0024661495909050757
-4.619496136981118   -0.019760540243231484   0.0024661495909050757
-3.130742148455841   0.27310692369591427   0.18387408134931357
-3.130742148455841   0.27310692369591427   0.18387408134931357
-3.130742148455841   0.27310692369591427   0.18387408134931357
-3.130742148455841   0.27310692369591427   0.18387408134931357
-6.398187422087595   -0.4553130754518224   -0.15281296541211303
-6.398187422087595   -0.4553130754518224   -0.15281296541211303
-6.398187422087595   -0.4553130754518224   -0.15281296541211303
-6.398187422087595   -0.4553130754518224   -0.15281296541211303
-6.533370861586741   -0.5057804160656052   0.020420804133732262
-6.533370861586741   -0.5057804160656052   0.020420804133732262
-6.533370861586741   -0.5057804160656052   0.020420804133732262
-6.533370861586741   -0.5057804160656052   0.020420804133732262
-3.335408881805625   0.12104892550058388   0.021754676948361917
-3.335408881805625   0.12104892550058388   0.021754676948361917
-3.335408881805625   0.12104892550058388   0.021754676948361917
-3.335408881805625   0.12104892550058388   0.021754676948361917
-4.819839687425459   -0.1144098726607411   -0.03769552640079585
-4.819839687425459   -0.1144098726607411   -0.03769552640079585
-4.819839687425459   -0.1144098726607411   -0.03769552640079585
-4.819839687425459   -0.1144098726607411   -0.03769552640079585
-5.829665277526956   0.442842123255454   0.19902057228469622
-5.829665277526956   0.442842123255454   0.19902057228469622
-5.829665277526956   0.442842123255454   0.19902057228469622
-5.829665277526956   0.442842123255454   0.19902057228469622
-8.920628599959814   -0.4121058960520554   -0.15903285153289676
-8.920628599959814   -0.4121058960520554   -0.15903285153289676
-8.920628599959814   -0.4121058960520554   -0.15903285153289676
-8.920628599959814   -0.4121058960520554   -0.15903285153289676
-9.045570780658124   -0.1770969699038989   0.16995948355046175
-9.045570780658124   -0.1770969699038989   0.16995948355046175
-9.045570780658124   -0.1770969699038989   0.16995948355046175
-9.045570780658124   -0.1770969699038989   0.16995948355046175
-6.0907637887117225   0.18166101869866047   -0.09024095046749925
-6.0907637887117225   0.18166101869866047   -0.09024095046749925
-6.0907637887117225   0.18166101869866047   -0.09024095046749925
-6.0907637887117225   0.18166101869866047   -0.09024095046749925
-7.141900360277296   0.09317664184156427   0.16309147230888316
-7.141900360277296   0.09317664184156427   0.16309147230888316
-7.141900360277296   0.09317664184156427   0.16309147230888316
-7.141900360277296   0.09317664184156427   0.16309147230888316
-5.973508018260479   0.44905289163586737   0.22864602885140184
-5.973508018260479   0.44905289163586737   0.22864602885140184
-5.973508018260479   0.44905289163586737   0.22864602885140184
-5.973508018260479   0.44905289163586737   0.22864602885140184
-9.155894199868783   -0.43755649160047305   -0.12119809080610677
-9.155894199868783   -0.43755649160047305   -0.12119809080610677
-9.155894199868783   -0.43755649160047305   -0.12119809080610677
-9.155894199868783   -0.43755649160047305   -0.12119809080610677
-9.273846780893832   -0.22161652030250067   0.23491351126852145
-9.273846780893832   -0.22161652030250067   0.23491351126852145
-9.273846780893832   -0.22161652030250067   0.23491351126852145
-9.273846780893832   -0.22161652030250067   0.23491351126852145
-6.266097309738705   0.13271886223011475   -0.08039434134953338
-6.266097309738705   0.13271886223011475   -0.08039434134953338
-6.266097309738705   0.13271886223011475   -0.08039434134953338
-6.266097309738705   0.13271886223011475   -0.08039434134953338
-7.453824121306887   0.04575987332896281   0.10370159863348627
-7.453824121306887   0.04575987332896281   0.10370159863348627
-7.453824121306887   0.04575987332896281   0.10370159863348627
-7.453824121306887   0.04575987332896281   0.10370159863348627
-6.136618795103491   0.41565816117761933   0.28405893287902717
-6.136618795103491   0.41565816117761933   0.28405893287902717
-6.136618795103491   0.41565816117761933   0.28405893287902717
-6.136618795103491   0.41565816117761933   0.28405893287902717
-9.39667559694733   -0.4979061206683064   -0.10294096863301339
-9.39667559694733   -0.4979061206683064   -0.10294096863301339
-9.39667559694733   -0.4979061206683064   -0.10294096863301339
-9.39667559694733   -0.4979061206683064   -0.10294096863301339
-9.583388187897919   -0.4106931395016711   0.23424772886555972
-9.583388187897919   -0.4106931395016711   0.23424772886555972
-9.583388187897919   -0.4106931395016711   0.23424772886555972
-9.583388187897919   -0.4106931395016711   0.23424772886555972
-6.453890767683145   -0.012556769144194568   -0.07540237326969584
-6.453890767683145   -0.012556769144194568   -0.07540237326969584
-6.453890767683145   -0.012556769144194568   -0.07540237326969584
-6.453890767683145   -0.012556769144194568   -0.07540237326969584
-7.5474938367928415   -0.021830074992332582   0.08341912331920465
-7.5474938367928415   -0.021830074992332582   0.08341912331920465
-7.5474938367928415   -0.021830074992332582   0.08341912331920465
-7.5474938367928415   -0.021830074992332582   0.08341912331920465
5.114659885195759   0.28258885684110946   -0.24779604552601048
5.114659885195759   0.28258885684110946   -0.24779604552601048
5.114659885195759   0.28258885684110946   -0.24779604552601048
5.114659885195759   0.28258885684110946   -0.24779604552601048
2.435928573189197   0.05225124711653151   0.09528681260040905
2.435928573189197   0.05225124711653151   0.09528681260040905
2.435928573189197   0.05225124711653151   0.09528681260040905
2.435928573189197   0.05225124711653151   0.09528681260040905
2.1602253633736583   -0.41729918901660423   -0.23483654300777584
2.1602253633736583   -0.41729918901660423   -0.23483654300777584
2.1602253633736583   -0.41729918901660423   -0.23483654300777584
2.1602253633736583   -0.41729918901660423   -0.23483654300777584
5.0017886213455105   0.47194472816701116   0.11770862954233532
5.0017886213455105   0.47194472816701116   0.11770862954233532
5.0017886213455105   0.47194472816701116   0.11770862954233532
5.0017886213455105   0.47194472816701116   0.11770862954233532
3.488191504179507   0.04731066828999497   -0.10305548302791623
3.488191504179507   0.04731066828999497   -0.10305548302791623
3.488191504179507   0.04731066828999497   -0.10305548302791623
3.488191504179507   0.04731066828999497   -0.10305548302791623
4.861722187735724   0.12319310199120515   -0.23387191233079446
4.861722187735724   0.12319310199120515   -0.23387191233079446
4.861722187735724   0.12319310199120515   -0.23387191233079446
4.861722187735724   0.12319310199120515   -0.23387191233079446
2.297505103299848   -0.0713342565243994   0.10559722413094538
2.297505103299848   -0.0713342565243994   0.10559722413094538
2.297505103299848   -0.0713342565243994   0.10559722413094538
2.297505103299848   -0.0713342565243994   0.10559722413094538
2.031264034884951   -0.4587117067823815   -0.2000394695487334
2.031264034884951   -0.4587117067823815   -0.2000394695487334
2.031264034884951   -0.4587117067823815   -0.2000394695487334
2.031264034884951   -0.4587117067823815   -0.2000394695487334
4.8013108613374715   0.4128711879986402   0.15436782214005457
4.8013108613374715   0.4128711879986402   0.15436782214005457
4.8013108613374715   0.4128711879986402   0.15436782214005457
4.8013108613374715   0.4128711879986402   0.15436782214005457
3.371629109146864   -0.02419594066391928   -0.14568533245570903
3.371629109146864   -0.02419594066391928   -0.14568533245570903
3.371629109146864   -0.02419594066391928   -0.14568533245570903
3.371629109146864   -0.02419594066391928   -0.14568533245570903
4.664599813225566   0.07058341392610712   -0.1868996443469044
4.664599813225566   0.07058341392610712   -0.1868996443469044
4.664599813225566   0.07058341392610712   -0.1868996443469044
4.664599813225566   0.07058341392610712   -0.1868996443469044
2.1645234801475906   -0.11987553555911268   0.12742158554117144
2.1645234801475906   -0.11987553555911268   0.12742158554117144
2.1645234801475906   -0.11987553555911268   0.12742158554117144
2.1645234801475906   -0.11987553555911268   0.12742158554117144
1.9148822649877126   -0.4852362897866502   -0.16654022790638803
1.9148822649877126   -0.4852362897866502   -0.16654022790638803
1.9148822649877126   -0.4852362897866502   -0.16654022790638803
1.9148822649877126   -0.4852362897866502   -0.16654022790638803
4.575378597062429   0.3481783398774445   0.18300364830247895
4.575378597062429   0.3481783398774445   0.18300364830247895
4.575378597062429   0.3481783398774445   0.18300364830247895
4.575378597062429   0.3481783398774445   0.18300364830247895
3.144651620583482   -0.07858695880948952   -0.20817191892617423
3.144651620583482   -0.07858695880948952   -0.20817191892617423
3.144651620583482   -0.07858695880948952   -0.20817191892617423
3.144651620583482   -0.07858695880948952   -0.20817191892617423
2.475127969583031   0.35994268804060925   -0.016407646354458676
2.475127969583031   0.35994268804060925   -0.016407646354458676
2.475127969583031   0.35994268804060925   -0.016407646354458676
2.475127969583031   0.35994268804060925   -0.016407646354458676
-0.1580281096914256   -0.032656758424434724   -0.00029632229152259357
-0.1580281096914256   -0.032656758424434724   -0.00029632229152259357
-0.1580281096914256   -0.032656758424434724   -0.00029632229152259357
-0.1580281096914256   -0.032656758424434724   -0.00029632229152259357
-0.3522209564038661   -0.31133776103309285   -0.14878398980899557
-0.3522209564038661   -0.31133776103309285   -0.14878398980899557
-0.3522209564038661   -0.31133776103309285   -0.14878398980899557
-0.3522209564038661   -0.31133776103309285   -0.14878398980899557
2.4093926653217177   0.4284761634269072   0.16522461428898827
2.4093926653217177   0.4284761634269072   0.16522461428898827
2.4093926653217177   0.4284761634269072   0.16522461428898827
2.4093926653217177   0.4284761634269072   0.16522461428898827
1.076767115761601   0.1061813366227301   0.007421961976586941
1.076767115761601   0.1061813366227301   0.007421961976586941
1.076767115761601   0.1061813366227301   0.007421961976586941
1.076767115761601   0.1061813366227301   0.007421961976586941
2.343589814487323   0.25876541317977897   0.005921110364174552
2.343589814487323   0.25876541317977897   0.005921110364174552
2.343589814487323   0.25876541317977897   0.005921110364174552
2.343589814487323   0.25876541317977897   0.005921110364174552
-0.28527319525173855   -0.14048210046822665   0.015099155386775486
-0.28527319525173855   -0.14048210046822665   0.015099155386775486
-0.28527319525173855   -0.14048210046822665   0.015099155386775486
-0.28527319525173855   -0.14048210046822665   0.015099155386775486
-0.47372750936454144   -0.38963875834540695   -0.12281267003602557
-0.47372750936454144   -0.38963875834540695   -0.12281267003602557
-0.47372750936454144   -0.38963875834540695   -0.12281267003602557
-0.47372750936454144   -0.38963875834540695   -0.12281267003602557
2.266215743765997   0.33533430378753115   0.18067306428656135
2.266215743765997   0.33533430378753115   0.18067306428656135
2.266215743765997   0.33533430378753115   0.18067306428656135
2.266215743765997   0.33533430378753115   0.18067306428656135
0.9273504814101885   0.014191247577073574   -0.03879854413089681
0.9273504814101885   0.014191247577073574   -0.03879854413089681
0.9273504814101885   0.014191247577073574   -0.03879854413089681
0.9273504814101885   0.014191247577073574   -0.03879854413089681
2.20257137088689   0.17478387703983322   0.02300162663874407
2.20257137088689   0.17478387703983322   0.02300162663874407
2.20257137088689   0.17478387703983322   0.02300162663874407
2.20257137088689   0.17478387703983322   0.02300162663874407
-0.4109705298196933   -0.2299757249320057   0.031309194274813636
-0.4109705298196933   -0.2299757249320057   0.031309194274813636
-0.4109705298196933   -0.2299757249320057   0.031309194274813636
-0.4109705298196933   -0.2299757249320057   0.031309194274813636
-0.5936927894747223   -0.45575785040360006   -0.09840423494304626
-0.5936927894747223   -0.45575785040360006   -0.09840423494304626
-0.5936927894747223   -0.45575785040360006   -0.09840423494304626
-0.5936927894747223   -0.45575785040360006   -0.09840423494304626
2.134028525800745   0.24888090382374445   0.19507388254837382
2.134028525800745   0.24888090382374445   0.19507388254837382
2.134028525800745   0.24888090382374445   0.19507388254837382
2.134028525800745   0.24888090382374445   0.19507388254837382
0.8122400346316789   -0.055975685022021715   -0.07745132800805044
0.8122400346316789   -0.055975685022021715   -0.07745132800805044
0.8122400346316789   -0.055975685022021715   -0.07745132800805044
0.8122400346316789   -0.055975685022021715   -0.07745132800805044
-0.053183292960915965   0.4316499232086609   0.059621079727945184
-0.053183292960915965   0.4316499232086609   0.059621079727945184
-0.053183292960915965   0.4316499232086609   0.059621079727945184
-0.053183292960915965   0.4316499232086609   0.059621079727945184
-2.696507334535374   -0.11475209805292486   -0.08946823603822976
-2.696507334535374   -0.11475209805292486   -0.08946823603822976
-2.696507334535374   -0.11475209805292486   -0.08946823603822976
-2.696507334535374   -0.11475209805292486   -0.08946823603822976
-2.821704775555856   -0.2142264805949356   -0.06965704220095499
-2.821704775555856   -0.2142264805949356   -0.06965704220095499
-2.821704775555856   -0.2142264805949356   -0.06965704220095499
-2.821704775555856   -0.2142264805949356   -0.06965704220095499
-0.1766265482300169   0.34611245695127196   0.07173783307590048
-0.1766265482300169   0.34611245695127196   0.07173783307590048
-0.1766265482300169   0.34611245695127196   0.07173783307590048
-0.1766265482300169   0.34611245695127196   0.07173783307590048
-1.43361550118414   0.11304440706789776   0.028166907008508324
-1.43361550118414   0.11304440706789776   0.028166907008508324
-1.43361550118414   0.11304440706789776   0.028166907008508324
-1.43361550118414   0.11304440706789776   0.028166907008508324
-0.17413332179983748   0.3460687525267275   0.0842476696513421
-0.17413332179983748   0.3460687525267275   0.0842476696513421
-0.17413332179983748   0.3460687525267275   0.0842476696513421
-0.17413332179983748   0.3460687525267275   0.0842476696513421
-2.821833297443841   -0.21181807162819638   -0.07270806060761771
-2.821833297443841   -0.21181807162819638   -0.07270806060761771
-2.821833297443841   -0.21181807162819638   -0.07270806060761771
-2.821833297443841   -0.21181807162819638   -0.07270806060761771
-2.946150766655647   -0.29898085282493664   -0.04694891883671308
-2.946150766655647   -0.29898085282493664   -0.04694891883671308
-2.946150766655647   -0.29898085282493664   -0.04694891883671308
-2.946150766655647   -0.29898085282493664   -0.04694891883671308
-0.3032715870008575   0.25019357192199176   0.0896346115149954
-0.3032715870008575   0.25019357192199176   0.0896346115149954
-0.3032715870008575   0.25019357192199176   0.0896346115149954
-0.3032715870008575   0.25019357192199176   0.0896346115149954
-1.5593404776256812   0.029603225792294907   -0.009409856358970764
-1.5593404776256812   0.029603225792294907   -0.009409856358970764
-1.5593404776256812   0.029603225792294907   -0.009409856358970764
-1.5593404776256812   0.029603225792294907   -0.009409856358970764
-0.2982844215130047   0.2607791684551948   0.10398484242105624
-0.2982844215130047   0.2607791684551948   0.10398484242105624
-0.2982844215130047   0.2607791684551948   0.10398484242105624
-0.2982844215130047   0.2607791684551948   0.10398484242105624
-2.950411915179775   -0.30884043239433356   -0.058395081887958805
-2.950411915179775   -0.30884043239433356   -0.058395081887958805
-2.950411915179775   -0.30884043239433356   -0.058395081887958805
-2.950411915179775   -0.30884043239433356   -0.058395081887958805
-3.06918592955941   -0.3764466414215029   -0.024499845986813942
-3.06918592955941   -0.3764466414215029   -0.024499845986813942
-3.06918592955941   -0.3764466414215029   -0.024499845986813942
-3.06918592955941   -0.3764466414215029   -0.024499845986813942
-0.43039525664347533   0.15742182076094083   0.10490375804864807
-0.43039525664347533   0.15742182076094083   0.10490375804864807
-0.43039525664347533   0.15742182076094083   0.10490375804864807
-0.43039525664347533   0.15742182076094083   0.10490375804864807
-1.6907842099798438   -0.05456478935956116   -0.051225375325519254
-1.6907842099798438   -0.05456478935956116   -0.051225375325519254
-1.6907842099798438   -0.05456478935956116   -0.051225375325519254
-1.6907842099798438   -0.05456478935956116   -0.051225375325519254
-2.5300679297243995   0.49705088906613626   0.13092580089755074
-2.5300679297243995   0.49705088906613626   0.13092580089755074
-2.5300679297243995   0.49705088906613626   0.13092580089755074
-2.5300679297243995   0.49705088906613626   0.13092580089755074
-5.174363167337949   -0.19843483038919985   -0.16179767088139269
-5.174363167337949   -0.19843483038919985   -0.16179767088139269
-5.174363167337949   -0.19843483038919985   -0.16179767088139269
-5.174363167337949   -0.19843483038919985   -0.16179767088139269
-5.242893679814876   -0.13197339464378643   0.016606188643380704
-5.242893679814876   -0.13197339464378643   0.016606188643380704
-5.242893679814876   -0.13197339464378643   0.016606188643380704
-5.242893679814876   -0.13197339464378643   0.016606188643380704
-2.7195907397604766   0.24818429471140624   -0.021497638530384083
-2.7195907397604766   0.24818429471140624   -0.021497638530384083
-2.7195907397604766   0.24818429471140624   -0.021497638530384083
-2.7195907397604766   0.24818429471140624   -0.021497638530384083
-3.891423684826637   0.1088023261116774   0.0477837204128711
-3.891423684826637   0.1088023261116774   0.0477837204128711
-3.891423684826637   0.1088023261116774   0.0477837204128711
-3.891423684826637   0.1088023261116774   0.0477837204128711
-2.6512085487046653   0.41396826345132653   0.15462934800873585
-2.6512085487046653   0.41396826345132653   0.15462934800873585
-2.6512085487046653   0.41396826345132653   0.15462934800873585
-2.6512085487046653   0.41396826345132653   0.15462934800873585
-5.310578556505151   -0.2970600490181735   -0.15673154043360835
-5.310578556505151   -0.2970600490181735   -0.15673154043360835
-5.310578556505151   -0.2970600490181735   -0.15673154043360835
-5.310578556505151   -0.2970600490181735   -0.15673154043360835
-5.387767328263714   -0.2176259240674835   0.025202697685945158
-5.387767328263714   -0.2176259240674835   0.025202697685945158
-5.387767328263714   -0.2176259240674835   0.025202697685945158
-5.387767328263714   -0.2176259240674835   0.025202697685945158
-2.845742726648906   0.15936396707923117   -0.0032535387071452038
-2.845742726648906   0.15936396707923117   -0.0032535387071452038
-2.845742726648906   0.15936396707923117   -0.0032535387071452038
-2.845742726648906   0.15936396707923117   -0.0032535387071452038
-3.998172991494275   0.03412856872500092   0.012754273459968102
-3.998172991494275   0.03412856872500092   0.012754273459968102
-3.998172991494275   0.03412856872500092   0.012754273459968102
-3.998172991494275   0.03412856872500092   0.012754273459968102
-2.774540438621064   0.3353360733550924   0.1767857951561744
-2.774540438621064   0.3353360733550924   0.1767857951561744
-2.774540438621064   0.3353360733550924   0.1767857951561744
-2.774540438621064   0.3353360733550924   0.1767857951561744
-5.455279308373485   -0.3899077224252784   -0.1400754045051136
-5.455279308373485   -0.3899077224252784   -0.1400754045051136
-5.455279308373485   -0.3899077224252784   -0.1400754045051136
-5.455279308373485   -0.3899077224252784   -0.1400754045051136
-5.51930025289594   -0.3096613202123282   0.05209481947411693
-5.51930025289594   -0.3096613202123282   0.05209481947411693
-5.51930025289594   -0.3096613202123282   0.05209481947411693
-5.51930025289594   -0.3096613202123282   0.05209481947411693
-2.975408242605438   0.05797350687983105   0.009968440481743057
-2.975408242605438   0.05797350687983105   0.009968440481743057
-2.975408242605438   0.05797350687983105   0.009968440481743057
-2.975408242605438   0.05797350687983105   0.009968440481743057
-4.159639720523491   -0.05902788379994017   -0.031527808598347556
-4.159639720523491   -0.05902788379994017   -0.031527808598347556
-4.159639720523491   -0.05902788379994017   -0.031527808598347556
-4.159639720523491   -0.05902788379994017   -0.031527808598347556
-4.976072408487147   0.4457134759547847   0.18550781702863767
-4.976072408487147   0.4457134759547847   0.18550781702863767
-4.976072408487147   0.4457134759547847   0.18550781702863767
-4.976072408487147   0.4457134759547847   0.18550781702863767
-7.525694939975372   -0.34657731524621305   -0.17968544657123625
-7.525694939975372   -0.34657731524621305   -0.17968544657123625
-7.525694939975372   -0.34657731524621305   -0.17968544657123625
-7.525694939975372   -0.34657731524621305   -0.17968544657123625
-7.611127504174429   -0.07011023430568963   0.17126649997345633
-7.611127504174429   -0.07011023430568963   0.17126649997345633
-7.611127504174429   -0.07011023430568963   0.17126649997345633
-7.611127504174429   -0.07011023430568963   0.17126649997345633
-5.216341943424778   0.12324827997582921   -0.10585680402574954
-5.216341943424778   0.12324827997582921   -0.10585680402574954
-5.216341943424778   0.12324827997582921   -0.10585680402574954
-5.216341943424778   0.12324827997582921   -0.10585680402574954
-6.052522678518459   0.1012391375906414   0.14748431433165915
-6.052522678518459   0.1012391375906414   0.14748431433165915
-6.052522678518459   0.1012391375906414   0.14748431433165915
-6.052522678518459   0.1012391375906414   0.14748431433165915
-5.087538233270136   0.4438636043542805   0.21754642236901356
-5.087538233270136   0.4438636043542805   0.21754642236901356
-5.087538233270136   0.4438636043542805   0.21754642236901356
-5.087538233270136   0.4438636043542805   0.21754642236901356
-7.737693680045714   -0.38848802440076646   -0.14318658928779265
-7.737693680045714   -0.38848802440076646   -0.14318658928779265
-7.737693680045714   -0.38848802440076646   -0.14318658928779265
-7.737693680045714   -0.38848802440076646   -0.14318658928779265
-7.80062989140626   -0.11524538749186686   0.21431699170811336
-7.80062989140626   -0.11524538749186686   0.21431699170811336
-7.80062989140626   -0.11524538749186686   0.21431699170811336
-7.80062989140626   -0.11524538749186686   0.21431699170811336
-5.352535552826919   0.0745388172473016   -0.09080316644486697
-5.352535552826919   0.0745388172473016   -0.09080316644486697
-5.352535552826919   0.0745388172473016   -0.09080316644486697
-5.352535552826919   0.0745388172473016   -0.09080316644486697
-6.315586915486973   0.05074473653099698   0.08880014843611295
-6.315586915486973   0.05074473653099698   0.08880014843611295
-6.315586915486973   0.05074473653099698   0.08880014843611295
-6.315586915486973   0.05074473653099698   0.08880014843611295
-5.215896223723901   0.4101870058054471   0.2567452905120798
-5.215896223723901   0.4101870058054471   0.2567452905120798
-5.215896223723901   0.4101870058054471   0.2567452905120798
-5.215896223723901   0.4101870058054471   0.2567452905120798
-7.933644189684536   -0.44726854522518567   -0.11873134194993151
-7.933644189684536   -0.44726854522518567   -0.11873134194993151
-7.933644189684536   -0.44726854522518567   -0.11873134194993151
-7.933644189684536   -0.44726854522518567   -0.11873134194993151
-8.05069386332925   -0.2746558262235672   0.21090543697954706
-8.05069386332925   -0.2746558262235672   0.21090543697954706
-8.05069386332925   -0.2746558262235672   0.21090543697954706
-8.05069386332925   -0.2746558262235672   0.21090543697954706
-5.496195010549332   -0.05980274045828704   -0.08223754854688481
-5.496195010549332   -0.05980274045828704   -0.08223754854688481
-5.496195010549332   -0.05980274045828704   -0.08223754854688481
-5.496195010549332   -0.05980274045828704   -0.08223754854688481
-6.385586398851243   -0.011663955379598523   0.06884356886563314
-6.385586398851243   -0.011663955379598523   0.06884356886563314
-6.385586398851243   -0.011663955379598523   0.06884356886563314
-6.385586398851243   -0.011663955379598523   0.06884356886563314
3.490871739142558   0.1962601867508238   -0.23961165518149052
3.490871739142558   0.1962601867508238   -0.23961165518149052
3.490871739142558   0.1962601867508238   -0.23961165518149052
3.490871739142558   0.1962601867508238   -0.23961165518149052
1.4912874701993986   0.09858780540975898   0.10349231402132285
1.4912874701993986   0.09858780540975898   0.10349231402132285
1.4912874701993986   0.09858780540975898   0.10349231402132285
1.4912874701993986   0.09858780540975898   0.10349231402132285
1.2438156613210485   -0.34782165998505604   -0.22315035119353824
1.2438156613210485   -0.34782165998505604   -0.22315035119353824
1.2438156613210485   -0.34782165998505604   -0.22315035119353824
1.2438156613210485   -0.34782165998505604   -0.22315035119353824
3.407106931016953   0.3988776707508851   0.1256631630415567
3.407106931016953   0.3988776707508851   0.1256631630415567
3.407106931016953   0.3988776707508851   0.1256631630415567
3.407106931016953   0.3988776707508851   0.1256631630415567
2.2806535405772816   0.05075751978961485   -0.06237511587869904
2.2806535405772816   0.05075751978961485   -0.06237511587869904
2.2806535405772816   0.05075751978961485   -0.06237511587869904
2.2806535405772816   0.05075751978961485   -0.06237511587869904
3.2689921520267102   0.05719758013585308   -0.22323064129465384
3.2689921520267102   0.05719758013585308   -0.22323064129465384
3.2689921520267102   0.05719758013585308   -0.22323064129465384
3.2689921520267102   0.05719758013585308   -0.22323064129465384
1.3793410963476536   -0.008730913333662549   0.11538607728811831
1.3793410963476536   -0.008730913333662549   0.11538607728811831
1.3793410963476536   -0.008730913333662549   0.11538607728811831
1.3793410963476536   -0.008730913333662549   0.11538607728811831
1.1382215245561997   -0.3885612206751634   -0.18970488444793704
1.1382215245561997   -0.3885612206751634   -0.18970488444793704
1.1382215245561997   -0.3885612206751634   -0.18970488444793704
1.1382215245561997   -0.3885612206751634   -0.18970488444793704
3.233495258655951   0.34111013880820773   0.16157236850345624
3.233495258655951   0.34111013880820773   0.16157236850345624
3.233495258655951   0.34111013880820773   0.16157236850345624
3.233495258655951   0.34111013880820773   0.16157236850345624
2.170652489463913   -0.016226311848425656   -0.10243291156353139
2.170652489463913   -0.016226311848425656   -0.10243291156353139
2.170652489463913   -0.016226311848425656   -0.10243291156353139
2.170652489463913   -0.016226311848425656   -0.10243291156353139
3.097739650275605   0.005053562033572989   -0.18114909662366013
3.097739650275605   0.005053562033572989   -0.18114909662366013
3.097739650275605   0.005053562033572989   -0.18114909662366013
3.097739650275605   0.005053562033572989   -0.18114909662366013
1.2701967347078995   -0.056285042129176455   0.13789498776458675
1.2701967347078995   -0.056285042129176455   0.13789498776458675
1.2701967347078995   -0.056285042129176455   0.13789498776458675
1.2701967347078995   -0.056285042129176455   0.13789498776458675
1.0437166794901653   -0.4263621945762523   -0.15803710639374152
1.0437166794901653   -0.4263621945762523   -0.15803710639374152
1.0437166794901653   -0.4263621945762523   -0.15803710639374152
1.0437166794901653   -0.4263621945762523   -0.15803710639374152
3.0310309393488257   0.2646158504963731   0.18410622355888256
3.0310309393488257   0.2646158504963731   0.18410622355888256
3.0310309393488257   0.2646158504963731   0.18410622355888256
3.0310309393488257   0.2646158504963731   0.18410622355888256
1.9869988765431064   -0.07149714799866552   -0.15702251818930718
1.9869988765431064   -0.07149714799866552   -0.15702251818930718
1.9869988765431064   -0.07149714799866552   -0.15702251818930718
1.9869988765431064   -0.07149714799866552   -0.15702251818930718
1.500040211601157   0.2901541129836308   -0.044310286543777624
1.500040211601157   0.2901541129836308   -0.044310286543777624
1.500040211601157   0.2901541129836308   -0.044310286543777624
1.500040211601157   0.2901541129836308   -0.044310286543777624
-0.46470130952713773   0.027147784881190185   0.01472348473084794
-0.46470130952713773   0.027147784881190185   0.01472348473084794
-0.46470130952713773   0.027147784881190185   0.01472348473084794
-0.46470130952713773   0.027147784881190185   0.01472348473084794
-0.6338703406968235   -0.24063337916264765   -0.13706009264024477
-0.6338703406968235   -0.24063337916264765   -0.13706009264024477
-0.6338703406968235   -0.24063337916264765   -0.13706009264024477
-0.6338703406968235   -0.24063337916264765   -0.13706009264024477
1.4572250446085924   0.3492605311982836   0.14681437406086656
1.4572250446085924   0.3492605311982836   0.14681437406086656
1.4572250446085924   0.3492605311982836   0.14681437406086656
1.4572250446085924   0.3492605311982836   0.14681437406086656
0.4544428508950674   0.10134686037470095   0.01732315452534286
0.4544428508950674   0.10134686037470095   0.01732315452534286
0.4544428508950674   0.10134686037470095   0.01732315452534286
0.4544428508950674   0.10134686037470095   0.01732315452534286
1.3905433379188021   0.18682887454213504   -0.024162502731956862
1.3905433379188021   0.18682887454213504   -0.024162502731956862
1.3905433379188021   0.18682887454213504   -0.024162502731956862
1.3905433379188021   0.18682887454213504   -0.024162502731956862
-0.568140608877587   -0.0791536973770563   0.030108884670346413
-0.568140608877587   -0.0791536973770563   0.030108884670346413
-0.568140608877587   -0.0791536973770563   0.030108884670346413
-0.568140608877587   -0.0791536973770563   0.030108884670346413
-0.7321240090180973   -0.32260747612627017   -0.11069608249810495
-0.7321240090180973   -0.32260747612627017   -0.11069608249810495
-0.7321240090180973   -0.32260747612627017   -0.11069608249810495
-0.7321240090180973   -0.32260747612627017   -0.11069608249810495
1.3367824935545998   0.2549318337272267   0.15960690614168543
1.3367824935545998   0.2549318337272267   0.15960690614168543
1.3367824935545998   0.2549318337272267   0.15960690614168543
1.3367824935545998   0.2549318337272267   0.15960690614168543
0.3335281046334911   0.009000654385047983   -0.02704259069190803
0.3335281046334911   0.009000654385047983   -0.02704259069190803
0.3335281046334911   0.009000654385047983   -0.02704259069190803
0.3335281046334911   0.009000654385047983   -0.02704259069190803
1.2722076447566057   0.09894247525343738   -0.007277979374515499
1.2722076447566057   0.09894247525343738   -0.007277979374515499
1.2722076447566057   0.09894247525343738   -0.007277979374515499
1.2722076447566057   0.09894247525343738   -0.007277979374515499
-0.6699974412700977   -0.16906639870243798   0.04639567881805973
-0.6699974412700977   -0.16906639870243798   0.04639567881805973
-0.6699974412700977   -0.16906639870243798   0.04639567881805973
-0.6699974412700977   -0.16906639870243798   0.04639567881805973
-0.8291060317263395   -0.4000263920993439   -0.08632803953998322
-0.8291060317263395   -0.4000263920993439   -0.08632803953998322
-0.8291060317263395   -0.4000263920993439   -0.08632803953998322
-0.8291060317263395   -0.4000263920993439   -0.08632803953998322
1.2280906222659638   0.16394969933915918   0.17352071356986673
1.2280906222659638   0.16394969933915918   0.17352071356986673
1.2280906222659638   0.16394969933915918   0.17352071356986673
1.2280906222659638   0.16394969933915918   0.17352071356986673
0.2360625907412297   -0.06805803383800514   -0.06635433700499348
0.2360625907412297   -0.06805803383800514   -0.06635433700499348
0.2360625907412297   -0.06805803383800514   -0.06635433700499348
0.2360625907412297   -0.06805803383800514   -0.06635433700499348
-0.3922273851124266   0.37070476448035766   0.033536127205235675
-0.3922273851124266   0.37070476448035766   0.033536127205235675
-0.3922273851124266   0.37070476448035766   0.033536127205235675
-0.3922273851124266   0.37070476448035766   0.033536127205235675
-2.392054679285683   -0.058279916217295946   -0.07250453316471152
-2.392054679285683   -0.058279916217295946   -0.07250453316471152
-2.392054679285683   -0.058279916217295946   -0.07250453316471152
-2.392054679285683   -0.058279916217295946   -0.07250453316471152
-2.4888463407253556   -0.14132936635010868   -0.053251490935664295
-2.4888463407253556   -0.14132936635010868   -0.053251490935664295
-2.4888463407253556   -0.14132936635010868   -0.053251490935664295
-2.4888463407253556   -0.14132936635010868   -0.053251490935664295
-0.4936958656769098   0.2664032389766706   0.056775664319989594
-0.4936958656769098   0.2664032389766706   0.056775664319989594
-0.4936958656769098   0.2664032389766706   0.056775664319989594
-0.4936958656769098   0.2664032389766706   0.056775664319989594
-1.4382253599957036   0.10776753305005582   0.028259133881419984
-1.4382253599957036   0.10776753305005582   0.028259133881419984
-1.4382253599957036   0.10776753305005582   0.028259133881419984
-1.4382253599957036   0.10776753305005582   0.028259133881419984
-0.4905517141200323   0.2806331578119179   0.05826650326914566
-0.4905517141200323   0.2806331578119179   0.05826650326914566
-0.4905517141200323   0.2806331578119179   0.05826650326914566
-0.4905517141200323   0.2806331578119179   0.05826650326914566
-2.4922270465311605   -0.1557958394342811   -0.055688546880518386
-2.4922270465311605   -0.1557958394342811   -0.055688546880518386
-2.4922270465311605   -0.1557958394342811   -0.055688546880518386
-2.4922270465311605   -0.1557958394342811   -0.055688546880518386
-2.5880892543119804   -0.23064167851495093   -0.02972397335859507
-2.5880892543119804   -0.23064167851495093   -0.02972397335859507
-2.5880892543119804   -0.23064167851495093   -0.02972397335859507
-2.5880892543119804   -0.23064167851495093   -0.02972397335859507
-0.5967842810749484   0.16932015948756948   0.07407492160379928
-0.5967842810749484   0.16932015948756948   0.07407492160379928
-0.5967842810749484   0.16932015948756948   0.07407492160379928
-0.5967842810749484   0.16932015948756948   0.07407492160379928
-1.5402726619850169   0.020931889485511113   -0.009943252877415376
-1.5402726619850169   0.020931889485511113   -0.009943252877415376
-1.5402726619850169   0.020931889485511113   -0.009943252877415376
-1.5402726619850169   0.020931889485511113   -0.009943252877415376
-0.5915093824801583   0.19047750444683045   0.0792920696184894
-0.5915093824801583   0.19047750444683045   0.0792920696184894
-0.5915093824801583   0.19047750444683045   0.0792920696184894
-0.5915093824801583   0.19047750444683045   0.0792920696184894
-2.5948929475029527   -0.2533278180703936   -0.04105629975801223
-2.5948929475029527   -0.2533278180703936   -0.04105629975801223
-2.5948929475029527   -0.2533278180703936   -0.04105629975801223
-2.5948929475029527   -0.2533278180703936   -0.04105629975801223
-2.6857094642956567   -0.31599903481841507   -0.006886312195949908
-2.6857094642956567   -0.31599903481841507   -0.006886312195949908
-2.6857094642956567   -0.31599903481841507   -0.006886312195949908
-2.6857094642956567   -0.31599903481841507   -0.006886312195949908
-0.6989591649949375   0.07496940683675268   0.08941049518092993
-0.6989591649949375   0.07496940683675268   0.08941049518092993
-0.6989591649949375   0.07496940683675268   0.08941049518092993
-0.6989591649949375   0.07496940683675268   0.08941049518092993
-1.646480408439827   -0.06601823166930992   -0.05132665667246954
-1.646480408439827   -0.06601823166930992   -0.05132665667246954
-1.646480408439827   -0.06601823166930992   -0.05132665667246954
-1.646480408439827   -0.06601823166930992   -0.05132665667246954
-2.256113936084175   0.43946533613578365   0.10945393048975022
-2.256113936084175   0.43946533613578365   0.10945393048975022
-2.256113936084175   0.43946533613578365   0.10945393048975022
-2.256113936084175   0.43946533613578365   0.10945393048975022
-4.283456846003582   -0.1430251251936353   -0.14818187828988674
-4.283456846003582   -0.1430251251936353   -0.14818187828988674
-4.283456846003582   -0.1430251251936353   -0.14818187828988674
-4.283456846003582   -0.1430251251936353   -0.14818187828988674
-4.319964877261054   -0.06024709837527775   0.03671953353677396
-4.319964877261054   -0.06024709837527775   0.03671953353677396
-4.319964877261054   -0.06024709837527775   0.03671953353677396
-4.319964877261054   -0.06024709837527775   0.03671953353677396
-2.4216694903917038   0.1733957554374136   -0.03209236105497365
-2.4216694903917038   0.1733957554374136   -0.03209236105497365
-2.4216694903917038   0.1733957554374136   -0.03209236105497365
-2.4216694903917038   0.1733957554374136   -0.03209236105497365
-3.3007749866569958   0.1034496371586694   0.04116093926937012
-3.3007749866569958   0.1034496371586694   0.04116093926937012
-3.3007749866569958   0.1034496371586694   0.04116093926937012
-3.3007749866569958   0.1034496371586694   0.04116093926937012
-2.352582359304565   0.3526944237269173   0.13404462609126014
-2.352582359304565   0.3526944237269173   0.13404462609126014
-2.352582359304565   0.3526944237269173   0.13404462609126014
-2.352582359304565   0.3526944237269173   0.13404462609126014
-4.39200856497155   -0.2425023232881407   -0.14124368010289956
-4.39200856497155   -0.2425023232881407   -0.14124368010289956
-4.39200856497155   -0.2425023232881407   -0.14124368010289956
-4.39200856497155   -0.2425023232881407   -0.14124368010289956
-4.436884500011465   -0.14867689970635312   0.04768390072749293
-4.436884500011465   -0.14867689970635312   0.04768390072749293
-4.436884500011465   -0.14867689970635312   0.04768390072749293
-4.436884500011465   -0.14867689970635312   0.04768390072749293
-2.521958780749076   0.08396870148182389   -0.013681985540880515
-2.521958780749076   0.08396870148182389   -0.013681985540880515
-2.521958780749076   0.08396870148182389   -0.013681985540880515
-2.521958780749076   0.08396870148182389   -0.013681985540880515
-3.3869960299140436   0.024533495988645737   0.0028117004619091224
-3.3869960299140436   0.024533495988645737   0.0028117004619091224
-3.3869960299140436   0.024533495988645737   0.0028117004619091224
-3.3869960299140436   0.024533495988645737   0.0028117004619091224
-2.4504016355477165   0.27058115119204396   0.15749129075572996
-2.4504016355477165   0.27058115119204396   0.15749129075572996
-2.4504016355477165   0.27058115119204396   0.15749129075572996
-2.4504016355477165   0.27058115119204396   0.15749129075572996
-4.508666642686009   -0.335514346889762   -0.12438936546187729
-4.508666642686009   -0.335514346889762   -0.12438936546187729
-4.508666642686009   -0.335514346889762   -0.12438936546187729
-4.508666642686009   -0.335514346889762   -0.12438936546187729
-4.541109821830924   -0.24272134333742068   0.0721957686209701
-4.541109821830924   -0.24272134333742068   0.0721957686209701
-4.541109821830924   -0.24272134333742068   0.0721957686209701
-4.541109821830924   -0.24272134333742068   0.0721957686209701
-2.623977549614578   -0.015015097535631239   0.0007893239266135166
-2.623977549614578   -0.015015097535631239   0.0007893239266135166
-2.623977549614578   -0.015015097535631239   0.0007893239266135166
-2.623977549614578   -0.015015097535631239   0.0007893239266135166
-3.5155425440558616   -0.06667226970404583   -0.04154375095673524
-3.5155425440558616   -0.06667226970404583   -0.04154375095673524
-3.5155425440558616   -0.06667226970404583   -0.04154375095673524
-3.5155425440558616   -0.06667226970404583   -0.04154375095673524
-4.109333636250102   0.4070948698915535   0.17231417539232746
-4.109333636250102   0.4070948698915535   0.17231417539232746
-4.109333636250102   0.4070948698915535   0.17231417539232746
-4.109333636250102   0.4070948698915535   0.17231417539232746
-6.057908363493931   -0.27813547932863103   -0.19378624730864402
-6.057908363493931   -0.27813547932863103   -0.19378624730864402
-6.057908363493931   -0.27813547932863103   -0.19378624730864402
-6.057908363493931   -0.27813547932863103   -0.19378624730864402
-6.117567292618872   -0.0016399165291953732   0.17092756264346703
-6.117567292618872   -0.0016399165291953732   0.17092756264346703
-6.117567292618872   -0.0016399165291953732   0.17092756264346703
-6.117567292618872   -0.0016399165291953732   0.17092756264346703
-4.327111679533776   0.057538536462518275   -0.11680011266469487
-4.327111679533776   0.057538536462518275   -0.11680011266469487
-4.327111679533776   0.057538536462518275   -0.11680011266469487
-4.327111679533776   0.057538536462518275   -0.11680011266469487
-4.926554696096468   0.09543377845809631   0.12407368787901962
-4.926554696096468   0.09543377845809631   0.12407368787901962
-4.926554696096468   0.09543377845809631   0.12407368787901962
-4.926554696096468   0.09543377845809631   0.12407368787901962
-4.196820346399012   0.3889691484003479   0.20322594107132358
-4.196820346399012   0.3889691484003479   0.20322594107132358
-4.196820346399012   0.3889691484003479   0.20322594107132358
-4.196820346399012   0.3889691484003479   0.20322594107132358
-6.250362828859886   -0.33557473157326423   -0.15911530351749797
-6.250362828859886   -0.33557473157326423   -0.15911530351749797
-6.250362828859886   -0.33557473157326423   -0.15911530351749797
-6.250362828859886   -0.33557473157326423   -0.15911530351749797
-6.28255140547256   -0.050203985303599374   0.21549867344626983
-6.28255140547256   -0.050203985303599374   0.21549867344626983
-6.28255140547256   -0.050203985303599374   0.21549867344626983
-6.28255140547256   -0.050203985303599374   0.21549867344626983
-4.434914048604162   0.00848630852444221   -0.09962705046690695
-4.434914048604162   0.00848630852444221   -0.09962705046690695
-4.434914048604162   0.00848630852444221   -0.09962705046690695
-4.434914048604162   0.00848630852444221   -0.09962705046690695
-5.147887175128187   0.039501153099025244   0.06411310140963311
-5.147887175128187   0.039501153099025244   0.06411310140963311
-5.147887175128187   0.039501153099025244   0.06411310140963311
-5.147887175128187   0.039501153099025244   0.06411310140963311
-4.298493066140687   0.3514173182904392   0.23954685208458937
-4.298493066140687   0.3514173182904392   0.23954685208458937
-4.298493066140687   0.3514173182904392   0.23954685208458937
-4.298493066140687   0.3514173182904392   0.23954685208458937
-6.420790369762623   -0.3949529768961646   -0.13094715641147953
-6.420790369762623   -0.3949529768961646   -0.13094715641147953
-6.420790369762623   -0.3949529768961646   -0.13094715641147953
-6.420790369762623   -0.3949529768961646   -0.13094715641147953
-6.503272769755029   -0.20147026288942538   0.21650259850312048
-6.503272769755029   -0.20147026288942538   0.21650259850312048
-6.503272769755029   -0.20147026288942538   0.21650259850312048
-6.503272769755029   -0.20147026288942538   0.21650259850312048
-4.547612430359824   -0.11496913645196194   -0.08806948090908026
-4.547612430359824   -0.11496913645196194   -0.08806948090908026
-4.547612430359824   -0.11496913645196194   -0.08806948090908026
-4.547612430359824   -0.11496913645196194   -0.08806948090908026
-5.212135155591512   -0.024016789487929735   0.035287549511764715
-5.212135155591512   -0.024016789487929735   0.035287549511764715
-5.212135155591512   -0.024016789487929735   0.035287549511764715
-5.212135155591512   -0.024016789487929735   0.035287549511764715
1.897964007760547   0.11253797808931643   -0.23343336014203825
1.897964007760547   0.11253797808931643   -0.23343336014203825
1.897964007760547   0.11253797808931643   -0.23343336014203825
1.897964007760547   0.11253797808931643   -0.23343336014203825
0.5450422598173486   0.1413555271444186   0.11221737922479645
0.5450422598173486   0.1413555271444186   0.11221737922479645
0.5450422598173486   0.1413555271444186   0.11221737922479645
0.5450422598173486   0.1413555271444186   0.11221737922479645
0.3274123293058535   -0.2833270179661602   -0.20566567883256998
0.3274123293058535   -0.2833270179661602   -0.20566567883256998
0.3274123293058535   -0.2833270179661602   -0.20566567883256998
0.3274123293058535   -0.2833270179661602   -0.20566567883256998
1.8440942756960244   0.3277029606222561   0.13504490340777545
1.8440942756960244   0.3277029606222561   0.13504490340777545
1.8440942756960244   0.3277029606222561   0.13504490340777545
1.8440942756960244   0.3277029606222561   0.13504490340777545
1.0859525766493487   0.05450597230851209   -0.0253377436998593
1.0859525766493487   0.05450597230851209   -0.0253377436998593
1.0859525766493487   0.05450597230851209   -0.0253377436998593
1.0859525766493487   0.05450597230851209   -0.0253377436998593
1.7069871534749763   -0.009030388984034687   -0.21375735809118784
1.7069871534749763   -0.009030388984034687   -0.21375735809118784
1.7069871534749763   -0.009030388984034687   -0.21375735809118784
1.7069871534749763   -0.009030388984034687   -0.21375735809118784
0.4602367316639119   0.04912361177715936   0.12600570321440405
0.4602367316639119   0.04912361177715936   0.12600570321440405
0.4602367316639119   0.04912361177715936   0.12600570321440405
0.4602367316639119   0.04912361177715936   0.12600570321440405
0.24517565459755636   -0.32375877227416283   -0.17445258285000195
0.24517565459755636   -0.32375877227416283   -0.17445258285000195
0.24517565459755636   -0.32375877227416283   -0.17445258285000195
0.24517565459755636   -0.32375877227416283   -0.17445258285000195
1.696292450966586   0.27188012068403505   0.17317047022493826
1.696292450966586   0.27188012068403505   0.17317047022493826
1.696292450966586   0.27188012068403505   0.17317047022493826
1.696292450966586   0.27188012068403505   0.17317047022493826
0.9820927675929395   -0.008518797038033044   -0.06642355513384662
0.9820927675929395   -0.008518797038033044   -0.06642355513384662
0.9820927675929395   -0.008518797038033044   -0.06642355513384662
0.9820927675929395   -0.008518797038033044   -0.06642355513384662
1.5600563361403739   -0.060931763366682934   -0.1751982198554199
1.5600563361403739   -0.060931763366682934   -0.1751982198554199
1.5600563361403739   -0.060931763366682934   -0.1751982198554199
1.5600563361403739   -0.060931763366682934   -0.1751982198554199
0.3757022533828521   0.003343595735637167   0.15107804306668277
0.3757022533828521   0.003343595735637167   0.15107804306668277
0.3757022533828521   0.003343595735637167   0.15107804306668277
0.3757022533828521   0.003343595735637167   0.15107804306668277
0.17157943058620506   -0.3731354050986828   -0.14519854565365342
0.17157943058620506   -0.3731354050986828   -0.14519854565365342
0.17157943058620506   -0.3731354050986828   -0.14519854565365342
0.17157943058620506   -0.3731354050986828   -0.14519854565365342
1.5134459064136125   0.18216726488204818   0.1920049380843911
1.5134459064136125   0.18216726488204818   0.1920049380843911
1.5134459064136125   0.18216726488204818   0.1920049380843911
1.5134459064136125   0.18216726488204818   0.1920049380843911
0.8401310776908916   -0.06490633864659678   -0.11637053030961972
0.8401310776908916   -0.06490633864659678   -0.11637053030961972
0.8401310776908916   -0.06490633864659678   -0.11637053030961972
0.8401310776908916   -0.06490633864659678   -0.11637053030961972
0.5222142563649971   0.20789398244580232   -0.06846109333834878
0.5222142563649971   0.20789398244580232   -0.06846109333834878
0.5222142563649971   0.20789398244580232   -0.06846109333834878
0.5222142563649971   0.20789398244580232   -0.06846109333834878
-0.7885826694841145   0.0687331953935032   0.027705168386076243
-0.7885826694841145   0.0687331953935032   0.027705168386076243
-0.7885826694841145   0.0687331953935032   0.027705168386076243
-0.7885826694841145   0.0687331953935032   0.027705168386076243
-0.9286995620625025   -0.181237926561043   -0.11975330806467167
-0.9286995620625025   -0.181237926561043   -0.11975330806467167
-0.9286995620625025   -0.181237926561043   -0.11975330806467167
-0.9286995620625025   -0.181237926561043   -0.11975330806467167
0.5022754155023917   0.2582748577091982   0.12704787647476484
0.5022754155023917   0.2582748577091982   0.12704787647476484
0.5022754155023917   0.2582748577091982   0.12704787647476484
0.5022754155023917   0.2582748577091982   0.12704787647476484
-0.1776891279117358   0.08472035133296106   0.021060111285741465
-0.1776891279117358   0.08472035133296106   0.021060111285741465
-0.1776891279117358   0.08472035133296106   0.021060111285741465
-0.1776891279117358   0.08472035133296106   0.021060111285741465
0.43626671189224536   0.10563486089121876   -0.05035564475798783
0.43626671189224536   0.10563486089121876   -0.05035564475798783
0.43626671189224536   0.10563486089121876   -0.05035564475798783
0.43626671189224536   0.10563486089121876   -0.05035564475798783
-0.8663154143940293   -0.03222248568475716   0.04315198940140898
-0.8663154143940293   -0.03222248568475716   0.04315198940140898
-0.8663154143940293   -0.03222248568475716   0.04315198940140898
-0.8663154143940293   -0.03222248568475716   0.04315198940140898
-1.002290046409093   -0.2635230293395392   -0.09359486922845137
-1.002290046409093   -0.2635230293395392   -0.09359486922845137
-1.002290046409093   -0.2635230293395392   -0.09359486922845137
-1.002290046409093   -0.2635230293395392   -0.09359486922845137
0.40571452087238913   0.16600536462444454   0.13847761162556038
0.40571452087238913   0.16600536462444454   0.13847761162556038
0.40571452087238913   0.16600536462444454   0.13847761162556038
0.40571452087238913   0.16600536462444454   0.13847761162556038
-0.2684862435797583   -0.0037911261478981648   -0.021325808039034243
-0.2684862435797583   -0.0037911261478981648   -0.021325808039034243
-0.2684862435797583   -0.0037911261478981648   -0.021325808039034243
-0.2684862435797583   -0.0037911261478981648   -0.021325808039034243
0.3416773070906581   0.017373997228641677   -0.03307708988729792
0.3416773070906581   0.017373997228641677   -0.03307708988729792
0.3416773070906581   0.017373997228641677   -0.03307708988729792
0.3416773070906581   0.017373997228641677   -0.03307708988729792
-0.9429403663808072   -0.11957919569715972   0.05920969727061275
-0.9429403663808072   -0.11957919569715972   0.05920969727061275
-0.9429403663808072   -0.11957919569715972   0.05920969727061275
-0.9429403663808072   -0.11957919569715972   0.05920969727061275
-1.0753341454831997   -0.34542820143899683   -0.06994402257187243
-1.0753341454831997   -0.34542820143899683   -0.06994402257187243
-1.0753341454831997   -0.34542820143899683   -0.06994402257187243
-1.0753341454831997   -0.34542820143899683   -0.06994402257187243
0.32117587661760477   0.07512019236513062   0.1545280870395358
0.32117587661760477   0.07512019236513062   0.1545280870395358
0.32117587661760477   0.07512019236513062   0.1545280870395358
0.32117587661760477   0.07512019236513062   0.1545280870395358
-0.3473076163060595   -0.08338037028714163   -0.06144549216835339
-0.3473076163060595   -0.08338037028714163   -0.06144549216835339
-0.3473076163060595   -0.08338037028714163   -0.06144549216835339
-0.3473076163060595   -0.08338037028714163   -0.06144549216835339
-0.7485042369520281   0.28691432014198315   0.00991620629802846
-0.7485042369520281   0.28691432014198315   0.00991620629802846
-0.7485042369520281   0.28691432014198315   0.00991620629802846
-0.7485042369520281   0.28691432014198315   0.00991620629802846
-2.105162135059191   -0.023580633233127923   -0.057483805783768466
-2.105162135059191   -0.023580633233127923   -0.057483805783768466
-2.105162135059191   -0.023580633233127923   -0.057483805783768466
-2.105162135059191   -0.023580633233127923   -0.057483805783768466
-2.17134356795749   -0.08731531236933943   -0.03416939012948006
-2.17134356795749   -0.08731531236933943   -0.03416939012948006
-2.17134356795749   -0.08731531236933943   -0.03416939012948006
-2.17134356795749   -0.08731531236933943   -0.03416939012948006
-0.8264492107179867   0.16989608419688584   0.04036443789997832
-0.8264492107179867   0.16989608419688584   0.04036443789997832
-0.8264492107179867   0.16989608419688584   0.04036443789997832
-0.8264492107179867   0.16989608419688584   0.04036443789997832
-1.4594375542848756   0.0847394673769018   0.021945062989287847
-1.4594375542848756   0.0847394673769018   0.021945062989287847
-1.4594375542848756   0.0847394673769018   0.021945062989287847
-1.4594375542848756   0.0847394673769018   0.021945062989287847
-0.8224028431611409   0.19617098549337103   0.03432137438772262
-0.8224028431611409   0.19617098549337103   0.03432137438772262
-0.8224028431611409   0.19617098549337103   0.03432137438772262
-0.8224028431611409   0.19617098549337103   0.03432137438772262
-2.1785541329849694   -0.11675441113645785   -0.040783116499757355
-2.1785541329849694   -0.11675441113645785   -0.040783116499757355
-2.1785541329849694   -0.11675441113645785   -0.040783116499757355
-2.1785541329849694   -0.11675441113645785   -0.040783116499757355
-2.244593650667899   -0.17714295699581506   -0.010431291220172889
-2.244593650667899   -0.17714295699581506   -0.010431291220172889
-2.244593650667899   -0.17714295699581506   -0.010431291220172889
-2.244593650667899   -0.17714295699581506   -0.010431291220172889
-0.9041436124317874   0.07631952032309439   0.057294750995426885
-0.9041436124317874   0.07631952032309439   0.057294750995426885
-0.9041436124317874   0.07631952032309439   0.057294750995426885
-0.9041436124317874   0.07631952032309439   0.057294750995426885
-1.5358856216527486   -0.0005179486017925505   -0.016091589127166184
-1.5358856216527486   -0.0005179486017925505   -0.016091589127166184
-1.5358856216527486   -0.0005179486017925505   -0.016091589127166184
-1.5358856216527486   -0.0005179486017925505   -0.016091589127166184
-0.8987209412743402   0.10521947379007399   0.055508153315713626
-0.8987209412743402   0.10521947379007399   0.055508153315713626
-0.8987209412743402   0.10521947379007399   0.055508153315713626
-0.8987209412743402   0.10521947379007399   0.055508153315713626
-2.2545186188360558   -0.21054520747349925   -0.026653881583272615
-2.2545186188360558   -0.21054520747349925   -0.026653881583272615
-2.2545186188360558   -0.21054520747349925   -0.026653881583272615
-2.2545186188360558   -0.21054520747349925   -0.026653881583272615
-2.316474484970038   -0.2639137134603366   0.012510213670583623
-2.316474484970038   -0.2639137134603366   0.012510213670583623
-2.316474484970038   -0.2639137134603366   0.012510213670583623
-2.316474484970038   -0.2639137134603366   0.012510213670583623
-0.980462784903622   -0.013863728182065105   0.07284830706906872
-0.980462784903622   -0.013863728182065105   0.07284830706906872
-0.980462784903622   -0.013863728182065105   0.07284830706906872
-0.980462784903622   -0.013863728182065105   0.07284830706906872
-1.6162902866340048   -0.08599896363397275   -0.057372859749118155
-1.6162902866340048   -0.08599896363397275   -0.057372859749118155
-1.6162902866340048   -0.08599896363397275   -0.057372859749118155
-1.6162902866340048   -0.08599896363397275   -0.057372859749118155
-1.9985922176173065   0.36161767148341867   0.09016747670910677
-1.9985922176173065   0.36161767148341867   0.09016747670910677
-1.9985922176173065   0.36161767148341867   0.09016747670910677
-1.9985922176173065   0.36161767148341867   0.09016747670910677
-3.391513491398401   -0.09890170322338088   -0.1317632427871951
-3.391513491398401   -0.09890170322338088   -0.1317632427871951
-3.391513491398401   -0.09890170322338088   -0.1317632427871951
-3.391513491398401   -0.09890170322338088   -0.1317632427871951
-3.3981152796694047   -0.004142331462495985   0.05666299372317973
-3.3981152796694047   -0.004142331462495985   0.05666299372317973
-3.3981152796694047   -0.004142331462495985   0.05666299372317973
-3.3981152796694047   -0.004142331462495985   0.05666299372317973
-2.1380033651889243   0.08712686375589096   -0.04191055241190986
-2.1380033651889243   0.08712686375589096   -0.04191055241190986
-2.1380033651889243   0.08712686375589096   -0.04191055241190986
-2.1380033651889243   0.08712686375589096   -0.04191055241190986
-2.717823702930363   0.0863303023684493   0.029094304698457057
-2.717823702930363   0.0863303023684493   0.029094304698457057
-2.717823702930363   0.0863303023684493   0.029094304698457057
-2.717823702930363   0.0863303023684493   0.029094304698457057
-2.069478431608767   0.2731838627116495   0.11465711653314642
-2.069478431608767   0.2731838627116495   0.11465711653314642
-2.069478431608767   0.2731838627116495   0.11465711653314642
-2.069478431608767   0.2731838627116495   0.11465711653314642
-3.4727340395742927   -0.19629315674295988   -0.12427998052079534
-3.4727340395742927   -0.19629315674295988   -0.12427998052079534
-3.4727340395742927   -0.19629315674295988   -0.12427998052079534
-3.4727340395742927   -0.19629315674295988   -0.12427998052079534
-3.488251712632331   -0.09265818414805893   0.06947651819296052
-3.488251712632331   -0.09265818414805893   0.06947651819296052
-3.488251712632331   -0.09265818414805893   0.06947651819296052
-3.488251712632331   -0.09265818414805893   0.06947651819296052
-2.211638523464501   0.0010420834744547802   -0.023840695673481904
-2.211638523464501   0.0010420834744547802   -0.023840695673481904
-2.211638523464501   0.0010420834744547802   -0.023840695673481904
-2.211638523464501   0.0010420834744547802   -0.023840695673481904
-2.782965619924914   0.006777141354930127   -0.010813598287671228
-2.782965619924914   0.006777141354930127   -0.010813598287671228
-2.782965619924914   0.006777141354930127   -0.010813598287671228
-2.782965619924914   0.006777141354930127   -0.010813598287671228
-2.1412862488895374   0.19052679758089341   0.13843596309492823
-2.1412862488895374   0.19052679758089341   0.13843596309492823
-2.1412862488895374   0.19052679758089341   0.13843596309492823
-2.1412862488895374   0.19052679758089341   0.13843596309492823
-3.562397395609641   -0.2859363066568489   -0.10797377418486032
-3.562397395609641   -0.2859363066568489   -0.10797377418486032
-3.562397395609641   -0.2859363066568489   -0.10797377418486032
-3.562397395609641   -0.2859363066568489   -0.10797377418486032
-3.566204665328199   -0.18476792248559892   0.0942523148905188
-3.566204665328199   -0.18476792248559892   0.0942523148905188
-3.566204665328199   -0.18476792248559892   0.0942523148905188
-3.566204665328199   -0.18476792248559892   0.0942523148905188
-2.286172981743221   -0.09085022582141222   -0.009045757834289
-2.286172981743221   -0.09085022582141222   -0.009045757834289
-2.286172981743221   -0.09085022582141222   -0.009045757834289
-2.286172981743221   -0.09085022582141222   -0.009045757834289
-2.8793419054135927   -0.07961273696272164   -0.05419496617317379
-2.8793419054135927   -0.07961273696272164   -0.05419496617317379
-2.8793419054135927   -0.07961273696272164   -0.05419496617317379
-2.8793419054135927   -0.07961273696272164   -0.05419496617317379
-3.2422789027788186   0.3557077180779997   0.1598002790093962
-3.2422789027788186   0.3557077180779997   0.1598002790093962
-3.2422789027788186   0.3557077180779997   0.1598002790093962
-3.2422789027788186   0.3557077180779997   0.1598002790093962
-4.555184912963729   -0.20874729441607376   -0.20126581597770626
-4.555184912963729   -0.20874729441607376   -0.20126581597770626
-4.555184912963729   -0.20874729441607376   -0.20126581597770626
-4.555184912963729   -0.20874729441607376   -0.20126581597770626
-4.589037880560147   0.06212115397807394   0.1680391759394539
-4.589037880560147   0.06212115397807394   0.1680391759394539
-4.589037880560147   0.06212115397807394   0.1680391759394539
-4.589037880560147   0.06212115397807394   0.1680391759394539
-3.435626606438672   -0.011858705362614241   -0.12317726622309597
-3.435626606438672   -0.011858705362614241   -0.12317726622309597
-3.435626606438672   -0.011858705362614241   -0.12317726622309597
-3.435626606438672   -0.011858705362614241   -0.12317726622309597
-3.7858484321380392   0.08620804773640567   0.09099840409313673
-3.7858484321380392   0.08620804773640567   0.09099840409313673
-3.7858484321380392   0.08620804773640567   0.09099840409313673
-3.7858484321380392   0.08620804773640567   0.09099840409313673
-3.3062495155652476   0.322867406954517   0.1889820758268923
-3.3062495155652476   0.322867406954517   0.1889820758268923
-3.3062495155652476   0.322867406954517   0.1889820758268923
-3.3062495155652476   0.322867406954517   0.1889820758268923
-4.724885363085002   -0.27907534999049355   -0.170001732716162
-4.724885363085002   -0.27907534999049355   -0.170001732716162
-4.724885363085002   -0.27907534999049355   -0.170001732716162
-4.724885363085002   -0.27907534999049355   -0.170001732716162
-4.7292450342978185   0.012489751896906265   0.2147211520889466
-4.7292450342978185   0.012489751896906265   0.2147211520889466
-4.7292450342978185   0.012489751896906265   0.2147211520889466
-4.7292450342978185   0.012489751896906265   0.2147211520889466
-3.516755849835009   -0.0598972006201679   -0.10580515134838167
-3.516755849835009   -0.0598972006201679   -0.10580515134838167
-3.516755849835009   -0.0598972006201679   -0.10580515134838167
-3.516755849835009   -0.0598972006201679   -0.10580515134838167
-3.964348460330027   0.027406256218596492   0.03189133517864953
-3.964348460330027   0.027406256218596492   0.03189133517864953
-3.964348460330027   0.027406256218596492   0.03189133517864953
-3.964348460330027   0.027406256218596492   0.03189133517864953
-3.3818389324925797   0.2840026573240547   0.22487957741957348
-3.3818389324925797   0.2840026573240547   0.22487957741957348
-3.3818389324925797   0.2840026573240547   0.22487957741957348
-3.3818389324925797   0.2840026573240547   0.22487957741957348
-4.870314916494777   -0.3375630709018361   -0.14057543609707732
-4.870314916494777   -0.3375630709018361   -0.14057543609707732
-4.870314916494777   -0.3375630709018361   -0.14057543609707732
-4.870314916494777   -0.3375630709018361   -0.14057543609707732
-4.923282999532196   -0.12810455364773754   0.2219240022842914
-4.923282999532196   -0.12810455364773754   0.2219240022842914
-4.923282999532196   -0.12810455364773754   0.2219240022842914
-4.923282999532196   -0.12810455364773754   0.2219240022842914
-3.600422623588561   -0.16934486703970208   -0.09226053185721497
-3.600422623588561   -0.16934486703970208   -0.09226053185721497
-3.600422623588561   -0.16934486703970208   -0.09226053185721497
-3.600422623588561   -0.16934486703970208   -0.09226053185721497
-4.023594356236052   -0.034910637028528924   -0.0034965593901131187
-4.023594356236052   -0.034910637028528924   -0.0034965593901131187
-4.023594356236052   -0.034910637028528924   -0.0034965593901131187
-4.023594356236052   -0.034910637028528924   -0.0034965593901131187
0.31079378494815424   0.02565749890871918   -0.23202428708450634
0.31079378494815424   0.02565749890871918   -0.23202428708450634
0.31079378494815424   0.02565749890871918   -0.23202428708450634
0.31079378494815424   0.02565749890871918   -0.23202428708450634
-0.39627556683232484   0.1747271896057484   0.11911427450609095
-0.39627556683232484   0.1747271896057484   0.11911427450609095
-0.39627556683232484   0.1747271896057484   0.11911427450609095
-0.39627556683232484   0.1747271896057484   0.11911427450609095
-0.5853158456529232   -0.22251366019657934   -0.1866280793374544
-0.5853158456529232   -0.22251366019657934   -0.1866280793374544
-0.5853158456529232   -0.22251366019657934   -0.1866280793374544
-0.5853158456529232   -0.22251366019657934   -0.1866280793374544
0.282145895170195   0.24313368276568315   0.1465056298140192
0.282145895170195   0.24313368276568315   0.1465056298140192
0.282145895170195   0.24313368276568315   0.1465056298140192
0.282145895170195   0.24313368276568315   0.1465056298140192
-0.10379774442230419   0.05331122106628526   0.020337243674933243
-0.10379774442230419   0.05331122106628526   0.020337243674933243
-0.10379774442230419   0.05331122106628526   0.020337243674933243
-0.10379774442230419   0.05331122106628526   0.020337243674933243
0.14674533647592453   -0.08020708673470742   -0.20715639415694254
0.14674533647592453   -0.08020708673470742   -0.20715639415694254
0.14674533647592453   -0.08020708673470742   -0.20715639415694254
0.14674533647592453   -0.08020708673470742   -0.20715639415694254
-0.45797926677068335   0.09276312949178066   0.134778025385385
-0.45797926677068335   0.09276312949178066   0.134778025385385
-0.45797926677068335   0.09276312949178066   0.134778025385385
-0.45797926677068335   0.09276312949178066   0.134778025385385
-0.6474616880410868   -0.263100564353038   -0.15797881595263136
-0.6474616880410868   -0.263100564353038   -0.15797881595263136
-0.6474616880410868   -0.263100564353038   -0.15797881595263136
-0.6474616880410868   -0.263100564353038   -0.15797881595263136
0.15385954689669554   0.18790933118668612   0.20066284190551956
0.15385954689669554   0.18790933118668612   0.20066284190551956
0.15385954689669554   0.18790933118668612   0.20066284190551956
0.15385954689669554   0.18790933118668612   0.20066284190551956
-0.20550624116355157   -0.007460900388232501   -0.026674043625874756
-0.20550624116355157   -0.007460900388232501   -0.026674043625874756
-0.20550624116355157   -0.007460900388232501   -0.026674043625874756
-0.20550624116355157   -0.007460900388232501   -0.026674043625874756
0.01540285816221559   -0.13306178836490712   -0.17064948221527937
0.01540285816221559   -0.13306178836490712   -0.17064948221527937
0.01540285816221559   -0.13306178836490712   -0.17064948221527937
0.01540285816221559   -0.13306178836490712   -0.17064948221527937
-0.5201673619528248   0.04670819255233748   0.1686840575832966
-0.5201673619528248   0.04670819255233748   0.1686840575832966
-0.5201673619528248   0.04670819255233748   0.1686840575832966
-0.5201673619528248   0.04670819255233748   0.1686840575832966
-0.7043989222286333   -0.32596340698317827   -0.1308035925993728
-0.7043989222286333   -0.32596340698317827   -0.1308035925993728
-0.7043989222286333   -0.32596340698317827   -0.1308035925993728
-0.7043989222286333   -0.32596340698317827   -0.1308035925993728
-0.024284911001798616   0.07183076683321349   0.2285216063815272
-0.024284911001798616   0.07183076683321349   0.2285216063815272
-0.024284911001798616   0.07183076683321349   0.2285216063815272
-0.024284911001798616   0.07183076683321349   0.2285216063815272
-0.31368475444039795   -0.06885142246200734   -0.08068010345919086
-0.31368475444039795   -0.06885142246200734   -0.08068010345919086
-0.31368475444039795   -0.06885142246200734   -0.08068010345919086
-0.31368475444039795   -0.06885142246200734   -0.08068010345919086
-0.4512024781036705   0.11209131795283242   -0.09288441019772152
-0.4512024781036705   0.11209131795283242   -0.09288441019772152
-0.4512024781036705   0.11209131795283242   -0.09288441019772152
-0.4512024781036705   0.11209131795283242   -0.09288441019772152
-1.1156664605265627   0.0468302355307835   0.031320987124164756
-1.1156664605265627   0.0468302355307835   0.031320987124164756
-1.1156664605265627   0.0468302355307835   0.031320987124164756
-1.1156664605265627   0.0468302355307835   0.031320987124164756
-1.2129230318755297   -0.1295378288495006   -0.09681710894080757
-1.2129230318755297   -0.1295378288495006   -0.09681710894080757
-1.2129230318755297   -0.1295378288495006   -0.09681710894080757
-1.2129230318755297   -0.1295378288495006   -0.09681710894080757
-0.46340691551587865   0.10805028691913193   0.0923526242320569
-0.46340691551587865   0.10805028691913193   0.0923526242320569
-0.46340691551587865   0.10805028691913193   0.0923526242320569
-0.46340691551587865   0.10805028691913193   0.0923526242320569
-0.8090429755869958   0.0321523500866045   0.016949950150115647
-0.8090429755869958   0.0321523500866045   0.016949950150115647
-0.8090429755869958   0.0321523500866045   0.016949950150115647
-0.8090429755869958   0.0321523500866045   0.016949950150115647
-0.515946154762362   0.013968592787540313   -0.07626187786877071
-0.515946154762362   0.013968592787540313   -0.07626187786877071
-0.515946154762362   0.013968592787540313   -0.07626187786877071
-0.515946154762362   0.013968592787540313   -0.07626187786877071
-1.1669625600107378   -0.042034902099603255   0.04548232363324006
-1.1669625600107378   -0.042034902099603255   0.04548232363324006
-1.1669625600107378   -0.042034902099603255   0.04548232363324006
-1.1669625600107378   -0.042034902099603255   0.04548232363324006
-1.2612425161692038   -0.20933265820033464   -0.07125546545674222
-1.2612425161692038   -0.20933265820033464   -0.07125546545674222
-1.2612425161692038   -0.20933265820033464   -0.07125546545674222
-1.2612425161692038   -0.20933265820033464   -0.07125546545674222
-0.5384421918053143   0.019904405327569902   0.10411369554561666
-0.5384421918053143   0.019904405327569902   0.10411369554561666
-0.5384421918053143   0.019904405327569902   0.10411369554561666
-0.5384421918053143   0.019904405327569902   0.10411369554561666
-0.870098133593108   -0.04776712693821583   -0.02308675814312225
-0.870098133593108   -0.04776712693821583   -0.02308675814312225
-0.870098133593108   -0.04776712693821583   -0.02308675814312225
-0.870098133593108   -0.04776712693821583   -0.02308675814312225
-0.5890409545977692   -0.07203032951042941   -0.05694538357865096
-0.5890409545977692   -0.07203032951042941   -0.05694538357865096
-0.5890409545977692   -0.07203032951042941   -0.05694538357865096
-0.5890409545977692   -0.07203032951042941   -0.05694538357865096
-1.2176966832191216   -0.12445085320470657   0.06159189429804156
-1.2176966832191216   -0.12445085320470657   0.06159189429804156
-1.2176966832191216   -0.12445085320470657   0.06159189429804156
-1.2176966832191216   -0.12445085320470657   0.06159189429804156
-1.3098809195445589   -0.2917180199164066   -0.048606178205986936
-1.3098809195445589   -0.2917180199164066   -0.048606178205986936
-1.3098809195445589   -0.2917180199164066   -0.048606178205986936
-1.3098809195445589   -0.2917180199164066   -0.048606178205986936
-0.6011548443916968   -0.06974294415244098   0.12919633375456652
-0.6011548443916968   -0.06974294415244098   0.12919633375456652
-0.6011548443916968   -0.06974294415244098   0.12919633375456652
-0.6011548443916968   -0.06974294415244098   0.12919633375456652
-0.9312704512310789   -0.12714404352352776   -0.06389187870404615
-0.9312704512310789   -0.12714404352352776   -0.06389187870404615
-0.9312704512310789   -0.12714404352352776   -0.06389187870404615
-0.9312704512310789   -0.12714404352352776   -0.06389187870404615
-1.0957120005807075   0.18782571608013943   -0.00990219369591508
-1.0957120005807075   0.18782571608013943   -0.00990219369591508
-1.0957120005807075   0.18782571608013943   -0.00990219369591508
-1.0957120005807075   0.18782571608013943   -0.00990219369591508
-1.8296755779122833   -0.06206219134711943   -0.051328612080808425
-1.8296755779122833   -0.06206219134711943   -0.051328612080808425
-1.8296755779122833   -0.06206219134711943   -0.051328612080808425
-1.8296755779122833   -0.06206219134711943   -0.051328612080808425
-1.8486713398715129   -0.044703263785167535   -0.01041017285663931
-1.8486713398715129   -0.044703263785167535   -0.01041017285663931
-1.8486713398715129   -0.044703263785167535   -0.01041017285663931
-1.8486713398715129   -0.044703263785167535   -0.01041017285663931
-1.1630834365547866   0.008642911667524844   0.014200127145868241
-1.1630834365547866   0.008642911667524844   0.014200127145868241
-1.1630834365547866   0.008642911667524844   0.014200127145868241
-1.1630834365547866   0.008642911667524844   0.014200127145868241
-1.481224646992223   0.021043780187544436   0.005442274660747745
-1.481224646992223   0.021043780187544436   0.005442274660747745
-1.481224646992223   0.021043780187544436   0.005442274660747745
-1.481224646992223   0.021043780187544436   0.005442274660747745
-1.1446209914145087   0.101016577817098   0.014138686697684116
-1.1446209914145087   0.101016577817098   0.014138686697684116
-1.1446209914145087   0.101016577817098   0.014138686697684116
-1.1446209914145087   0.101016577817098   0.014138686697684116
-1.873447405965578   -0.1433905508885278   -0.03560321622360377
-1.873447405965578   -0.1433905508885278   -0.03560321622360377
-1.873447405965578   -0.1433905508885278   -0.03560321622360377
-1.873447405965578   -0.1433905508885278   -0.03560321622360377
-1.8939413909197866   -0.130417627859846   0.013406788568601571
-1.8939413909197866   -0.130417627859846   0.013406788568601571
-1.8939413909197866   -0.130417627859846   0.013406788568601571
-1.8939413909197866   -0.130417627859846   0.013406788568601571
-1.2143836660744325   -0.07558246335303473   0.029288590169814825
-1.2143836660744325   -0.07558246335303473   0.029288590169814825
-1.2143836660744325   -0.07558246335303473   0.029288590169814825
-1.2143836660744325   -0.07558246335303473   0.029288590169814825
-1.530351852089359   -0.056907347278793874   -0.03133790956876367
-1.530351852089359   -0.056907347278793874   -0.03133790956876367
-1.530351852089359   -0.056907347278793874   -0.03133790956876367
-1.530351852089359   -0.056907347278793874   -0.03133790956876367
-1.195304628737377   0.013707191302772703   0.0353941221992853
-1.195304628737377   0.013707191302772703   0.0353941221992853
-1.195304628737377   0.013707191302772703   0.0353941221992853
-1.195304628737377   0.013707191302772703   0.0353941221992853
-1.9206265294937968   -0.2273133837526284   -0.023123148408666576
-1.9206265294937968   -0.2273133837526284   -0.023123148408666576
-1.9206265294937968   -0.2273133837526284   -0.023123148408666576
-1.9206265294937968   -0.2273133837526284   -0.023123148408666576
-1.9380481430916516   -0.21270896898064884   0.036207461264179924
-1.9380481430916516   -0.21270896898064884   0.036207461264179924
-1.9380481430916516   -0.21270896898064884   0.036207461264179924
-1.9380481430916516   -0.21270896898064884   0.036207461264179924
-1.2635864449479501   -0.1551299481104852   0.04627812297112012
-1.2635864449479501   -0.1551299481104852   0.04627812297112012
-1.2635864449479501   -0.1551299481104852   0.04627812297112012
-1.2635864449479501   -0.1551299481104852   0.04627812297112012
-1.5832180631965367   -0.13537871952813157   -0.07129640846657283
-1.5832180631965367   -0.13537871952813157   -0.07129640846657283
-1.5832180631965367   -0.13537871952813157   -0.07129640846657283
-1.5832180631965367   -0.13537871952813157   -0.07129640846657283
-1.7372142437273284   0.27341164030637377   0.07550422719050587
-1.7372142437273284   0.27341164030637377   0.07550422719050587
-1.7372142437273284   0.27341164030637377   0.07550422719050587
-1.7372142437273284   0.27341164030637377   0.07550422719050587
-2.514343291357303   -0.10261804782380834   -0.11539892907669147
-2.514343291357303   -0.10261804782380834   -0.11539892907669147
-2.514343291357303   -0.10261804782380834   -0.11539892907669147
-2.514343291357303   -0.10261804782380834   -0.11539892907669147
-2.4800234628647053   0.04288330772498461   0.07889176510921708
-2.4800234628647053   0.04288330772498461   0.07889176510921708
-2.4800234628647053   0.04288330772498461   0.07889176510921708
-2.4800234628647053   0.04288330772498461   0.07889176510921708
-1.8555385025906317   -0.037800409575289184   -0.05164884066211205
-1.8555385025906317   -0.037800409575289184   -0.05164884066211205
-1.8555385025906317   -0.037800409575289184   -0.05164884066211205
-1.8555385025906317   -0.037800409575289184   -0.05164884066211205
-2.139534771164401   0.04434253728409798   0.00989864112316513
-2.139534771164401   0.04434253728409798   0.00989864112316513
-2.139534771164401   0.04434253728409798   0.00989864112316513
-2.139534771164401   0.04434253728409798   0.00989864112316513
-1.7803351029366656   0.18696348024602932   0.09960426778640086
-1.7803351029366656   0.18696348024602932   0.09960426778640086
-1.7803351029366656   0.18696348024602932   0.09960426778640086
-1.7803351029366656   0.18696348024602932   0.09960426778640086
-2.5644412515465467   -0.1910949711242192   -0.10921889945084705
-2.5644412515465467   -0.1910949711242192   -0.10921889945084705
-2.5644412515465467   -0.1910949711242192   -0.10921889945084705
-2.5644412515465467   -0.1910949711242192   -0.10921889945084705
-2.540766874817971   -0.04139690719349476   0.09309270234036354
-2.540766874817971   -0.04139690719349476   0.09309270234036354
-2.540766874817971   -0.04139690719349476   0.09309270234036354
-2.540766874817971   -0.04139690719349476   0.09309270234036354
-1.900423711405195   -0.11425172882038714   -0.035170712897899054
-1.900423711405195   -0.11425172882038714   -0.035170712897899054
-1.900423711405195   -0.11425172882038714   -0.035170712897899054
-1.900423711405195   -0.11425172882038714   -0.035170712897899054
-2.1808418053782925   -0.03079918971860318   -0.029977011370351386
-2.1808418053782925   -0.03079918971860318   -0.029977011370351386
-2.1808418053782925   -0.03079918971860318   -0.029977011370351386
-2.1808418053782925   -0.03079918971860318   -0.029977011370351386
-1.824350022573746   0.10788093606255789   0.12306506637640163
-1.824350022573746   0.10788093606255789   0.12306506637640163
-1.824350022573746   0.10788093606255789   0.12306506637640163
-1.824350022573746   0.10788093606255789   0.12306506637640163
-2.6241165902786343   -0.2708055987056587   -0.09424718345081731
-2.6241165902786343   -0.2708055987056587   -0.09424718345081731
-2.6241165902786343   -0.2708055987056587   -0.09424718345081731
-2.6241165902786343   -0.2708055987056587   -0.09424718345081731
-2.5901672628383405   -0.12615419555562468   0.11842867458964534
-2.5901672628383405   -0.12615419555562468   0.11842867458964534
-2.5901672628383405   -0.12615419555562468   0.11842867458964534
-2.5901672628383405   -0.12615419555562468   0.11842867458964534
-1.9454489674701783   -0.19240055862973718   -0.021105070979364628
-1.9454489674701783   -0.19240055862973718   -0.021105070979364628
-1.9454489674701783   -0.19240055862973718   -0.021105070979364628
-1.9454489674701783   -0.19240055862973718   -0.021105070979364628
-2.242853097376815   -0.1072223667165394   -0.07076075310223917
-2.242853097376815   -0.1072223667165394   -0.07076075310223917
-2.242853097376815   -0.1072223667165394   -0.07076075310223917
-2.242853097376815   -0.1072223667165394   -0.07076075310223917
-2.3816935934442953   0.2960420293468645   0.1491894833176736
-2.3816935934442953   0.2960420293468645   0.1491894833176736
-2.3816935934442953   0.2960420293468645   0.1491894833176736
-2.3816935934442953   0.2960420293468645   0.1491894833176736
-3.0547299154008787   -0.15196072739128275   -0.19408067949724278
-3.0547299154008787   -0.15196072739128275   -0.19408067949724278
-3.0547299154008787   -0.15196072739128275   -0.19408067949724278
-3.0547299154008787   -0.15196072739128275   -0.19408067949724278
-3.05679682270443   0.12143224668784025   0.1644477102949348
-3.05679682270443   0.12143224668784025   0.1644477102949348
-3.05679682270443   0.12143224668784025   0.1644477102949348
-3.05679682270443   0.12143224668784025   0.1644477102949348
-2.5457735607009013   -0.08817836913849103   -0.11879704720834848
-2.5457735607009013   -0.08817836913849103   -0.11879704720834848
-2.5457735607009013   -0.08817836913849103   -0.11879704720834848
-2.5457735607009013   -0.08817836913849103   -0.11879704720834848
-2.648444499738995   0.07108405815299479   0.05041957335099473
-2.648444499738995   0.07108405815299479   0.05041957335099473
-2.648444499738995   0.07108405815299479   0.05041957335099473
-2.648444499738995   0.07108405815299479   0.05041957335099473
-2.418912883837156   0.2513209049972426   0.17600706297467242
-2.418912883837156   0.2513209049972426   0.17600706297467242
-2.418912883837156   0.2513209049972426   0.17600706297467242
-2.418912883837156   0.2513209049972426   0.17600706297467242
-3.1931971652239315   -0.22760669310363418   -0.16851506251103449
-3.1931971652239315   -0.22760669310363418   -0.16851506251103449
-3.1931971652239315   -0.22760669310363418   -0.16851506251103449
-3.1931971652239315   -0.22760669310363418   -0.16851506251103449
-3.167315711220253   0.07355969885777203   0.21203920742643936
-3.167315711220253   0.07355969885777203   0.21203920742643936
-3.167315711220253   0.07355969885777203   0.21203920742643936
-3.167315711220253   0.07355969885777203   0.21203920742643936
-2.5983672221201046   -0.13210070168592758   -0.10420523967789957
-2.5983672221201046   -0.13210070168592758   -0.10420523967789957
-2.5983672221201046   -0.13210070168592758   -0.10420523967789957
-2.5983672221201046   -0.13210070168592758   -0.10420523967789957
-2.7796483134536607   0.012774445659279876   -0.0046545100710064236
-2.7796483134536607   0.012774445659279876   -0.0046545100710064236
-2.7796483134536607   0.012774445659279876   -0.0046545100710064236
-2.7796483134536607   0.012774445659279876   -0.0046545100710064236
-2.466143380417891   0.21362414746865   0.2111891196785902
-2.466143380417891   0.21362414746865   0.2111891196785902
-2.466143380417891   0.21362414746865   0.2111891196785902
-2.466143380417891   0.21362414746865   0.2111891196785902
-3.3093025597339043   -0.2819281571082231   -0.14240717917570012
-3.3093025597339043   -0.2819281571082231   -0.14240717917570012
-3.3093025597339043   -0.2819281571082231   -0.14240717917570012
-3.3093025597339043   -0.2819281571082231   -0.14240717917570012
-3.33105041463843   -0.052146149153460164   0.22436084862386427
-3.33105041463843   -0.052146149153460164   0.22436084862386427
-3.33105041463843   -0.052146149153460164   0.22436084862386427
-3.33105041463843   -0.052146149153460164   0.22436084862386427
-2.6511504630106457   -0.22262390297620682   -0.09001761885132928
-2.6511504630106457   -0.22262390297620682   -0.09001761885132928
-2.6511504630106457   -0.22262390297620682   -0.09001761885132928
-2.6511504630106457   -0.22262390297620682   -0.09001761885132928
-2.8305676818652534   -0.044817138108069865   -0.04393011276733383
-2.8305676818652534   -0.044817138108069865   -0.04393011276733383
-2.8305676818652534   -0.044817138108069865   -0.04393011276733383
-2.8305676818652534   -0.044817138108069865   -0.04393011276733383
-1.346996083628561   -0.08836423870259452   -0.24562235023938755
-1.346996083628561   -0.08836423870259452   -0.24562235023938755
-1.346996083628561   -0.08836423870259452   -0.24562235023938755
-1.346996083628561   -0.08836423870259452   -0.24562235023938755
-1.3146742689061153   0.18933775027099864   0.11079846466773943
-1.3146742689061153   0.18933775027099864   0.11079846466773943
-1.3146742689061153   0.18933775027099864   0.11079846466773943
-1.3146742689061153   0.18933775027099864   0.11079846466773943
-1.4761962926192764   -0.17104056507240084   -0.16602342158692923
-1.4761962926192764   -0.17104056507240084   -0.16602342158692923
-1.4761962926192764   -0.17104056507240084   -0.16602342158692923
-1.4761962926192764   -0.17104056507240084   -0.16602342158692923
-1.3735312404066982   0.09570682413908299   0.1673061870012022
-1.3735312404066982   0.09570682413908299   0.1673061870012022
-1.3735312404066982   0.09570682413908299   0.1673061870012022
-1.3735312404066982   0.09570682413908299   0.1673061870012022
-1.3087761293011995   0.03112937323078796   0.11301825243379751
-1.3087761293011995   0.03112937323078796   0.11301825243379751
-1.3087761293011995   0.03112937323078796   0.11301825243379751
-1.3087761293011995   0.03112937323078796   0.11301825243379751
-1.504117479578151   -0.18450312924182   -0.20541505547515077
-1.504117479578151   -0.18450312924182   -0.20541505547515077
-1.504117479578151   -0.18450312924182   -0.20541505547515077
-1.504117479578151   -0.18450312924182   -0.20541505547515077
-1.3620319004688883   0.09274754128743873   0.14101043280517112
-1.3620319004688883   0.09274754128743873   0.14101043280517112
-1.3620319004688883   0.09274754128743873   0.14101043280517112
-1.3620319004688883   0.09274754128743873   0.14101043280517112
-1.5242899038944973   -0.21589632597935268   -0.14021599313360447
-1.5242899038944973   -0.21589632597935268   -0.14021599313360447
-1.5242899038944973   -0.21589632597935268   -0.14021599313360447
-1.5242899038944973   -0.21589632597935268   -0.14021599313360447
-1.4988642042536855   0.03443795121945298   0.3101176243044065
-1.4988642042536855   0.03443795121945298   0.3101176243044065
-1.4988642042536855   0.03443795121945298   0.3101176243044065
-1.4988642042536855   0.03443795121945298   0.3101176243044065
-1.4248489850682586   -0.04601658536412173   0.04481516492349086
-1.4248489850682586   -0.04601658536412173   0.04481516492349086
-1.4248489850682586   -0.04601658536412173   0.04481516492349086
-1.4248489850682586   -0.04601658536412173   0.04481516492349086
-1.6486344413312026   -0.2446509640105959   -0.15964464585311508
-1.6486344413312026   -0.2446509640105959   -0.15964464585311508
-1.6486344413312026   -0.2446509640105959   -0.15964464585311508
-1.6486344413312026   -0.2446509640105959   -0.15964464585311508
-1.4130980529873298   0.02461420308034923   0.17523273234253198
-1.4130980529873298   0.02461420308034923   0.17523273234253198
-1.4130980529873298   0.02461420308034923   0.17523273234253198
-1.4130980529873298   0.02461420308034923   0.17523273234253198
-1.5635566728199302   -0.3037447869029548   -0.11008440048118295
-1.5635566728199302   -0.3037447869029548   -0.11008440048118295
-1.5635566728199302   -0.3037447869029548   -0.11008440048118295
-1.5635566728199302   -0.3037447869029548   -0.11008440048118295
-1.6939273614207   -0.16801812412350056   0.2903749326900608
-1.6939273614207   -0.16801812412350056   0.2903749326900608
-1.6939273614207   -0.16801812412350056   0.2903749326900608
-1.6939273614207   -0.16801812412350056   0.2903749326900608
-1.5242808209946832   -0.137325404754067   -0.0627740612464068
-1.5242808209946832   -0.137325404754067   -0.0627740612464068
-1.5242808209946832   -0.137325404754067   -0.0627740612464068
-1.5242808209946832   -0.137325404754067   -0.0627740612464068
-1.4088007687257713   -0.04346673363816761   -0.12702955052138193
-1.4088007687257713   -0.04346673363816761   -0.12702955052138193
-1.4088007687257713   -0.04346673363816761   -0.12702955052138193
-1.4088007687257713   -0.04346673363816761   -0.12702955052138193
-1.414058890222568   -0.17317609745035656   -0.007301153586707094
-1.414058890222568   -0.17317609745035656   -0.007301153586707094
-1.414058890222568   -0.17317609745035656   -0.007301153586707094
-1.414058890222568   -0.17317609745035656   -0.007301153586707094
-1.4233082043781995   -0.1149116431772994   -0.0625557373877792
-1.4233082043781995   -0.1149116431772994   -0.0625557373877792
-1.4233082043781995   -0.1149116431772994   -0.0625557373877792
-1.4233082043781995   -0.1149116431772994   -0.0625557373877792
-1.457035337725724   -0.2380982608676545   -0.00316095132391289
-1.457035337725724   -0.2380982608676545   -0.00316095132391289
-1.457035337725724   -0.2380982608676545   -0.00316095132391289
-1.457035337725724   -0.2380982608676545   -0.00316095132391289
-1.4136292111438564   -0.14856885943609194   -0.005929924723030139
-1.4136292111438564   -0.14856885943609194   -0.005929924723030139
-1.4136292111438564   -0.14856885943609194   -0.005929924723030139
-1.4136292111438564   -0.14856885943609194   -0.005929924723030139
-1.4569587730923748   -0.1310882393729333   -0.10978814965189575
-1.4569587730923748   -0.1310882393729333   -0.10978814965189575
-1.4569587730923748   -0.1310882393729333   -0.10978814965189575
-1.4569587730923748   -0.1310882393729333   -0.10978814965189575
-1.4324592901628226   -0.23099618582327536   0.007773376335081324
-1.4324592901628226   -0.23099618582327536   0.007773376335081324
-1.4324592901628226   -0.23099618582327536   0.007773376335081324
-1.4324592901628226   -0.23099618582327536   0.007773376335081324
-1.4462680806434245   -0.19049778287901115   -0.04007135664917845
-1.4462680806434245   -0.19049778287901115   -0.04007135664917845
-1.4462680806434245   -0.19049778287901115   -0.04007135664917845
-1.4462680806434245   -0.19049778287901115   -0.04007135664917845
-1.5084300025829684   -0.30832843056681725   0.031515618011503925
-1.5084300025829684   -0.30832843056681725   0.031515618011503925
-1.5084300025829684   -0.30832843056681725   0.031515618011503925
-1.5084300025829684   -0.30832843056681725   0.031515618011503925
-1.4449844522608273   -0.20947034164081413   -0.04071540745967733
-1.4449844522608273   -0.20947034164081413   -0.04071540745967733
-1.4449844522608273   -0.20947034164081413   -0.04071540745967733
-1.4449844522608273   -0.20947034164081413   -0.04071540745967733
-1.5117010456235334   -0.21183642508068717   -0.08133160267744984
-1.5117010456235334   -0.21183642508068717   -0.08133160267744984
-1.5117010456235334   -0.21183642508068717   -0.08133160267744984
-1.5117010456235334   -0.21183642508068717   -0.08133160267744984
-1.4546157953708974   -0.2986085461331812   0.026300832967612646
-1.4546157953708974   -0.2986085461331812   0.026300832967612646
-1.4546157953708974   -0.2986085461331812   0.026300832967612646
-1.4546157953708974   -0.2986085461331812   0.026300832967612646
-1.4667501420426996   -0.27225728729031395   -0.017780084283795548
-1.4667501420426996   -0.27225728729031395   -0.017780084283795548
-1.4667501420426996   -0.27225728729031395   -0.017780084283795548
-1.4667501420426996   -0.27225728729031395   -0.017780084283795548
-1.547625026317152   -0.3979795432756233   0.06380858840537303
-1.547625026317152   -0.3979795432756233   0.06380858840537303
-1.547625026317152   -0.3979795432756233   0.06380858840537303
-1.547625026317152   -0.3979795432756233   0.06380858840537303
-1.4886093109027327   -0.28347575884899634   -0.08515522661216732
-1.4886093109027327   -0.28347575884899634   -0.08515522661216732
-1.4886093109027327   -0.28347575884899634   -0.08515522661216732
-1.4886093109027327   -0.28347575884899634   -0.08515522661216732
-1.3757296892460624   0.034355382976154314   -0.023186629130660677
-1.3757296892460624   0.034355382976154314   -0.023186629130660677
-1.3757296892460624   0.034355382976154314   -0.023186629130660677
-1.3757296892460624   0.034355382976154314   -0.023186629130660677
-1.5448331796164947   -0.29313800465764656   -0.07373392468332787
-1.5448331796164947   -0.29313800465764656   -0.07373392468332787
-1.5448331796164947   -0.29313800465764656   -0.07373392468332787
-1.5448331796164947   -0.29313800465764656   -0.07373392468332787
-1.4808032498187356   -0.05371814380518064   0.0201146630462897
-1.4808032498187356   -0.05371814380518064   0.0201146630462897
-1.4808032498187356   -0.05371814380518064   0.0201146630462897
-1.4808032498187356   -0.05371814380518064   0.0201146630462897
-1.460887578042923   -0.3194438143566582   -0.04592043453203804
-1.460887578042923   -0.3194438143566582   -0.04592043453203804
-1.460887578042923   -0.3194438143566582   -0.04592043453203804
-1.460887578042923   -0.3194438143566582   -0.04592043453203804
-1.4645472855686996   -0.16295330146089526   -0.03368250622832995
-1.4645472855686996   -0.16295330146089526   -0.03368250622832995
-1.4645472855686996   -0.16295330146089526   -0.03368250622832995
-1.4645472855686996   -0.16295330146089526   -0.03368250622832995
-1.3959882009600395   -0.04079294944798306   -7.441402629583538e-05
-1.3959882009600395   -0.04079294944798306   -7.441402629583538e-05
-1.3959882009600395   -0.04079294944798306   -7.441402629583538e-05
-1.3959882009600395   -0.04079294944798306   -7.441402629583538e-05
-1.5539214132532693   -0.34058779506553166   -0.0586065028660589
-1.5539214132532693   -0.34058779506553166   -0.0586065028660589
-1.5539214132532693   -0.34058779506553166   -0.0586065028660589
-1.5539214132532693   -0.34058779506553166   -0.0586065028660589
-1.497047927248101   -0.12948132883563732   0.04245852393047044
-1.497047927248101   -0.12948132883563732   0.04245852393047044
-1.497047927248101   -0.12948132883563732   0.04245852393047044
-1.497047927248101   -0.12948132883563732   0.04245852393047044
-1.482369259028918   -0.37922137598514477   -0.03185365547051225
-1.482369259028918   -0.37922137598514477   -0.03185365547051225
-1.482369259028918   -0.37922137598514477   -0.03185365547051225
-1.482369259028918   -0.37922137598514477   -0.03185365547051225
-1.481894732906375   -0.2207442780980973   -0.0635040064562756
-1.481894732906375   -0.2207442780980973   -0.0635040064562756
-1.481894732906375   -0.2207442780980973   -0.0635040064562756
-1.481894732906375   -0.2207442780980973   -0.0635040064562756
-1.4192108493167983   -0.11788517884542274   0.022602195950363342
-1.4192108493167983   -0.11788517884542274   0.022602195950363342
-1.4192108493167983   -0.11788517884542274   0.022602195950363342
-1.4192108493167983   -0.11788517884542274   0.022602195950363342
-1.5693861108527427   -0.399997299867917   -0.04871642306048762
-1.5693861108527427   -0.399997299867917   -0.04871642306048762
-1.5693861108527427   -0.399997299867917   -0.04871642306048762
-1.5693861108527427   -0.399997299867917   -0.04871642306048762
-1.5101189119143004   -0.2008373497150286   0.06427358191475342
-1.5101189119143004   -0.2008373497150286   0.06427358191475342
-1.5101189119143004   -0.2008373497150286   0.06427358191475342
-1.5101189119143004   -0.2008373497150286   0.06427358191475342
-1.4981044506347578   -0.43677810472991146   -0.010030809804505228
-1.4981044506347578   -0.43677810472991146   -0.010030809804505228
-1.4981044506347578   -0.43677810472991146   -0.010030809804505228
-1.4981044506347578   -0.43677810472991146   -0.010030809804505228
-1.5026871854965145   -0.2812256123811102   -0.09628235683743933
-1.5026871854965145   -0.2812256123811102   -0.09628235683743933
-1.5026871854965145   -0.2812256123811102   -0.09628235683743933
-1.5026871854965145   -0.2812256123811102   -0.09628235683743933
-1.42652384359976   0.15246714807631517   0.07220760266638315
-1.42652384359976   0.15246714807631517   0.07220760266638315
-1.42652384359976   0.15246714807631517   0.07220760266638315
-1.42652384359976   0.15246714807631517   0.07220760266638315
-1.6759403792952465   -0.21728421738650963   -0.10229816733858296
-1.6759403792952465   -0.21728421738650963   -0.10229816733858296
-1.6759403792952465   -0.21728421738650963   -0.10229816733858296
-1.6759403792952465   -0.21728421738650963   -0.10229816733858296
-1.5841506971642882   0.046916207820558886   0.10054644089078486
-1.5841506971642882   0.046916207820558886   0.10054644089078486
-1.5841506971642882   0.046916207820558886   0.10054644089078486
-1.5841506971642882   0.046916207820558886   0.10054644089078486
-1.5355784340264966   -0.245186689303247   -0.06229271249444873
-1.5355784340264966   -0.245186689303247   -0.06229271249444873
-1.5355784340264966   -0.245186689303247   -0.06229271249444873
-1.5355784340264966   -0.245186689303247   -0.06229271249444873
-1.5555832646079   -0.06408837038476461   -0.020129238089210882
-1.5555832646079   -0.06408837038476461   -0.020129238089210882
-1.5555832646079   -0.06408837038476461   -0.020129238089210882
-1.5555832646079   -0.06408837038476461   -0.020129238089210882
-1.4402579945681535   0.07450834938369394   0.09461444611032545
-1.4402579945681535   0.07450834938369394   0.09461444611032545
-1.4402579945681535   0.07450834938369394   0.09461444611032545
-1.4402579945681535   0.07450834938369394   0.09461444611032545
-1.690358445381173   -0.28366613962493403   -0.09990995274814587
-1.690358445381173   -0.28366613962493403   -0.09990995274814587
-1.690358445381173   -0.28366613962493403   -0.09990995274814587
-1.690358445381173   -0.28366613962493403   -0.09990995274814587
-1.6129084992617417   -0.026930432047864106   0.11392055882138567
-1.6129084992617417   -0.026930432047864106   0.11392055882138567
-1.6129084992617417   -0.026930432047864106   0.11392055882138567
-1.6129084992617417   -0.026930432047864106   0.11392055882138567
-1.5496107542443942   -0.30017510652957097   -0.04966183335709175
-1.5496107542443942   -0.30017510652957097   -0.04966183335709175
-1.5496107542443942   -0.30017510652957097   -0.04966183335709175
-1.5496107542443942   -0.30017510652957097   -0.04966183335709175
-1.5697679300734386   -0.1266522726818048   -0.055076107407095204
-1.5697679300734386   -0.1266522726818048   -0.055076107407095204
-1.5697679300734386   -0.1266522726818048   -0.055076107407095204
-1.5697679300734386   -0.1266522726818048   -0.055076107407095204
-1.4553448541076237   0.005080581148438734   0.11641197964878146
-1.4553448541076237   0.005080581148438734   0.11641197964878146
-1.4553448541076237   0.005080581148438734   0.11641197964878146
-1.4553448541076237   0.005080581148438734   0.11641197964878146
-1.7166142845684684   -0.34162600489582484   -0.08991279486428695
-1.7166142845684684   -0.34162600489582484   -0.08991279486428695
-1.7166142845684684   -0.34162600489582484   -0.08991279486428695
-1.7166142845684684   -0.34162600489582484   -0.08991279486428695
-1.6317193815901234   -0.09766140797109338   0.13886109643379954
-1.6317193815901234   -0.09766140797109338   0.13886109643379954
-1.6317193815901234   -0.09766140797109338   0.13886109643379954
-1.6317193815901234   -0.09766140797109338   0.13886109643379954
-1.5615239605107047   -0.35537039813650056   -0.03821861264579675
-1.5615239605107047   -0.35537039813650056   -0.03821861264579675
-1.5615239605107047   -0.35537039813650056   -0.03821861264579675
-1.5615239605107047   -0.35537039813650056   -0.03821861264579675
-1.5949983064913564   -0.1854613487884892   -0.08887579121792365
-1.5949983064913564   -0.1854613487884892   -0.08887579121792365
-1.5949983064913564   -0.1854613487884892   -0.08887579121792365
-1.5949983064913564   -0.1854613487884892   -0.08887579121792365
-1.5395280219591707   0.21865972298963204   0.14381967896562303
-1.5395280219591707   0.21865972298963204   0.14381967896562303
-1.5395280219591707   0.21865972298963204   0.14381967896562303
-1.5395280219591707   0.21865972298963204   0.14381967896562303
-1.6333273839866111   -0.13005736130122353   -0.14863598961731989
-1.6333273839866111   -0.13005736130122353   -0.14863598961731989
-1.6333273839866111   -0.13005736130122353   -0.14863598961731989
-1.6333273839866111   -0.13005736130122353   -0.14863598961731989
-1.5951574230046268   0.15765568826508963   0.15975710211328048
-1.5951574230046268   0.15765568826508963   0.15975710211328048
-1.5951574230046268   0.15765568826508963   0.15975710211328048
-1.5951574230046268   0.15765568826508963   0.15975710211328048
-1.6658193327545225   -0.17005284557224126   -0.09082768366758523
-1.6658193327545225   -0.17005284557224126   -0.09082768366758523
-1.6658193327545225   -0.17005284557224126   -0.09082768366758523
-1.6658193327545225   -0.17005284557224126   -0.09082768366758523
-1.5541556803911445   0.0397776040462558   0.005079554136528441
-1.5541556803911445   0.0397776040462558   0.005079554136528441
-1.5541556803911445   0.0397776040462558   0.005079554136528441
-1.5541556803911445   0.0397776040462558   0.005079554136528441
-1.5466524472498648   0.1686633688750548   0.16629052940834405
-1.5466524472498648   0.1686633688750548   0.16629052940834405
-1.5466524472498648   0.1686633688750548   0.16629052940834405
-1.5466524472498648   0.1686633688750548   0.16629052940834405
-1.7231343187798067   -0.18987053645273894   -0.13260115204478937
-1.7231343187798067   -0.18987053645273894   -0.13260115204478937
-1.7231343187798067   -0.18987053645273894   -0.13260115204478937
-1.7231343187798067   -0.18987053645273894   -0.13260115204478937
-1.665450533204387   0.11649458805785468   0.20585452012517141
-1.665450533204387   0.11649458805785468   0.20585452012517141
-1.665450533204387   0.11649458805785468   0.20585452012517141
-1.665450533204387   0.11649458805785468   0.20585452012517141
-1.6873811108742505   -0.20232639447268136   -0.08304653681631084
-1.6873811108742505   -0.20232639447268136   -0.08304653681631084
-1.6873811108742505   -0.20232639447268136   -0.08304653681631084
-1.6873811108742505   -0.20232639447268136   -0.08304653681631084
-1.6297291356713937   -0.010186387322185353   -0.035885953680175164
-1.6297291356713937   -0.010186387322185353   -0.035885953680175164
-1.6297291356713937   -0.010186387322185353   -0.035885953680175164
-1.6297291356713937   -0.010186387322185353   -0.035885953680175164
-1.5633541815127905   0.13557941456232953   0.19918230095594913
-1.5633541815127905   0.13557941456232953   0.19918230095594913
-1.5633541815127905   0.13557941456232953   0.19918230095594913
-1.5633541815127905   0.13557941456232953   0.19918230095594913
-1.8010298250218522   -0.23296358343316642   -0.12258376747113418
-1.8010298250218522   -0.23296358343316642   -0.12258376747113418
-1.8010298250218522   -0.23296358343316642   -0.12258376747113418
-1.8010298250218522   -0.23296358343316642   -0.12258376747113418
-1.7904606267756766   0.011528078967261268   0.22005245463104153
-1.7904606267756766   0.011528078967261268   0.22005245463104153
-1.7904606267756766   0.011528078967261268   0.22005245463104153
-1.7904606267756766   0.011528078967261268   0.22005245463104153
-1.7069660810994263   -0.26281321324377094   -0.07222059584006775
-1.7069660810994263   -0.26281321324377094   -0.07222059584006775
-1.7069660810994263   -0.26281321324377094   -0.07222059584006775
-1.7069660810994263   -0.26281321324377094   -0.07222059584006775
-1.6656343458625595   -0.05599381892776234   -0.07302273446034507
-1.6656343458625595   -0.05599381892776234   -0.07302273446034507
-1.6656343458625595   -0.05599381892776234   -0.07302273446034507
-1.6656343458625595   -0.05599381892776234   -0.07302273446034507
-3.374754253053601   -0.3075561412117268   -0.3135910085983407
-3.374754253053601   -0.3075561412117268   -0.3135910085983407
-3.374754253053601   -0.3075561412117268   -0.3135910085983407
-3.374754253053601   -0.3075561412117268   -0.3135910085983407
-2.130275403267829   0.1858620348001056   0.07425865666946935
-2.130275403267829   0.1858620348001056   0.07425865666946935
-2.130275403267829   0.1858620348001056   0.07425865666946935
-2.130275403267829   0.1858620348001056   0.07425865666946935
-2.2357787252845394   -0.13798115163453611   -0.13888620698905224
-2.2357787252845394   -0.13798115163453611   -0.13888620698905224
-2.2357787252845394   -0.13798115163453611   -0.13888620698905224
-2.2357787252845394   -0.13798115163453611   -0.13888620698905224
-3.5823984705747605   -0.3977010358493923   0.3538555333544121
-3.5823984705747605   -0.3977010358493923   0.3538555333544121
-3.5823984705747605   -0.3977010358493923   0.3538555333544121
-3.5823984705747605   -0.3977010358493923   0.3538555333544121
-2.603692216598567   -0.09711852165006762   0.3419225161348106
-2.603692216598567   -0.09711852165006762   0.3419225161348106
-2.603692216598567   -0.09711852165006762   0.3419225161348106
-2.603692216598567   -0.09711852165006762   0.3419225161348106
-3.709600769603233   -0.4507830988565945   -0.22907389878071185
-3.709600769603233   -0.4507830988565945   -0.22907389878071185
-3.709600769603233   -0.4507830988565945   -0.22907389878071185
-3.709600769603233   -0.4507830988565945   -0.22907389878071185
-2.197880246429654   -0.17420290880090472   0.086827944451743
-2.197880246429654   -0.17420290880090472   0.086827944451743
-2.197880246429654   -0.17420290880090472   0.086827944451743
-2.197880246429654   -0.17420290880090472   0.086827944451743
-2.2680270724180103   -0.20121434296116802   -0.09898097843437378
-2.2680270724180103   -0.20121434296116802   -0.09898097843437378
-2.2680270724180103   -0.20121434296116802   -0.09898097843437378
-2.2680270724180103   -0.20121434296116802   -0.09898097843437378
-3.693480325525208   -0.5564891531632395   0.010324181060998826
-3.693480325525208   -0.5564891531632395   0.010324181060998826
-3.693480325525208   -0.5564891531632395   0.010324181060998826
-3.693480325525208   -0.5564891531632395   0.010324181060998826
-2.8786184846891385   -0.3358471667977424   0.07844465717471164
-2.8786184846891385   -0.3358471667977424   0.07844465717471164
-2.8786184846891385   -0.3358471667977424   0.07844465717471164
-2.8786184846891385   -0.3358471667977424   0.07844465717471164
-3.722788340947459   -0.5090928423523969   -0.18361220686106952
-3.722788340947459   -0.5090928423523969   -0.18361220686106952
-3.722788340947459   -0.5090928423523969   -0.18361220686106952
-3.722788340947459   -0.5090928423523969   -0.18361220686106952
-2.2659759667235253   -0.2758675634997748   -0.014072229423360207
-2.2659759667235253   -0.2758675634997748   -0.014072229423360207
-2.2659759667235253   -0.2758675634997748   -0.014072229423360207
-2.2659759667235253   -0.2758675634997748   -0.014072229423360207
-2.2676488630939544   -0.3551640260991   -0.07163307551468207
-2.2676488630939544   -0.3551640260991   -0.07163307551468207
-2.2676488630939544   -0.3551640260991   -0.07163307551468207
-2.2676488630939544   -0.3551640260991   -0.07163307551468207
-3.7782645557597654   -0.8511969533058421   0.058169009919052383
-3.7782645557597654   -0.8511969533058421   0.058169009919052383
-3.7782645557597654   -0.8511969533058421   0.058169009919052383
-3.7782645557597654   -0.8511969533058421   0.058169009919052383
-2.873185910427642   -0.46215546197227997   0.005207075482128558
-2.873185910427642   -0.46215546197227997   0.005207075482128558
-2.873185910427642   -0.46215546197227997   0.005207075482128558
-2.873185910427642   -0.46215546197227997   0.005207075482128558
-2.300621246261314   -0.389458368866942   -0.20215015463088779
-2.300621246261314   -0.389458368866942   -0.20215015463088779
-2.300621246261314   -0.389458368866942   -0.20215015463088779
-2.300621246261314   -0.389458368866942   -0.20215015463088779
-1.5723894284006834   -1.0068157251063647   -0.18921104366093242
-1.5723894284006834   -1.0068157251063647   -0.18921104366093242
-1.5723894284006834   -1.0068157251063647   -0.18921104366093242
-1.5723894284006834   -1.0068157251063647   -0.18921104366093242
-1.3816545314450486   -0.22461137689058658   -0.011107337719248848
-1.3816545314450486   -0.22461137689058658   -0.011107337719248848
-1.3816545314450486   -0.22461137689058658   -0.011107337719248848
-1.3816545314450486   -0.22461137689058658   -0.011107337719248848
-2.442383682270926   -1.0704639478869595   -0.23942819566856305
-2.442383682270926   -1.0704639478869595   -0.23942819566856305
-2.442383682270926   -1.0704639478869595   -0.23942819566856305
-2.442383682270926   -1.0704639478869595   -0.23942819566856305
-1.9017303184566183   -0.7146593766382248   -0.055186457129070235
-1.9017303184566183   -0.7146593766382248   -0.055186457129070235
-1.9017303184566183   -0.7146593766382248   -0.055186457129070235
-1.9017303184566183   -0.7146593766382248   -0.055186457129070235
-2.2980035312932108   -0.43604832254146386   -0.15194306612547306
-2.2980035312932108   -0.43604832254146386   -0.15194306612547306
-2.2980035312932108   -0.43604832254146386   -0.15194306612547306
-2.2980035312932108   -0.43604832254146386   -0.15194306612547306
-1.5353962310333824   -0.8683885508467019   -0.13603866170481815
-1.5353962310333824   -0.8683885508467019   -0.13603866170481815
-1.5353962310333824   -0.8683885508467019   -0.13603866170481815
-1.5353962310333824   -0.8683885508467019   -0.13603866170481815
-1.3954646885767297   -0.29142102562966604   0.0030873286910211243
-1.3954646885767297   -0.29142102562966604   0.0030873286910211243
-1.3954646885767297   -0.29142102562966604   0.0030873286910211243
-1.3954646885767297   -0.29142102562966604   0.0030873286910211243
-2.4493139172998215   -1.0650094482020869   -0.14162009760252692
-2.4493139172998215   -1.0650094482020869   -0.14162009760252692
-2.4493139172998215   -1.0650094482020869   -0.14162009760252692
-2.4493139172998215   -1.0650094482020869   -0.14162009760252692
-1.879317005286703   -0.6699360179449767   -0.05860991025555341
-1.879317005286703   -0.6699360179449767   -0.05860991025555341
-1.879317005286703   -0.6699360179449767   -0.05860991025555341
-1.879317005286703   -0.6699360179449767   -0.05860991025555341
-2.3311022455233896   -0.501900200118075   -0.11367098680436405
-2.3311022455233896   -0.501900200118075   -0.11367098680436405
-2.3311022455233896   -0.501900200118075   -0.11367098680436405
-2.3311022455233896   -0.501900200118075   -0.11367098680436405
-1.532892987059486   -0.8737469004200025   -0.10172828893243946
-1.532892987059486   -0.8737469004200025   -0.10172828893243946
-1.532892987059486   -0.8737469004200025   -0.10172828893243946
-1.532892987059486   -0.8737469004200025   -0.10172828893243946
-1.3927354537424397   -0.3750871086851743   0.02338118878290586
-1.3927354537424397   -0.3750871086851743   0.02338118878290586
-1.3927354537424397   -0.3750871086851743   0.02338118878290586
-1.3927354537424397   -0.3750871086851743   0.02338118878290586
-2.441208570016318   -1.0838753323697197   -0.21072030385590768
-2.441208570016318   -1.0838753323697197   -0.21072030385590768
-2.441208570016318   -1.0838753323697197   -0.21072030385590768
-2.441208570016318   -1.0838753323697197   -0.21072030385590768
-1.9055418160682729   -0.7210357832038515   -0.10866475353502682
-1.9055418160682729   -0.7210357832038515   -0.10866475353502682
-1.9055418160682729   -0.7210357832038515   -0.10866475353502682
-1.9055418160682729   -0.7210357832038515   -0.10866475353502682
-1.3866708440107496   -0.25020460163613145   -0.017229245181497516
-1.3866708440107496   -0.25020460163613145   -0.017229245181497516
-1.3866708440107496   -0.25020460163613145   -0.017229245181497516
-1.3866708440107496   -0.25020460163613145   -0.017229245181497516
-1.1544706709313315   -0.7685218128369298   -0.13269065113478465
-1.1544706709313315   -0.7685218128369298   -0.13269065113478465
-1.1544706709313315   -0.7685218128369298   -0.13269065113478465
-1.1544706709313315   -0.7685218128369298   -0.13269065113478465
-0.9944951330090052   -0.20623852221825764   0.05371358112604701
-0.9944951330090052   -0.20623852221825764   0.05371358112604701
-0.9944951330090052   -0.20623852221825764   0.05371358112604701
-0.9944951330090052   -0.20623852221825764   0.05371358112604701
-1.5314873131129796   -0.8376792894728216   -0.14720333347668388
-1.5314873131129796   -0.8376792894728216   -0.14720333347668388
-1.5314873131129796   -0.8376792894728216   -0.14720333347668388
-1.5314873131129796   -0.8376792894728216   -0.14720333347668388
-1.2610812365015436   -0.5231738230669398   -0.06137999572574582
-1.2610812365015436   -0.5231738230669398   -0.06137999572574582
-1.2610812365015436   -0.5231738230669398   -0.06137999572574582
-1.2610812365015436   -0.5231738230669398   -0.06137999572574582
-1.3932391373337998   -0.29621532343262286   0.002573579379015748
-1.3932391373337998   -0.29621532343262286   0.002573579379015748
-1.3932391373337998   -0.29621532343262286   0.002573579379015748
-1.3932391373337998   -0.29621532343262286   0.002573579379015748
-1.1409736955149608   -0.7559328749852321   -0.12898487863675587
-1.1409736955149608   -0.7559328749852321   -0.12898487863675587
-1.1409736955149608   -0.7559328749852321   -0.12898487863675587
-1.1409736955149608   -0.7559328749852321   -0.12898487863675587
-0.9930130338350217   -0.26108422233971207   0.06947588756275494
-0.9930130338350217   -0.26108422233971207   0.06947588756275494
-0.9930130338350217   -0.26108422233971207   0.06947588756275494
-0.9930130338350217   -0.26108422233971207   0.06947588756275494
-1.5344700358085188   -0.8509872671725829   -0.13237316592502196
-1.5344700358085188   -0.8509872671725829   -0.13237316592502196
-1.5344700358085188   -0.8509872671725829   -0.13237316592502196
-1.5344700358085188   -0.8509872671725829   -0.13237316592502196
-1.257258936970187   -0.5440503875535254   -0.07960554482498831
-1.257258936970187   -0.5440503875535254   -0.07960554482498831
-1.257258936970187   -0.5440503875535254   -0.07960554482498831
-1.257258936970187   -0.5440503875535254   -0.07960554482498831
-1.4029508023813426   -0.35176650562823697   0.026002239666512945
-1.4029508023813426   -0.35176650562823697   0.026002239666512945
-1.4029508023813426   -0.35176650562823697   0.026002239666512945
-1.4029508023813426   -0.35176650562823697   0.026002239666512945
-1.1290310552069878   -0.7648037718288583   -0.10689466980792961
-1.1290310552069878   -0.7648037718288583   -0.10689466980792961
-1.1290310552069878   -0.7648037718288583   -0.10689466980792961
-1.1290310552069878   -0.7648037718288583   -0.10689466980792961
-0.9792410195390251   -0.31368421407782116   0.08657521236027506
-0.9792410195390251   -0.31368421407782116   0.08657521236027506
-0.9792410195390251   -0.31368421407782116   0.08657521236027506
-0.9792410195390251   -0.31368421407782116   0.08657521236027506
-1.5139942522065617   -0.8623339586208657   -0.09566595360202748
-1.5139942522065617   -0.8623339586208657   -0.09566595360202748
-1.5139942522065617   -0.8623339586208657   -0.09566595360202748
-1.5139942522065617   -0.8623339586208657   -0.09566595360202748
-1.251447363252552   -0.5712500426278451   -0.09198097939694165
-1.251447363252552   -0.5712500426278451   -0.09198097939694165
-1.251447363252552   -0.5712500426278451   -0.09198097939694165
-1.251447363252552   -0.5712500426278451   -0.09198097939694165
-0.9624135856767149   -0.035253860612349225   0.09432682291368757
-0.9624135856767149   -0.035253860612349225   0.09432682291368757
-0.9624135856767149   -0.035253860612349225   0.09432682291368757
-0.9624135856767149   -0.035253860612349225   0.09432682291368757
-0.9012396200606901   -0.40502579277463385   -0.07862726037751691
-0.9012396200606901   -0.40502579277463385   -0.07862726037751691
-0.9012396200606901   -0.40502579277463385   -0.07862726037751691
-0.9012396200606901   -0.40502579277463385   -0.07862726037751691
-0.7753112484641929   -0.058768551282198656   0.1095307920484892
-0.7753112484641929   -0.058768551282198656   0.1095307920484892
-0.7753112484641929   -0.058768551282198656   0.1095307920484892
-0.7753112484641929   -0.058768551282198656   0.1095307920484892
-1.0692752528250613   -0.4703986126886215   -0.056026927483869726
-1.0692752528250613   -0.4703986126886215   -0.056026927483869726
-1.0692752528250613   -0.4703986126886215   -0.056026927483869726
-1.0692752528250613   -0.4703986126886215   -0.056026927483869726
-0.9302249063772797   -0.24026706183590749   -0.03319520864183111
-0.9302249063772797   -0.24026706183590749   -0.03319520864183111
-0.9302249063772797   -0.24026706183590749   -0.03319520864183111
-0.9302249063772797   -0.24026706183590749   -0.03319520864183111
-0.9614660278787802   -0.09615129055252597   0.10877187511144004
-0.9614660278787802   -0.09615129055252597   0.10877187511144004
-0.9614660278787802   -0.09615129055252597   0.10877187511144004
-0.9614660278787802   -0.09615129055252597   0.10877187511144004
-0.8917818412557044   -0.44167724126352464   -0.08991348192774229
-0.8917818412557044   -0.44167724126352464   -0.08991348192774229
-0.8917818412557044   -0.44167724126352464   -0.08991348192774229
-0.8917818412557044   -0.44167724126352464   -0.08991348192774229
-0.7746865027837477   -0.11173578836119377   0.1176105060240865
-0.7746865027837477   -0.11173578836119377   0.1176105060240865
-0.7746865027837477   -0.11173578836119377   0.1176105060240865
-0.7746865027837477   -0.11173578836119377   0.1176105060240865
-1.067041294689359   -0.49894817964507016   -0.06280145940360354
-1.067041294689359   -0.49894817964507016   -0.06280145940360354
-1.067041294689359   -0.49894817964507016   -0.06280145940360354
-1.067041294689359   -0.49894817964507016   -0.06280145940360354
-0.9245335689436078   -0.2829584072476985   -0.05618567235887015
-0.9245335689436078   -0.2829584072476985   -0.05618567235887015
-0.9245335689436078   -0.2829584072476985   -0.05618567235887015
-0.9245335689436078   -0.2829584072476985   -0.05618567235887015
-0.9594238326233651   -0.14744818439806276   0.12378585567935875
-0.9594238326233651   -0.14744818439806276   0.12378585567935875
-0.9594238326233651   -0.14744818439806276   0.12378585567935875
-0.9594238326233651   -0.14744818439806276   0.12378585567935875
-0.8875409361353441   -0.4684727548938036   -0.08992469420128546
-0.8875409361353441   -0.4684727548938036   -0.08992469420128546
-0.8875409361353441   -0.4684727548938036   -0.08992469420128546
-0.8875409361353441   -0.4684727548938036   -0.08992469420128546
-0.7661583029306037   -0.16140919125294867   0.13622176419186166
-0.7661583029306037   -0.16140919125294867   0.13622176419186166
-0.7661583029306037   -0.16140919125294867   0.13622176419186166
-0.7661583029306037   -0.16140919125294867   0.13622176419186166
-1.0479979297643587   -0.527638552075484   -0.0432550007687299
-1.0479979297643587   -0.527638552075484   -0.0432550007687299
-1.0479979297643587   -0.527638552075484   -0.0432550007687299
-1.0479979297643587   -0.527638552075484   -0.0432550007687299
-0.9197417094729625   -0.3193693616807285   -0.07193603966543195
-0.9197417094729625   -0.3193693616807285   -0.07193603966543195
-0.9197417094729625   -0.3193693616807285   -0.07193603966543195
-0.9197417094729625   -0.3193693616807285   -0.07193603966543195
-0.7542649923065861   0.10477194340159954   0.14644814221677022
-0.7542649923065861   0.10477194340159954   0.14644814221677022
-0.7542649923065861   0.10477194340159954   0.14644814221677022
-0.7542649923065861   0.10477194340159954   0.14644814221677022
-0.4892147028963445   -0.13187239331735326   -0.04777133578879029
-0.4892147028963445   -0.13187239331735326   -0.04777133578879029
-0.4892147028963445   -0.13187239331735326   -0.04777133578879029
-0.4892147028963445   -0.13187239331735326   -0.04777133578879029
-0.4236853144478343   0.12541695222161403   0.14438728699500303
-0.4236853144478343   0.12541695222161403   0.14438728699500303
-0.4236853144478343   0.12541695222161403   0.14438728699500303
-0.4236853144478343   0.12541695222161403   0.14438728699500303
-0.8313612424876373   -0.2048677525357929   -0.02461997681513893
-0.8313612424876373   -0.2048677525357929   -0.02461997681513893
-0.8313612424876373   -0.2048677525357929   -0.02461997681513893
-0.8313612424876373   -0.2048677525357929   -0.02461997681513893
-0.6165480511944001   -0.012656360013750478   -0.027140258289818343
-0.6165480511944001   -0.012656360013750478   -0.027140258289818343
-0.6165480511944001   -0.012656360013750478   -0.027140258289818343
-0.6165480511944001   -0.012656360013750478   -0.027140258289818343
-0.7404675734734858   0.06514930513454026   0.15983131058528569
-0.7404675734734858   0.06514930513454026   0.15983131058528569
-0.7404675734734858   0.06514930513454026   0.15983131058528569
-0.7404675734734858   0.06514930513454026   0.15983131058528569
-0.5153365267145446   -0.14535764870127788   -0.043094173415656606
-0.5153365267145446   -0.14535764870127788   -0.043094173415656606
-0.5153365267145446   -0.14535764870127788   -0.043094173415656606
-0.5153365267145446   -0.14535764870127788   -0.043094173415656606
-0.44108092925738274   0.09989549567083644   0.18176273228441048
-0.44108092925738274   0.09989549567083644   0.18176273228441048
-0.44108092925738274   0.09989549567083644   0.18176273228441048
-0.44108092925738274   0.09989549567083644   0.18176273228441048
-0.8258163418851612   -0.21782462003603778   -0.03194985780813666
-0.8258163418851612   -0.21782462003603778   -0.03194985780813666
-0.8258163418851612   -0.21782462003603778   -0.03194985780813666
-0.8258163418851612   -0.21782462003603778   -0.03194985780813666
-0.6330732618573566   -0.040575792695904764   -0.03739276481344586
-0.6330732618573566   -0.040575792695904764   -0.03739276481344586
-0.6330732618573566   -0.040575792695904764   -0.03739276481344586
-0.6330732618573566   -0.040575792695904764   -0.03739276481344586
-0.7305420519920318   0.0424750991594223   0.18412187246205022
-0.7305420519920318   0.0424750991594223   0.18412187246205022
-0.7305420519920318   0.0424750991594223   0.18412187246205022
-0.7305420519920318   0.0424750991594223   0.18412187246205022
-0.542875985382779   -0.16692498975690082   -0.06039206291483392
-0.542875985382779   -0.16692498975690082   -0.06039206291483392
-0.542875985382779   -0.16692498975690082   -0.06039206291483392
-0.542875985382779   -0.16692498975690082   -0.06039206291483392
-0.505299084471207   0.029786796578137584   0.18911245664125564
-0.505299084471207   0.029786796578137584   0.18911245664125564
-0.505299084471207   0.029786796578137584   0.18911245664125564
-0.505299084471207   0.029786796578137584   0.18911245664125564
-0.8122933048125283   -0.22890151626062338   -0.026960920210087044
-0.8122933048125283   -0.22890151626062338   -0.026960920210087044
-0.8122933048125283   -0.22890151626062338   -0.026960920210087044
-0.8122933048125283   -0.22890151626062338   -0.026960920210087044
-0.6403679756274134   -0.06046583808051899   -0.05456709586245481
-0.6403679756274134   -0.06046583808051899   -0.05456709586245481
-0.6403679756274134   -0.06046583808051899   -0.05456709586245481
-0.6403679756274134   -0.06046583808051899   -0.05456709586245481
-7.899243132398224   -1.1133102924249447   -0.6526352503253869
-7.899243132398224   -1.1133102924249447   -0.6526352503253869
-7.899243132398224   -1.1133102924249447   -0.6526352503253869
-7.899243132398224   -1.1133102924249447   -0.6526352503253869
-2.7331527964069524   -4.236978207427643   -0.5120782527803002
-2.7331527964069524   -4.236978207427643   -0.5120782527803002
-2.7331527964069524   -4.236978207427643   -0.5120782527803002
-2.7331527964069524   -4.236978207427643   -0.5120782527803002
-2.121118822794668   -0.17545072896191033   0.0038274200116986817
-2.121118822794668   -0.17545072896191033   0.0038274200116986817
-2.121118822794668   -0.17545072896191033   0.0038274200116986817
-2.121118822794668   -0.17545072896191033   0.0038274200116986817
-8.417308284955356   -4.993591303958153   -2.6821799177827015
-8.417308284955356   -4.993591303958153   -2.6821799177827015
-8.417308284955356   -4.993591303958153   -2.6821799177827015
-8.417308284955356   -4.993591303958153   -2.6821799177827015
-5.160737240437846   -2.48610133746239   -0.36202160421113594
-5.160737240437846   -2.48610133746239   -0.36202160421113594
-5.160737240437846   -2.48610133746239   -0.36202160421113594
-5.160737240437846   -2.48610133746239   -0.36202160421113594
-7.338969592787587   -1.3971682659527076   -0.8869094949493689
-7.338969592787587   -1.3971682659527076   -0.8869094949493689
-7.338969592787587   -1.3971682659527076   -0.8869094949493689
-7.338969592787587   -1.3971682659527076   -0.8869094949493689
-2.9489391719008213   -3.521355423905747   -0.7893696305752068
-2.9489391719008213   -3.521355423905747   -0.7893696305752068
-2.9489391719008213   -3.521355423905747   -0.7893696305752068
-2.9489391719008213   -3.521355423905747   -0.7893696305752068
-2.1615981321879247   -0.23582558426659864   0.08175983220695063
-2.1615981321879247   -0.23582558426659864   0.08175983220695063
-2.1615981321879247   -0.23582558426659864   0.08175983220695063
-2.1615981321879247   -0.23582558426659864   0.08175983220695063
-7.875149458543643   -4.447271121324551   -2.464484115973639
-7.875149458543643   -4.447271121324551   -2.464484115973639
-7.875149458543643   -4.447271121324551   -2.464484115973639
-7.875149458543643   -4.447271121324551   -2.464484115973639
-4.859480342213958   -2.2394823028230815   0.1984865998723946
-4.859480342213958   -2.2394823028230815   0.1984865998723946
-4.859480342213958   -2.2394823028230815   0.1984865998723946
-4.859480342213958   -2.2394823028230815   0.1984865998723946
-6.8908306269095005   -1.3300468878981757   -0.6601141912293599
-6.8908306269095005   -1.3300468878981757   -0.6601141912293599
-6.8908306269095005   -1.3300468878981757   -0.6601141912293599
-6.8908306269095005   -1.3300468878981757   -0.6601141912293599
-2.8677866452611678   -3.074919499132082   -0.6100888182937654
-2.8677866452611678   -3.074919499132082   -0.6100888182937654
-2.8677866452611678   -3.074919499132082   -0.6100888182937654
-2.8677866452611678   -3.074919499132082   -0.6100888182937654
-2.478596761954118   -0.6283143455025291   -0.12708574487002933
-2.478596761954118   -0.6283143455025291   -0.12708574487002933
-2.478596761954118   -0.6283143455025291   -0.12708574487002933
-2.478596761954118   -0.6283143455025291   -0.12708574487002933
-7.176678709824814   -3.728478547313868   -2.1810314514277365
-7.176678709824814   -3.728478547313868   -2.1810314514277365
-7.176678709824814   -3.728478547313868   -2.1810314514277365
-7.176678709824814   -3.728478547313868   -2.1810314514277365
-4.499899685456962   -1.9398171478992154   0.8309703356181688
-4.499899685456962   -1.9398171478992154   0.8309703356181688
-4.499899685456962   -1.9398171478992154   0.8309703356181688
-4.499899685456962   -1.9398171478992154   0.8309703356181688
-2.0346445327201303   -1.0939396379940314   -0.16257550377981797
-2.0346445327201303   -1.0939396379940314   -0.16257550377981797
-2.0346445327201303   -1.0939396379940314   -0.16257550377981797
-2.0346445327201303   -1.0939396379940314   -0.16257550377981797
-0.9335157358646378   -1.3175397618060227   -0.2303126022899528
-0.9335157358646378   -1.3175397618060227   -0.2303126022899528
-0.9335157358646378   -1.3175397618060227   -0.2303126022899528
-0.9335157358646378   -1.3175397618060227   -0.2303126022899528
-0.8279112145878156   -0.6952856941583836   0.021990605291236753
-0.8279112145878156   -0.6952856941583836   0.021990605291236753
-0.8279112145878156   -0.6952856941583836   0.021990605291236753
-0.8279112145878156   -0.6952856941583836   0.021990605291236753
-2.476370962287909   -1.945464801621192   -0.0024192047952013573
-2.476370962287909   -1.945464801621192   -0.0024192047952013573
-2.476370962287909   -1.945464801621192   -0.0024192047952013573
-2.476370962287909   -1.945464801621192   -0.0024192047952013573
-1.333416154664661   -0.9454371603268598   0.4246730779510981
-1.333416154664661   -0.9454371603268598   0.4246730779510981
-1.333416154664661   -0.9454371603268598   0.4246730779510981
-1.333416154664661   -0.9454371603268598   0.4246730779510981
-2.3111204557832528   -1.017209965195289   -0.10442150869785302
-2.3111204557832528   -1.017209965195289   -0.10442150869785302
-2.3111204557832528   -1.017209965195289   -0.10442150869785302
-2.3111204557832528   -1.017209965195289   -0.10442150869785302
-1.0622584712578764   -1.6926372807496963   -0.15239409146775534
-1.0622584712578764   -1.6926372807496963   -0.15239409146775534
-1.0622584712578764   -1.6926372807496963   -0.15239409146775534
-1.0622584712578764   -1.6926372807496963   -0.15239409146775534
-0.8920760408706435   -0.7208096209336792   0.02214116231033411
-0.8920760408706435   -0.7208096209336792   0.02214116231033411
-0.8920760408706435   -0.7208096209336792   0.02214116231033411
-0.8920760408706435   -0.7208096209336792   0.02214116231033411
-2.5938742408113042   -1.9178006130003116   -0.3976456821762156
-2.5938742408113042   -1.9178006130003116   -0.3976456821762156
-2.5938742408113042   -1.9178006130003116   -0.3976456821762156
-2.5938742408113042   -1.9178006130003116   -0.3976456821762156
-1.5858177710492218   -1.2153012581111673   0.19584578481958537
-1.5858177710492218   -1.2153012581111673   0.19584578481958537
-1.5858177710492218   -1.2153012581111673   0.19584578481958537
-1.5858177710492218   -1.2153012581111673   0.19584578481958537
-2.3821294710289718   -1.062160857233657   -0.19456158903122567
-2.3821294710289718   -1.062160857233657   -0.19456158903122567
-2.3821294710289718   -1.062160857233657   -0.19456158903122567
-2.3821294710289718   -1.062160857233657   -0.19456158903122567
-1.0972642432820452   -1.5698928093294033   -0.15471666135093415
-1.0972642432820452   -1.5698928093294033   -0.15471666135093415
-1.0972642432820452   -1.5698928093294033   -0.15471666135093415
-1.0972642432820452   -1.5698928093294033   -0.15471666135093415
-0.9903403316778079   -0.745053436963809   0.03252093483513549
-0.9903403316778079   -0.745053436963809   0.03252093483513549
-0.9903403316778079   -0.745053436963809   0.03252093483513549
-0.9903403316778079   -0.745053436963809   0.03252093483513549
-2.769349717170292   -1.8614561113368677   -0.3477087551165461
-2.769349717170292   -1.8614561113368677   -0.3477087551165461
-2.769349717170292   -1.8614561113368677   -0.3477087551165461
-2.769349717170292   -1.8614561113368677   -0.3477087551165461
-1.6563338746669454   -1.1449474283737722   0.207615151311195
-1.6563338746669454   -1.1449474283737722   0.207615151311195
-1.6563338746669454   -1.1449474283737722   0.207615151311195
-1.6563338746669454   -1.1449474283737722   0.207615151311195
-0.7445112815458317   -0.6504648526943797   0.047634760192434955
-0.7445112815458317   -0.6504648526943797   0.047634760192434955
-0.7445112815458317   -0.6504648526943797   0.047634760192434955
-0.7445112815458317   -0.6504648526943797   0.047634760192434955
-0.4487256641847519   -0.3996458038043188   -0.11186567349149322
-0.4487256641847519   -0.3996458038043188   -0.11186567349149322
-0.4487256641847519   -0.3996458038043188   -0.11186567349149322
-0.4487256641847519   -0.3996458038043188   -0.11186567349149322
-0.4372709669396182   -0.5796923157256434   0.048515189085814925
-0.4372709669396182   -0.5796923157256434   0.048515189085814925
-0.4372709669396182   -0.5796923157256434   0.048515189085814925
-0.4372709669396182   -0.5796923157256434   0.048515189085814925
-0.8151597235288099   -0.5553368217587804   -0.054200811813338426
-0.8151597235288099   -0.5553368217587804   -0.054200811813338426
-0.8151597235288099   -0.5553368217587804   -0.054200811813338426
-0.8151597235288099   -0.5553368217587804   -0.054200811813338426
-0.5170897283680461   -0.46145343800351785   0.2124617548708972
-0.5170897283680461   -0.46145343800351785   0.2124617548708972
-0.5170897283680461   -0.46145343800351785   0.2124617548708972
-0.5170897283680461   -0.46145343800351785   0.2124617548708972
-0.8139532368725652   -0.6545273729896507   0.05102217269875553
-0.8139532368725652   -0.6545273729896507   0.05102217269875553
-0.8139532368725652   -0.6545273729896507   0.05102217269875553
-0.8139532368725652   -0.6545273729896507   0.05102217269875553
-0.4451043014993249   -0.48712861239824007   -0.08321518704012192
-0.4451043014993249   -0.48712861239824007   -0.08321518704012192
-0.4451043014993249   -0.48712861239824007   -0.08321518704012192
-0.4451043014993249   -0.48712861239824007   -0.08321518704012192
-0.4405074781249455   -0.597147015086672   0.04286553682095939
-0.4405074781249455   -0.597147015086672   0.04286553682095939
-0.4405074781249455   -0.597147015086672   0.04286553682095939
-0.4405074781249455   -0.597147015086672   0.04286553682095939
-0.8630119703226679   -0.6494423089605647   0.09609420307711347
-0.8630119703226679   -0.6494423089605647   0.09609420307711347
-0.8630119703226679   -0.6494423089605647   0.09609420307711347
-0.8630119703226679   -0.6494423089605647   0.09609420307711347
-0.5594837840715347   -0.5136143831028037   0.1816224284841142
-0.5594837840715347   -0.5136143831028037   0.1816224284841142
-0.5594837840715347   -0.5136143831028037   0.1816224284841142
-0.5594837840715347   -0.5136143831028037   0.1816224284841142
-0.8742745374573095   -0.6786714355238931   0.06901049396721773
-0.8742745374573095   -0.6786714355238931   0.06901049396721773
-0.8742745374573095   -0.6786714355238931   0.06901049396721773
-0.8742745374573095   -0.6786714355238931   0.06901049396721773
-0.46613778996704197   -0.6048107675000843   -0.07762226997611057
-0.46613778996704197   -0.6048107675000843   -0.07762226997611057
-0.46613778996704197   -0.6048107675000843   -0.07762226997611057
-0.46613778996704197   -0.6048107675000843   -0.07762226997611057
-0.4425428995928786   -0.6169143273349905   0.05998085021366559
-0.4425428995928786   -0.6169143273349905   0.05998085021366559
-0.4425428995928786   -0.6169143273349905   0.05998085021366559
-0.4425428995928786   -0.6169143273349905   0.05998085021366559
-1.00496632124523   -0.8028199457400785   0.017157495774294346
-1.00496632124523   -0.8028199457400785   0.017157495774294346
-1.00496632124523   -0.8028199457400785   0.017157495774294346
-1.00496632124523   -0.8028199457400785   0.017157495774294346
-0.6217623842819281   -0.5868801986614156   0.08810636317217899
-0.6217623842819281   -0.5868801986614156   0.08810636317217899
-0.6217623842819281   -0.5868801986614156   0.08810636317217899
-0.6217623842819281   -0.5868801986614156   0.08810636317217899
-0.37301056832513246   -0.25853477495962984   0.1255987769619148
-0.37301056832513246   -0.25853477495962984   0.1255987769619148
-0.37301056832513246   -0.25853477495962984   0.1255987769619148
-0.37301056832513246   -0.25853477495962984   0.1255987769619148
-0.2563059515097652   0.011002082049105452   -0.024779664519905167
-0.2563059515097652   0.011002082049105452   -0.024779664519905167
-0.2563059515097652   0.011002082049105452   -0.024779664519905167
-0.2563059515097652   0.011002082049105452   -0.024779664519905167
-0.24361255696327147   -0.2784166936042822   0.07821997207603715
-0.24361255696327147   -0.2784166936042822   0.07821997207603715
-0.24361255696327147   -0.2784166936042822   0.07821997207603715
-0.24361255696327147   -0.2784166936042822   0.07821997207603715
-0.3420576067635767   -0.03708952042768898   -0.018020805331932014
-0.3420576067635767   -0.03708952042768898   -0.018020805331932014
-0.3420576067635767   -0.03708952042768898   -0.018020805331932014
-0.3420576067635767   -0.03708952042768898   -0.018020805331932014
-0.28113915426336   -0.13661870141083896   0.06232875940867154
-0.28113915426336   -0.13661870141083896   0.06232875940867154
-0.28113915426336   -0.13661870141083896   0.06232875940867154
-0.28113915426336   -0.13661870141083896   0.06232875940867154
-0.3664121965583785   -0.2949977257376975   0.11811445100406748
-0.3664121965583785   -0.2949977257376975   0.11811445100406748
-0.3664121965583785   -0.2949977257376975   0.11811445100406748
-0.3664121965583785   -0.2949977257376975   0.11811445100406748
-0.21252615667330915   -0.013776677799113124   -0.030988042279320258
-0.21252615667330915   -0.013776677799113124   -0.030988042279320258
-0.21252615667330915   -0.013776677799113124   -0.030988042279320258
-0.21252615667330915   -0.013776677799113124   -0.030988042279320258
-0.2216902422889288   -0.30294752089645827   0.07185078193902572
-0.2216902422889288   -0.30294752089645827   0.07185078193902572
-0.2216902422889288   -0.30294752089645827   0.07185078193902572
-0.2216902422889288   -0.30294752089645827   0.07185078193902572
-0.34255982380704975   -0.08271886471184564   0.018175658035611997
-0.34255982380704975   -0.08271886471184564   0.018175658035611997
-0.34255982380704975   -0.08271886471184564   0.018175658035611997
-0.34255982380704975   -0.08271886471184564   0.018175658035611997
-0.25600408699939037   -0.15617917532530873   0.07556093696986074
-0.25600408699939037   -0.15617917532530873   0.07556093696986074
-0.25600408699939037   -0.15617917532530873   0.07556093696986074
-0.25600408699939037   -0.15617917532530873   0.07556093696986074
-0.36658668419845847   -0.3193603894940207   0.13468288086074337
-0.36658668419845847   -0.3193603894940207   0.13468288086074337
-0.36658668419845847   -0.3193603894940207   0.13468288086074337
-0.36658668419845847   -0.3193603894940207   0.13468288086074337
-0.19920583540834091   -0.06784844962510407   -0.05082625492938894
-0.19920583540834091   -0.06784844962510407   -0.05082625492938894
-0.19920583540834091   -0.06784844962510407   -0.05082625492938894
-0.19920583540834091   -0.06784844962510407   -0.05082625492938894
-0.18254988490618368   -0.3301503432765082   0.07873799836800528
-0.18254988490618368   -0.3301503432765082   0.07873799836800528
-0.18254988490618368   -0.3301503432765082   0.07873799836800528
-0.18254988490618368   -0.3301503432765082   0.07873799836800528
-0.3656253338120185   -0.1964900191432794   0.0241443709262553
-0.3656253338120185   -0.1964900191432794   0.0241443709262553
-0.3656253338120185   -0.1964900191432794   0.0241443709262553
-0.3656253338120185   -0.1964900191432794   0.0241443709262553
-0.24380072086637494   -0.1978888792034681   0.06688325310135486
-0.24380072086637494   -0.1978888792034681   0.06688325310135486
-0.24380072086637494   -0.1978888792034681   0.06688325310135486
-0.24380072086637494   -0.1978888792034681   0.06688325310135486
-0.2377919731814443   -0.04689593198537849   0.12568824115618335
-0.2377919731814443   -0.04689593198537849   0.12568824115618335
-0.2377919731814443   -0.04689593198537849   0.12568824115618335
-0.2377919731814443   -0.04689593198537849   0.12568824115618335
-0.037792892063910385   0.029813883446811733   -0.0025344412190363656
-0.037792892063910385   0.029813883446811733   -0.0025344412190363656
-0.037792892063910385   0.029813883446811733   -0.0025344412190363656
-0.037792892063910385   0.029813883446811733   -0.0025344412190363656
0.018517173452905482   -0.01451892745390674   0.07724573265374901
0.018517173452905482   -0.01451892745390674   0.07724573265374901
0.018517173452905482   -0.01451892745390674   0.07724573265374901
0.018517173452905482   -0.01451892745390674   0.07724573265374901
-0.20107144408976407   0.023701685237514994   -0.011192842398223036
-0.20107144408976407   0.023701685237514994   -0.011192842398223036
-0.20107144408976407   0.023701685237514994   -0.011192842398223036
-0.20107144408976407   0.023701685237514994   -0.011192842398223036
-0.11670477660023283   -0.00833331517346525   -0.010174507884059075
-0.11670477660023283   -0.00833331517346525   -0.010174507884059075
-0.11670477660023283   -0.00833331517346525   -0.010174507884059075
-0.11670477660023283   -0.00833331517346525   -0.010174507884059075
-0.18644056242489557   -0.04485580910624153   0.1305190602698761
-0.18644056242489557   -0.04485580910624153   0.1305190602698761
-0.18644056242489557   -0.04485580910624153   0.1305190602698761
-0.18644056242489557   -0.04485580910624153   0.1305190602698761
0.011085942432073736   0.06123821753387634   -0.03566756743825415
0.011085942432073736   0.06123821753387634   -0.03566756743825415
0.011085942432073736   0.06123821753387634   -0.03566756743825415
0.011085942432073736   0.06123821753387634   -0.03566756743825415
0.047952923380520075   -0.017660152242241475   0.09510321589516361
0.047952923380520075   -0.017660152242241475   0.09510321589516361
0.047952923380520075   -0.017660152242241475   0.09510321589516361
0.047952923380520075   -0.017660152242241475   0.09510321589516361
-0.17479859195202724   0.020040588751930495   -0.016679076024855157
-0.17479859195202724   0.020040588751930495   -0.016679076024855157
-0.17479859195202724   0.020040588751930495   -0.016679076024855157
-0.17479859195202724   0.020040588751930495   -0.016679076024855157
-0.07390550323840041   -0.0009482599136126733   0.012821728999519388
-0.07390550323840041   -0.0009482599136126733   0.012821728999519388
-0.07390550323840041   -0.0009482599136126733   0.012821728999519388
-0.07390550323840041   -0.0009482599136126733   0.012821728999519388
-0.15746580946738983   -0.04979954746733641   0.13982497261759883
-0.15746580946738983   -0.04979954746733641   0.13982497261759883
-0.15746580946738983   -0.04979954746733641   0.13982497261759883
-0.15746580946738983   -0.04979954746733641   0.13982497261759883
0.03727827979510127   0.058838122876244035   -0.03476827715041597
0.03727827979510127   0.058838122876244035   -0.03476827715041597
0.03727827979510127   0.058838122876244035   -0.03476827715041597
0.03727827979510127   0.058838122876244035   -0.03476827715041597
0.07892016772342701   -0.02687104643735165   0.09197795637031636
0.07892016772342701   -0.02687104643735165   0.09197795637031636
0.07892016772342701   -0.02687104643735165   0.09197795637031636
0.07892016772342701   -0.02687104643735165   0.09197795637031636
-0.1314498395938312   0.023161039578938176   -0.019073157925678548
-0.1314498395938312   0.023161039578938176   -0.019073157925678548
-0.1314498395938312   0.023161039578938176   -0.019073157925678548
-0.1314498395938312   0.023161039578938176   -0.019073157925678548
-0.035316420524682916   0.004256487509645661   0.03356514504550783
-0.035316420524682916   0.004256487509645661   0.03356514504550783
-0.035316420524682916   0.004256487509645661   0.03356514504550783
-0.035316420524682916   0.004256487509645661   0.03356514504550783
              </DataArray>   
             <DataArray type="Float64" NumberOfComponents="3" Name="Displacements" format="ascii">   
0.0   0.0   0.0
-0.021929801146232383   -0.014344898884435181   -0.007343579473117979
0.0   0.0   0.0
0.0   0.0   0.0
-0.021929801146232383   -0.014344898884435181   -0.007343579473117979
-0.013959072688822117   -0.012883462958075156   -0.005394867200042472
0.0   0.0   0.0
-0.013686309639184449   -0.013532476494321675   -0.004518738099896892
0.0   0.0   0.0
0.0   0.0   0.0
-0.013686309639184449   -0.013532476494321675   -0.004518738099896892
0.0   0.0   0.0
0.0   0.0   0.0
-0.013686309639184449   -0.013532476494321675   -0.004518738099896892
-0.02295465831606566   -0.015284463354186161   -0.00589435397225513
-0.021929801146232383   -0.014344898884435181   -0.007343579473117979
0.0   0.0   0.0
-0.013686309639184449   -0.013532476494321675   -0.004518738099896892
-0.021929801146232383   -0.014344898884435181   -0.007343579473117979
0.0   0.0   0.0
0.0   0.0   0.0
-0.02295465831606566   -0.015284463354186161   -0.00589435397225513
0.0   0.0   0.0
0.0   0.0   0.0
-0.02295465831606566   -0.015284463354186161   -0.00589435397225513
-0.013686309639184449   -0.013532476494321675   -0.004518738099896892
0.0   0.0   0.0
-0.01372847825338624   -0.013864665092315659   -0.0036434639437162115
0.0   0.0   0.0
0.0   0.0   0.0
-0.01372847825338624   -0.013864665092315659   -0.0036434639437162115
0.0   0.0   0.0
0.0   0.0   0.0
-0.01372847825338624   -0.013864665092315659   -0.0036434639437162115
-0.02367604474754918   -0.015741161687815027   -0.004504997947668627
-0.02295465831606566   -0.015284463354186161   -0.00589435397225513
0.0   0.0   0.0
-0.01372847825338624   -0.013864665092315659   -0.0036434639437162115
-0.02295465831606566   -0.015284463354186161   -0.00589435397225513
0.0   0.0   0.0
0.0   0.0   0.0
-0.02367604474754918   -0.015741161687815027   -0.004504997947668627
0.0   0.0   0.0
0.0   0.0   0.0
-0.02367604474754918   -0.015741161687815027   -0.004504997947668627
-0.01372847825338624   -0.013864665092315659   -0.0036434639437162115
0.0   0.0   0.0
-0.013725287549963442   -0.013949461235841107   -0.0027379112470680713
0.0   0.0   0.0
0.0   0.0   0.0
-0.013725287549963442   -0.013949461235841107   -0.0027379112470680713
0.0   0.0   0.0
0.0   0.0   0.0
-0.013725287549963442   -0.013949461235841107   -0.0027379112470680713
-0.02522656622959605   -0.016085635118138868   -0.0028926445922228474
-0.02367604474754918   -0.015741161687815027   -0.004504997947668627
0.0   0.0   0.0
-0.013725287549963442   -0.013949461235841107   -0.0027379112470680713
-0.02367604474754918   -0.015741161687815027   -0.004504997947668627
0.0   0.0   0.0
0.0   0.0   0.0
-0.013959072688822117   -0.012883462958075156   -0.005394867200042472
0.0   0.0   0.0
0.0   0.0   0.0
-0.013959072688822117   -0.012883462958075156   -0.005394867200042472
-0.006352907818450907   -0.012346733493773458   -0.0041019155672945345
0.0   0.0   0.0
-0.00611361710138362   -0.01276959019339858   -0.0036887336135710976
0.0   0.0   0.0
0.0   0.0   0.0
-0.00611361710138362   -0.01276959019339858   -0.0036887336135710976
0.0   0.0   0.0
0.0   0.0   0.0
-0.00611361710138362   -0.01276959019339858   -0.0036887336135710976
-0.013686309639184449   -0.013532476494321675   -0.004518738099896892
-0.013959072688822117   -0.012883462958075156   -0.005394867200042472
0.0   0.0   0.0
-0.00611361710138362   -0.01276959019339858   -0.0036887336135710976
-0.013959072688822117   -0.012883462958075156   -0.005394867200042472
0.0   0.0   0.0
0.0   0.0   0.0
-0.013686309639184449   -0.013532476494321675   -0.004518738099896892
0.0   0.0   0.0
0.0   0.0   0.0
-0.013686309639184449   -0.013532476494321675   -0.004518738099896892
-0.00611361710138362   -0.01276959019339858   -0.0036887336135710976
0.0   0.0   0.0
-0.0059806837198915575   -0.01293062144762379   -0.0032859406538106066
0.0   0.0   0.0
0.0   0.0   0.0
-0.0059806837198915575   -0.01293062144762379   -0.0032859406538106066
0.0   0.0   0.0
0.0   0.0   0.0
-0.0059806837198915575   -0.01293062144762379   -0.0032859406538106066
-0.01372847825338624   -0.013864665092315659   -0.0036434639437162115
-0.013686309639184449   -0.013532476494321675   -0.004518738099896892
0.0   0.0   0.0
-0.0059806837198915575   -0.01293062144762379   -0.0032859406538106066
-0.013686309639184449   -0.013532476494321675   -0.004518738099896892
0.0   0.0   0.0
0.0   0.0   0.0
-0.01372847825338624   -0.013864665092315659   -0.0036434639437162115
0.0   0.0   0.0
0.0   0.0   0.0
-0.01372847825338624   -0.013864665092315659   -0.0036434639437162115
-0.0059806837198915575   -0.01293062144762379   -0.0032859406538106066
0.0   0.0   0.0
-0.005860227339550693   -0.012863100636149509   -0.0028691075540586957
0.0   0.0   0.0
0.0   0.0   0.0
-0.005860227339550693   -0.012863100636149509   -0.0028691075540586957
0.0   0.0   0.0
0.0   0.0   0.0
-0.005860227339550693   -0.012863100636149509   -0.0028691075540586957
-0.013725287549963442   -0.013949461235841107   -0.0027379112470680713
-0.01372847825338624   -0.013864665092315659   -0.0036434639437162115
0.0   0.0   0.0
-0.005860227339550693   -0.012863100636149509   -0.0028691075540586957
-0.01372847825338624   -0.013864665092315659   -0.0036434639437162115
0.0   0.0   0.0
0.0   0.0   0.0
-0.006352907818450907   -0.012346733493773458   -0.0041019155672945345
0.0   0.0   0.0
0.0   0.0   0.0
-0.006352907818450907   -0.012346733493773458   -0.0041019155672945345
0.000836540846452719   -0.012414945309960887   -0.00327702730645027
0.0   0.0   0.0
0.0009876244514351552   -0.012634583239165716   -0.0033352290409266816
0.0   0.0   0.0
0.0   0.0   0.0
0.0009876244514351552   -0.012634583239165716   -0.0033352290409266816
0.0   0.0   0.0
0.0   0.0   0.0
0.0009876244514351552   -0.012634583239165716   -0.0033352290409266816
-0.00611361710138362   -0.01276959019339858   -0.0036887336135710976
-0.006352907818450907   -0.012346733493773458   -0.0041019155672945345
0.0   0.0   0.0
0.0009876244514351552   -0.012634583239165716   -0.0033352290409266816
-0.006352907818450907   -0.012346733493773458   -0.0041019155672945345
0.0   0.0   0.0
0.0   0.0   0.0
-0.00611361710138362   -0.01276959019339858   -0.0036887336135710976
0.0   0.0   0.0
0.0   0.0   0.0
-0.00611361710138362   -0.01276959019339858   -0.0036887336135710976
0.0009876244514351552   -0.012634583239165716   -0.0033352290409266816
0.0   0.0   0.0
0.0011063972412902548   -0.012616781775643396   -0.0033874564549531737
0.0   0.0   0.0
0.0   0.0   0.0
0.0011063972412902548   -0.012616781775643396   -0.0033874564549531737
0.0   0.0   0.0
0.0   0.0   0.0
0.0011063972412902548   -0.012616781775643396   -0.0033874564549531737
-0.0059806837198915575   -0.01293062144762379   -0.0032859406538106066
-0.00611361710138362   -0.01276959019339858   -0.0036887336135710976
0.0   0.0   0.0
0.0011063972412902548   -0.012616781775643396   -0.0033874564549531737
-0.00611361710138362   -0.01276959019339858   -0.0036887336135710976
0.0   0.0   0.0
0.0   0.0   0.0
-0.0059806837198915575   -0.01293062144762379   -0.0032859406538106066
0.0   0.0   0.0
0.0   0.0   0.0
-0.0059806837198915575   -0.01293062144762379   -0.0032859406538106066
0.0011063972412902548   -0.012616781775643396   -0.0033874564549531737
0.0   0.0   0.0
0.0012673919460890386   -0.012341999715395714   -0.0034407163632160023
0.0   0.0   0.0
0.0   0.0   0.0
0.0012673919460890386   -0.012341999715395714   -0.0034407163632160023
0.0   0.0   0.0
0.0   0.0   0.0
0.0012673919460890386   -0.012341999715395714   -0.0034407163632160023
-0.005860227339550693   -0.012863100636149509   -0.0028691075540586957
-0.0059806837198915575   -0.01293062144762379   -0.0032859406538106066
0.0   0.0   0.0
0.0012673919460890386   -0.012341999715395714   -0.0034407163632160023
-0.0059806837198915575   -0.01293062144762379   -0.0032859406538106066
0.0   0.0   0.0
0.0   0.0   0.0
0.000836540846452719   -0.012414945309960887   -0.00327702730645027
0.0   0.0   0.0
0.0   0.0   0.0
0.000836540846452719   -0.012414945309960887   -0.00327702730645027
0.008637540642746442   -0.013022791196959248   -0.0028678140964663356
0.0   0.0   0.0
0.008648282035051032   -0.013093422503159317   -0.0034219845247775334
0.0   0.0   0.0
0.0   0.0   0.0
0.008648282035051032   -0.013093422503159317   -0.0034219845247775334
0.0   0.0   0.0
0.0   0.0   0.0
0.008648282035051032   -0.013093422503159317   -0.0034219845247775334
0.0009876244514351552   -0.012634583239165716   -0.0033352290409266816
0.000836540846452719   -0.012414945309960887   -0.00327702730645027
0.0   0.0   0.0
0.008648282035051032   -0.013093422503159317   -0.0034219845247775334
0.000836540846452719   -0.012414945309960887   -0.00327702730645027
0.0   0.0   0.0
0.0   0.0   0.0
0.0009876244514351552   -0.012634583239165716   -0.0033352290409266816
0.0   0.0   0.0
0.0   0.0   0.0
0.0009876244514351552   -0.012634583239165716   -0.0033352290409266816
0.008648282035051032   -0.013093422503159317   -0.0034219845247775334
0.0   0.0   0.0
0.00860726333033534   -0.012906420292273325   -0.00395313712961374
0.0   0.0   0.0
0.0   0.0   0.0
0.00860726333033534   -0.012906420292273325   -0.00395313712961374
0.0   0.0   0.0
0.0   0.0   0.0
0.00860726333033534   -0.012906420292273325   -0.00395313712961374
0.0011063972412902548   -0.012616781775643396   -0.0033874564549531737
0.0009876244514351552   -0.012634583239165716   -0.0033352290409266816
0.0   0.0   0.0
0.00860726333033534   -0.012906420292273325   -0.00395313712961374
0.0009876244514351552   -0.012634583239165716   -0.0033352290409266816
0.0   0.0   0.0
0.0   0.0   0.0
0.0011063972412902548   -0.012616781775643396   -0.0033874564549531737
0.0   0.0   0.0
0.0   0.0   0.0
0.0011063972412902548   -0.012616781775643396   -0.0033874564549531737
0.00860726333033534   -0.012906420292273325   -0.00395313712961374
0.0   0.0   0.0
0.00877013647816678   -0.012404124709120806   -0.004473800299820773
0.0   0.0   0.0
0.0   0.0   0.0
0.00877013647816678   -0.012404124709120806   -0.004473800299820773
0.0   0.0   0.0
0.0   0.0   0.0
0.00877013647816678   -0.012404124709120806   -0.004473800299820773
0.0012673919460890386   -0.012341999715395714   -0.0034407163632160023
0.0011063972412902548   -0.012616781775643396   -0.0033874564549531737
0.0   0.0   0.0
0.00877013647816678   -0.012404124709120806   -0.004473800299820773
0.0011063972412902548   -0.012616781775643396   -0.0033874564549531737
0.0   0.0   0.0
0.0   0.0   0.0
0.008637540642746442   -0.013022791196959248   -0.0028678140964663356
0.0   0.0   0.0
0.0   0.0   0.0
0.008637540642746442   -0.013022791196959248   -0.0028678140964663356
0.01947606633421336   -0.014561813849426461   -0.0027027699341924854
0.0   0.0   0.0
0.018285171369658883   -0.014404349220769086   -0.003957830991490163
0.0   0.0   0.0
0.0   0.0   0.0
0.018285171369658883   -0.014404349220769086   -0.003957830991490163
0.0   0.0   0.0
0.0   0.0   0.0
0.018285171369658883   -0.014404349220769086   -0.003957830991490163
0.008648282035051032   -0.013093422503159317   -0.0034219845247775334
0.008637540642746442   -0.013022791196959248   -0.0028678140964663356
0.0   0.0   0.0
0.018285171369658883   -0.014404349220769086   -0.003957830991490163
0.008637540642746442   -0.013022791196959248   -0.0028678140964663356
0.0   0.0   0.0
0.0   0.0   0.0
0.008648282035051032   -0.013093422503159317   -0.0034219845247775334
0.0   0.0   0.0
0.0   0.0   0.0
0.008648282035051032   -0.013093422503159317   -0.0034219845247775334
0.018285171369658883   -0.014404349220769086   -0.003957830991490163
0.0   0.0   0.0
0.017734204644270418   -0.014104831295702183   -0.005018771572528998
0.0   0.0   0.0
0.0   0.0   0.0
0.017734204644270418   -0.014104831295702183   -0.005018771572528998
0.0   0.0   0.0
0.0   0.0   0.0
0.017734204644270418   -0.014104831295702183   -0.005018771572528998
0.00860726333033534   -0.012906420292273325   -0.00395313712961374
0.008648282035051032   -0.013093422503159317   -0.0034219845247775334
0.0   0.0   0.0
0.017734204644270418   -0.014104831295702183   -0.005018771572528998
0.008648282035051032   -0.013093422503159317   -0.0034219845247775334
0.0   0.0   0.0
0.0   0.0   0.0
0.00860726333033534   -0.012906420292273325   -0.00395313712961374
0.0   0.0   0.0
0.0   0.0   0.0
0.00860726333033534   -0.012906420292273325   -0.00395313712961374
0.017734204644270418   -0.014104831295702183   -0.005018771572528998
0.0   0.0   0.0
0.01691675151906574   -0.01333727863080786   -0.006140650668309219
0.0   0.0   0.0
0.0   0.0   0.0
0.01691675151906574   -0.01333727863080786   -0.006140650668309219
0.0   0.0   0.0
0.0   0.0   0.0
0.01691675151906574   -0.01333727863080786   -0.006140650668309219
0.00877013647816678   -0.012404124709120806   -0.004473800299820773
0.00860726333033534   -0.012906420292273325   -0.00395313712961374
0.0   0.0   0.0
0.01691675151906574   -0.01333727863080786   -0.006140650668309219
0.00860726333033534   -0.012906420292273325   -0.00395313712961374
0.0   0.0   0.0
-0.021929801146232383   -0.014344898884435181   -0.007343579473117979
-0.04099230953224913   -0.04010521276682597   -0.009892167933731431
-0.013959072688822117   -0.012883462958075156   -0.005394867200042472
-0.02295465831606566   -0.015284463354186161   -0.00589435397225513
-0.04099230953224913   -0.04010521276682597   -0.009892167933731431
-0.026165280590127682   -0.03878968656640817   -0.008139117955445729
-0.013959072688822117   -0.012883462958075156   -0.005394867200042472
-0.026201605100733653   -0.03945435554785909   -0.007327937375643456
-0.02295465831606566   -0.015284463354186161   -0.00589435397225513
-0.013686309639184449   -0.013532476494321675   -0.004518738099896892
-0.026201605100733653   -0.03945435554785909   -0.007327937375643456
-0.013959072688822117   -0.012883462958075156   -0.005394867200042472
-0.02295465831606566   -0.015284463354186161   -0.00589435397225513
-0.026201605100733653   -0.03945435554785909   -0.007327937375643456
-0.04222765491762382   -0.04103211954495464   -0.008574127172026472
-0.04099230953224913   -0.04010521276682597   -0.009892167933731431
-0.02295465831606566   -0.015284463354186161   -0.00589435397225513
-0.026201605100733653   -0.03945435554785909   -0.007327937375643456
-0.04099230953224913   -0.04010521276682597   -0.009892167933731431
-0.013959072688822117   -0.012883462958075156   -0.005394867200042472
-0.02295465831606566   -0.015284463354186161   -0.00589435397225513
-0.04222765491762382   -0.04103211954495464   -0.008574127172026472
-0.013686309639184449   -0.013532476494321675   -0.004518738099896892
-0.02367604474754918   -0.015741161687815027   -0.004504997947668627
-0.04222765491762382   -0.04103211954495464   -0.008574127172026472
-0.026201605100733653   -0.03945435554785909   -0.007327937375643456
-0.013686309639184449   -0.013532476494321675   -0.004518738099896892
-0.026310613928930887   -0.03985904851875731   -0.006548074310904278
-0.02367604474754918   -0.015741161687815027   -0.004504997947668627
-0.01372847825338624   -0.013864665092315659   -0.0036434639437162115
-0.026310613928930887   -0.03985904851875731   -0.006548074310904278
-0.013686309639184449   -0.013532476494321675   -0.004518738099896892
-0.02367604474754918   -0.015741161687815027   -0.004504997947668627
-0.026310613928930887   -0.03985904851875731   -0.006548074310904278
-0.04308824705745483   -0.04155512250409746   -0.007283054284871487
-0.04222765491762382   -0.04103211954495464   -0.008574127172026472
-0.02367604474754918   -0.015741161687815027   -0.004504997947668627
-0.026310613928930887   -0.03985904851875731   -0.006548074310904278
-0.04222765491762382   -0.04103211954495464   -0.008574127172026472
-0.013686309639184449   -0.013532476494321675   -0.004518738099896892
-0.02367604474754918   -0.015741161687815027   -0.004504997947668627
-0.04308824705745483   -0.04155512250409746   -0.007283054284871487
-0.01372847825338624   -0.013864665092315659   -0.0036434639437162115
-0.02522656622959605   -0.016085635118138868   -0.0028926445922228474
-0.04308824705745483   -0.04155512250409746   -0.007283054284871487
-0.026310613928930887   -0.03985904851875731   -0.006548074310904278
-0.01372847825338624   -0.013864665092315659   -0.0036434639437162115
-0.0262382609308303   -0.04006823562889145   -0.005817744624037975
-0.02522656622959605   -0.016085635118138868   -0.0028926445922228474
-0.013725287549963442   -0.013949461235841107   -0.0027379112470680713
-0.0262382609308303   -0.04006823562889145   -0.005817744624037975
-0.01372847825338624   -0.013864665092315659   -0.0036434639437162115
-0.02522656622959605   -0.016085635118138868   -0.0028926445922228474
-0.0262382609308303   -0.04006823562889145   -0.005817744624037975
-0.04410568068377219   -0.04185776030197908   -0.006107638006094431
-0.04308824705745483   -0.04155512250409746   -0.007283054284871487
-0.02522656622959605   -0.016085635118138868   -0.0028926445922228474
-0.0262382609308303   -0.04006823562889145   -0.005817744624037975
-0.04308824705745483   -0.04155512250409746   -0.007283054284871487
-0.01372847825338624   -0.013864665092315659   -0.0036434639437162115
-0.013959072688822117   -0.012883462958075156   -0.005394867200042472
-0.026165280590127682   -0.03878968656640817   -0.008139117955445729
-0.006352907818450907   -0.012346733493773458   -0.0041019155672945345
-0.013686309639184449   -0.013532476494321675   -0.004518738099896892
-0.026165280590127682   -0.03878968656640817   -0.008139117955445729
-0.012131238385437563   -0.03817759219294297   -0.006941924854550034
-0.006352907818450907   -0.012346733493773458   -0.0041019155672945345
-0.012032105962035463   -0.03860108904869448   -0.0065267458727603644
-0.013686309639184449   -0.013532476494321675   -0.004518738099896892
-0.00611361710138362   -0.01276959019339858   -0.0036887336135710976
-0.012032105962035463   -0.03860108904869448   -0.0065267458727603644
-0.006352907818450907   -0.012346733493773458   -0.0041019155672945345
-0.013686309639184449   -0.013532476494321675   -0.004518738099896892
-0.012032105962035463   -0.03860108904869448   -0.0065267458727603644
-0.026201605100733653   -0.03945435554785909   -0.007327937375643456
-0.026165280590127682   -0.03878968656640817   -0.008139117955445729
-0.013686309639184449   -0.013532476494321675   -0.004518738099896892
-0.012032105962035463   -0.03860108904869448   -0.0065267458727603644
-0.026165280590127682   -0.03878968656640817   -0.008139117955445729
-0.006352907818450907   -0.012346733493773458   -0.0041019155672945345
-0.013686309639184449   -0.013532476494321675   -0.004518738099896892
-0.026201605100733653   -0.03945435554785909   -0.007327937375643456
-0.00611361710138362   -0.01276959019339858   -0.0036887336135710976
-0.01372847825338624   -0.013864665092315659   -0.0036434639437162115
-0.026201605100733653   -0.03945435554785909   -0.007327937375643456
-0.012032105962035463   -0.03860108904869448   -0.0065267458727603644
-0.00611361710138362   -0.01276959019339858   -0.0036887336135710976
-0.011944881284852956   -0.03880629996294473   -0.006150143405110908
-0.01372847825338624   -0.013864665092315659   -0.0036434639437162115
-0.0059806837198915575   -0.01293062144762379   -0.0032859406538106066
-0.011944881284852956   -0.03880629996294473   -0.006150143405110908
-0.00611361710138362   -0.01276959019339858   -0.0036887336135710976
-0.01372847825338624   -0.013864665092315659   -0.0036434639437162115
-0.011944881284852956   -0.03880629996294473   -0.006150143405110908
-0.026310613928930887   -0.03985904851875731   -0.006548074310904278
-0.026201605100733653   -0.03945435554785909   -0.007327937375643456
-0.01372847825338624   -0.013864665092315659   -0.0036434639437162115
-0.011944881284852956   -0.03880629996294473   -0.006150143405110908
-0.026201605100733653   -0.03945435554785909   -0.007327937375643456
-0.00611361710138362   -0.01276959019339858   -0.0036887336135710976
-0.01372847825338624   -0.013864665092315659   -0.0036434639437162115
-0.026310613928930887   -0.03985904851875731   -0.006548074310904278
-0.0059806837198915575   -0.01293062144762379   -0.0032859406538106066
-0.013725287549963442   -0.013949461235841107   -0.0027379112470680713
-0.026310613928930887   -0.03985904851875731   -0.006548074310904278
-0.011944881284852956   -0.03880629996294473   -0.006150143405110908
-0.0059806837198915575   -0.01293062144762379   -0.0032859406538106066
-0.011812137156111723   -0.038800974258064704   -0.005821988580028328
-0.013725287549963442   -0.013949461235841107   -0.0027379112470680713
-0.005860227339550693   -0.012863100636149509   -0.0028691075540586957
-0.011812137156111723   -0.038800974258064704   -0.005821988580028328
-0.0059806837198915575   -0.01293062144762379   -0.0032859406538106066
-0.013725287549963442   -0.013949461235841107   -0.0027379112470680713
-0.011812137156111723   -0.038800974258064704   -0.005821988580028328
-0.0262382609308303   -0.04006823562889145   -0.005817744624037975
-0.026310613928930887   -0.03985904851875731   -0.006548074310904278
-0.013725287549963442   -0.013949461235841107   -0.0027379112470680713
-0.011812137156111723   -0.038800974258064704   -0.005821988580028328
-0.026310613928930887   -0.03985904851875731   -0.006548074310904278
-0.0059806837198915575   -0.01293062144762379   -0.0032859406538106066
-0.006352907818450907   -0.012346733493773458   -0.0041019155672945345
-0.012131238385437563   -0.03817759219294297   -0.006941924854550034
0.000836540846452719   -0.012414945309960887   -0.00327702730645027
-0.00611361710138362   -0.01276959019339858   -0.0036887336135710976
-0.012131238385437563   -0.03817759219294297   -0.006941924854550034
0.0014053647385740913   -0.0381954849644107   -0.0061838816433083975
0.000836540846452719   -0.012414945309960887   -0.00327702730645027
0.0015281737615568899   -0.038396842087049   -0.006157413244341358
-0.00611361710138362   -0.01276959019339858   -0.0036887336135710976
0.0009876244514351552   -0.012634583239165716   -0.0033352290409266816
0.0015281737615568899   -0.038396842087049   -0.006157413244341358
0.000836540846452719   -0.012414945309960887   -0.00327702730645027
-0.00611361710138362   -0.01276959019339858   -0.0036887336135710976
0.0015281737615568899   -0.038396842087049   -0.006157413244341358
-0.012032105962035463   -0.03860108904869448   -0.0065267458727603644
-0.012131238385437563   -0.03817759219294297   -0.006941924854550034
-0.00611361710138362   -0.01276959019339858   -0.0036887336135710976
0.0015281737615568899   -0.038396842087049   -0.006157413244341358
-0.012131238385437563   -0.03817759219294297   -0.006941924854550034
0.000836540846452719   -0.012414945309960887   -0.00327702730645027
-0.00611361710138362   -0.01276959019339858   -0.0036887336135710976
-0.012032105962035463   -0.03860108904869448   -0.0065267458727603644
0.0009876244514351552   -0.012634583239165716   -0.0033352290409266816
-0.0059806837198915575   -0.01293062144762379   -0.0032859406538106066
-0.012032105962035463   -0.03860108904869448   -0.0065267458727603644
0.0015281737615568899   -0.038396842087049   -0.006157413244341358
0.0009876244514351552   -0.012634583239165716   -0.0033352290409266816
0.0016090510359941248   -0.038385049463314266   -0.006174749620762754
-0.0059806837198915575   -0.01293062144762379   -0.0032859406538106066
0.0011063972412902548   -0.012616781775643396   -0.0033874564549531737
0.0016090510359941248   -0.038385049463314266   -0.006174749620762754
0.0009876244514351552   -0.012634583239165716   -0.0033352290409266816
-0.0059806837198915575   -0.01293062144762379   -0.0032859406538106066
0.0016090510359941248   -0.038385049463314266   -0.006174749620762754
-0.011944881284852956   -0.03880629996294473   -0.006150143405110908
-0.012032105962035463   -0.03860108904869448   -0.0065267458727603644
-0.0059806837198915575   -0.01293062144762379   -0.0032859406538106066
0.0016090510359941248   -0.038385049463314266   -0.006174749620762754
-0.012032105962035463   -0.03860108904869448   -0.0065267458727603644
0.0009876244514351552   -0.012634583239165716   -0.0033352290409266816
-0.0059806837198915575   -0.01293062144762379   -0.0032859406538106066
-0.011944881284852956   -0.03880629996294473   -0.006150143405110908
0.0011063972412902548   -0.012616781775643396   -0.0033874564549531737
-0.005860227339550693   -0.012863100636149509   -0.0028691075540586957
-0.011944881284852956   -0.03880629996294473   -0.006150143405110908
0.0016090510359941248   -0.038385049463314266   -0.006174749620762754
0.0011063972412902548   -0.012616781775643396   -0.0033874564549531737
0.0016962322434462016   -0.038153575789203   -0.006236590388508794
-0.005860227339550693   -0.012863100636149509   -0.0028691075540586957
0.0012673919460890386   -0.012341999715395714   -0.0034407163632160023
0.0016962322434462016   -0.038153575789203   -0.006236590388508794
0.0011063972412902548   -0.012616781775643396   -0.0033874564549531737
-0.005860227339550693   -0.012863100636149509   -0.0028691075540586957
0.0016962322434462016   -0.038153575789203   -0.006236590388508794
-0.011812137156111723   -0.038800974258064704   -0.005821988580028328
-0.011944881284852956   -0.03880629996294473   -0.006150143405110908
-0.005860227339550693   -0.012863100636149509   -0.0028691075540586957
0.0016962322434462016   -0.038153575789203   -0.006236590388508794
-0.011944881284852956   -0.03880629996294473   -0.006150143405110908
0.0011063972412902548   -0.012616781775643396   -0.0033874564549531737
0.000836540846452719   -0.012414945309960887   -0.00327702730645027
0.0014053647385740913   -0.0381954849644107   -0.0061838816433083975
0.008637540642746442   -0.013022791196959248   -0.0028678140964663356
0.0009876244514351552   -0.012634583239165716   -0.0033352290409266816
0.0014053647385740913   -0.0381954849644107   -0.0061838816433083975
0.01574730497624442   -0.03882051704827933   -0.005828474513607952
0.008637540642746442   -0.013022791196959248   -0.0028678140964663356
0.01581371540497539   -0.03882027000122975   -0.006203360392105536
0.0009876244514351552   -0.012634583239165716   -0.0033352290409266816
0.008648282035051032   -0.013093422503159317   -0.0034219845247775334
0.01581371540497539   -0.03882027000122975   -0.006203360392105536
0.008637540642746442   -0.013022791196959248   -0.0028678140964663356
0.0009876244514351552   -0.012634583239165716   -0.0033352290409266816
0.01581371540497539   -0.03882027000122975   -0.006203360392105536
0.0015281737615568899   -0.038396842087049   -0.006157413244341358
0.0014053647385740913   -0.0381954849644107   -0.0061838816433083975
0.0009876244514351552   -0.012634583239165716   -0.0033352290409266816
0.01581371540497539   -0.03882027000122975   -0.006203360392105536
0.0014053647385740913   -0.0381954849644107   -0.0061838816433083975
0.008637540642746442   -0.013022791196959248   -0.0028678140964663356
0.0009876244514351552   -0.012634583239165716   -0.0033352290409266816
0.0015281737615568899   -0.038396842087049   -0.006157413244341358
0.008648282035051032   -0.013093422503159317   -0.0034219845247775334
0.0011063972412902548   -0.012616781775643396   -0.0033874564549531737
0.0015281737615568899   -0.038396842087049   -0.006157413244341358
0.01581371540497539   -0.03882027000122975   -0.006203360392105536
0.008648282035051032   -0.013093422503159317   -0.0034219845247775334
0.015734535506561516   -0.038610851249063445   -0.006627811193283207
0.0011063972412902548   -0.012616781775643396   -0.0033874564549531737
0.00860726333033534   -0.012906420292273325   -0.00395313712961374
0.015734535506561516   -0.038610851249063445   -0.006627811193283207
0.008648282035051032   -0.013093422503159317   -0.0034219845247775334
0.0011063972412902548   -0.012616781775643396   -0.0033874564549531737
0.015734535506561516   -0.038610851249063445   -0.006627811193283207
0.0016090510359941248   -0.038385049463314266   -0.006174749620762754
0.0015281737615568899   -0.038396842087049   -0.006157413244341358
0.0011063972412902548   -0.012616781775643396   -0.0033874564549531737
0.015734535506561516   -0.038610851249063445   -0.006627811193283207
0.0015281737615568899   -0.038396842087049   -0.006157413244341358
0.008648282035051032   -0.013093422503159317   -0.0034219845247775334
0.0011063972412902548   -0.012616781775643396   -0.0033874564549531737
0.0016090510359941248   -0.038385049463314266   -0.006174749620762754
0.00860726333033534   -0.012906420292273325   -0.00395313712961374
0.0012673919460890386   -0.012341999715395714   -0.0034407163632160023
0.0016090510359941248   -0.038385049463314266   -0.006174749620762754
0.015734535506561516   -0.038610851249063445   -0.006627811193283207
0.00860726333033534   -0.012906420292273325   -0.00395313712961374
0.015686946141704978   -0.03813475747077676   -0.007086143820379881
0.0012673919460890386   -0.012341999715395714   -0.0034407163632160023
0.00877013647816678   -0.012404124709120806   -0.004473800299820773
0.015686946141704978   -0.03813475747077676   -0.007086143820379881
0.00860726333033534   -0.012906420292273325   -0.00395313712961374
0.0012673919460890386   -0.012341999715395714   -0.0034407163632160023
0.015686946141704978   -0.03813475747077676   -0.007086143820379881
0.0016962322434462016   -0.038153575789203   -0.006236590388508794
0.0016090510359941248   -0.038385049463314266   -0.006174749620762754
0.0012673919460890386   -0.012341999715395714   -0.0034407163632160023
0.015686946141704978   -0.03813475747077676   -0.007086143820379881
0.0016090510359941248   -0.038385049463314266   -0.006174749620762754
0.00860726333033534   -0.012906420292273325   -0.00395313712961374
0.008637540642746442   -0.013022791196959248   -0.0028678140964663356
0.01574730497624442   -0.03882051704827933   -0.005828474513607952
0.01947606633421336   -0.014561813849426461   -0.0027027699341924854
0.008648282035051032   -0.013093422503159317   -0.0034219845247775334
0.01574730497624442   -0.03882051704827933   -0.005828474513607952
0.03304602013563263   -0.03998337573516556   -0.005729367246896862
0.01947606633421336   -0.014561813849426461   -0.0027027699341924854
0.03236476793569231   -0.03987634458709576   -0.0065719470645543955
0.008648282035051032   -0.013093422503159317   -0.0034219845247775334
0.018285171369658883   -0.014404349220769086   -0.003957830991490163
0.03236476793569231   -0.03987634458709576   -0.0065719470645543955
0.01947606633421336   -0.014561813849426461   -0.0027027699341924854
0.008648282035051032   -0.013093422503159317   -0.0034219845247775334
0.03236476793569231   -0.03987634458709576   -0.0065719470645543955
0.01581371540497539   -0.03882027000122975   -0.006203360392105536
0.01574730497624442   -0.03882051704827933   -0.005828474513607952
0.008648282035051032   -0.013093422503159317   -0.0034219845247775334
0.03236476793569231   -0.03987634458709576   -0.0065719470645543955
0.01574730497624442   -0.03882051704827933   -0.005828474513607952
0.01947606633421336   -0.014561813849426461   -0.0027027699341924854
0.008648282035051032   -0.013093422503159317   -0.0034219845247775334
0.01581371540497539   -0.03882027000122975   -0.006203360392105536
0.018285171369658883   -0.014404349220769086   -0.003957830991490163
0.00860726333033534   -0.012906420292273325   -0.00395313712961374
0.01581371540497539   -0.03882027000122975   -0.006203360392105536
0.03236476793569231   -0.03987634458709576   -0.0065719470645543955
0.018285171369658883   -0.014404349220769086   -0.003957830991490163
0.03175670788146912   -0.03955316604190485   -0.007518886585500097
0.00860726333033534   -0.012906420292273325   -0.00395313712961374
0.017734204644270418   -0.014104831295702183   -0.005018771572528998
0.03175670788146912   -0.03955316604190485   -0.007518886585500097
0.018285171369658883   -0.014404349220769086   -0.003957830991490163
0.00860726333033534   -0.012906420292273325   -0.00395313712961374
0.03175670788146912   -0.03955316604190485   -0.007518886585500097
0.015734535506561516   -0.038610851249063445   -0.006627811193283207
0.01581371540497539   -0.03882027000122975   -0.006203360392105536
0.00860726333033534   -0.012906420292273325   -0.00395313712961374
0.03175670788146912   -0.03955316604190485   -0.007518886585500097
0.01581371540497539   -0.03882027000122975   -0.006203360392105536
0.018285171369658883   -0.014404349220769086   -0.003957830991490163
0.00860726333033534   -0.012906420292273325   -0.00395313712961374
0.015734535506561516   -0.038610851249063445   -0.006627811193283207
0.017734204644270418   -0.014104831295702183   -0.005018771572528998
0.00877013647816678   -0.012404124709120806   -0.004473800299820773
0.015734535506561516   -0.038610851249063445   -0.006627811193283207
0.03175670788146912   -0.03955316604190485   -0.007518886585500097
0.017734204644270418   -0.014104831295702183   -0.005018771572528998
0.03084935595635406   -0.03883216258644457   -0.008504040953318186
0.00877013647816678   -0.012404124709120806   -0.004473800299820773
0.01691675151906574   -0.01333727863080786   -0.006140650668309219
0.03084935595635406   -0.03883216258644457   -0.008504040953318186
0.017734204644270418   -0.014104831295702183   -0.005018771572528998
0.00877013647816678   -0.012404124709120806   -0.004473800299820773
0.03084935595635406   -0.03883216258644457   -0.008504040953318186
0.015686946141704978   -0.03813475747077676   -0.007086143820379881
0.015734535506561516   -0.038610851249063445   -0.006627811193283207
0.00877013647816678   -0.012404124709120806   -0.004473800299820773
0.03084935595635406   -0.03883216258644457   -0.008504040953318186
0.015734535506561516   -0.038610851249063445   -0.006627811193283207
0.017734204644270418   -0.014104831295702183   -0.005018771572528998
-0.04099230953224913   -0.04010521276682597   -0.009892167933731431
-0.05620635250211165   -0.0752964806395655   -0.011262497612122188
-0.026165280590127682   -0.03878968656640817   -0.008139117955445729
-0.04222765491762382   -0.04103211954495464   -0.008574127172026472
-0.05620635250211165   -0.0752964806395655   -0.011262497612122188
-0.036132465571955104   -0.07428977681679   -0.00983823385187044
-0.026165280590127682   -0.03878968656640817   -0.008139117955445729
-0.03621820578989984   -0.07486433700495657   -0.009208061585532489
-0.04222765491762382   -0.04103211954495464   -0.008574127172026472
-0.026201605100733653   -0.03945435554785909   -0.007327937375643456
-0.03621820578989984   -0.07486433700495657   -0.009208061585532489
-0.026165280590127682   -0.03878968656640817   -0.008139117955445729
-0.04222765491762382   -0.04103211954495464   -0.008574127172026472
-0.03621820578989984   -0.07486433700495657   -0.009208061585532489
-0.057214766641369645   -0.07608134285093068   -0.010277675809382885
-0.05620635250211165   -0.0752964806395655   -0.011262497612122188
-0.04222765491762382   -0.04103211954495464   -0.008574127172026472
-0.03621820578989984   -0.07486433700495657   -0.009208061585532489
-0.05620635250211165   -0.0752964806395655   -0.011262497612122188
-0.026165280590127682   -0.03878968656640817   -0.008139117955445729
-0.04222765491762382   -0.04103211954495464   -0.008574127172026472
-0.057214766641369645   -0.07608134285093068   -0.010277675809382885
-0.026201605100733653   -0.03945435554785909   -0.007327937375643456
-0.04308824705745483   -0.04155512250409746   -0.007283054284871487
-0.057214766641369645   -0.07608134285093068   -0.010277675809382885
-0.03621820578989984   -0.07486433700495657   -0.009208061585532489
-0.026201605100733653   -0.03945435554785909   -0.007327937375643456
-0.036318376790255895   -0.07526368076935916   -0.008623259897393001
-0.04308824705745483   -0.04155512250409746   -0.007283054284871487
-0.026310613928930887   -0.03985904851875731   -0.006548074310904278
-0.036318376790255895   -0.07526368076935916   -0.008623259897393001
-0.026201605100733653   -0.03945435554785909   -0.007327937375643456
-0.04308824705745483   -0.04155512250409746   -0.007283054284871487
-0.036318376790255895   -0.07526368076935916   -0.008623259897393001
-0.05785347346789525   -0.07657294275386377   -0.009359383690003793
-0.057214766641369645   -0.07608134285093068   -0.010277675809382885
-0.04308824705745483   -0.04155512250409746   -0.007283054284871487
-0.036318376790255895   -0.07526368076935916   -0.008623259897393001
-0.057214766641369645   -0.07608134285093068   -0.010277675809382885
-0.026201605100733653   -0.03945435554785909   -0.007327937375643456
-0.04308824705745483   -0.04155512250409746   -0.007283054284871487
-0.05785347346789525   -0.07657294275386377   -0.009359383690003793
-0.026310613928930887   -0.03985904851875731   -0.006548074310904278
-0.04410568068377219   -0.04185776030197908   -0.006107638006094431
-0.05785347346789525   -0.07657294275386377   -0.009359383690003793
-0.036318376790255895   -0.07526368076935916   -0.008623259897393001
-0.026310613928930887   -0.03985904851875731   -0.006548074310904278
-0.036257189737771194   -0.07552564649077244   -0.008074178725877934
-0.04410568068377219   -0.04185776030197908   -0.006107638006094431
-0.0262382609308303   -0.04006823562889145   -0.005817744624037975
-0.036257189737771194   -0.07552564649077244   -0.008074178725877934
-0.026310613928930887   -0.03985904851875731   -0.006548074310904278
-0.04410568068377219   -0.04185776030197908   -0.006107638006094431
-0.036257189737771194   -0.07552564649077244   -0.008074178725877934
-0.05858019755869222   -0.07692525089737898   -0.008513837135134294
-0.05785347346789525   -0.07657294275386377   -0.009359383690003793
-0.04410568068377219   -0.04185776030197908   -0.006107638006094431
-0.036257189737771194   -0.07552564649077244   -0.008074178725877934
-0.05785347346789525   -0.07657294275386377   -0.009359383690003793
-0.026310613928930887   -0.03985904851875731   -0.006548074310904278
-0.026165280590127682   -0.03878968656640817   -0.008139117955445729
-0.036132465571955104   -0.07428977681679   -0.00983823385187044
-0.012131238385437563   -0.03817759219294297   -0.006941924854550034
-0.026201605100733653   -0.03945435554785909   -0.007327937375643456
-0.036132465571955104   -0.07428977681679   -0.00983823385187044
-0.01719655869228532   -0.07378837339375324   -0.008848445184980456
-0.012131238385437563   -0.03817759219294297   -0.006941924854550034
-0.017159976669965854   -0.07415622466512349   -0.008492917663113936
-0.026201605100733653   -0.03945435554785909   -0.007327937375643456
-0.012032105962035463   -0.03860108904869448   -0.0065267458727603644
-0.017159976669965854   -0.07415622466512349   -0.008492917663113936
-0.012131238385437563   -0.03817759219294297   -0.006941924854550034
-0.026201605100733653   -0.03945435554785909   -0.007327937375643456
-0.017159976669965854   -0.07415622466512349   -0.008492917663113936
-0.03621820578989984   -0.07486433700495657   -0.009208061585532489
-0.036132465571955104   -0.07428977681679   -0.00983823385187044
-0.026201605100733653   -0.03945435554785909   -0.007327937375643456
-0.017159976669965854   -0.07415622466512349   -0.008492917663113936
-0.036132465571955104   -0.07428977681679   -0.00983823385187044
-0.012131238385437563   -0.03817759219294297   -0.006941924854550034
-0.026201605100733653   -0.03945435554785909   -0.007327937375643456
-0.03621820578989984   -0.07486433700495657   -0.009208061585532489
-0.012032105962035463   -0.03860108904869448   -0.0065267458727603644
-0.026310613928930887   -0.03985904851875731   -0.006548074310904278
-0.03621820578989984   -0.07486433700495657   -0.009208061585532489
-0.017159976669965854   -0.07415622466512349   -0.008492917663113936
-0.012032105962035463   -0.03860108904869448   -0.0065267458727603644
-0.01711366932734911   -0.07437210391716097   -0.008180633042041918
-0.026310613928930887   -0.03985904851875731   -0.006548074310904278
-0.011944881284852956   -0.03880629996294473   -0.006150143405110908
-0.01711366932734911   -0.07437210391716097   -0.008180633042041918
-0.012032105962035463   -0.03860108904869448   -0.0065267458727603644
-0.026310613928930887   -0.03985904851875731   -0.006548074310904278
-0.01711366932734911   -0.07437210391716097   -0.008180633042041918
-0.036318376790255895   -0.07526368076935916   -0.008623259897393001
-0.03621820578989984   -0.07486433700495657   -0.009208061585532489
-0.026310613928930887   -0.03985904851875731   -0.006548074310904278
-0.01711366932734911   -0.07437210391716097   -0.008180633042041918
-0.03621820578989984   -0.07486433700495657   -0.009208061585532489
-0.012032105962035463   -0.03860108904869448   -0.0065267458727603644
-0.026310613928930887   -0.03985904851875731   -0.006548074310904278
-0.036318376790255895   -0.07526368076935916   -0.008623259897393001
-0.011944881284852956   -0.03880629996294473   -0.006150143405110908
-0.0262382609308303   -0.04006823562889145   -0.005817744624037975
-0.036318376790255895   -0.07526368076935916   -0.008623259897393001
-0.01711366932734911   -0.07437210391716097   -0.008180633042041918
-0.011944881284852956   -0.03880629996294473   -0.006150143405110908
-0.01703349025278241   -0.07443909871842272   -0.007911444053049232
-0.0262382609308303   -0.04006823562889145   -0.005817744624037975
-0.011812137156111723   -0.038800974258064704   -0.005821988580028328
-0.01703349025278241   -0.07443909871842272   -0.007911444053049232
-0.011944881284852956   -0.03880629996294473   -0.006150143405110908
-0.0262382609308303   -0.04006823562889145   -0.005817744624037975
-0.01703349025278241   -0.07443909871842272   -0.007911444053049232
-0.036257189737771194   -0.07552564649077244   -0.008074178725877934
-0.036318376790255895   -0.07526368076935916   -0.008623259897393001
-0.0262382609308303   -0.04006823562889145   -0.005817744624037975
-0.01703349025278241   -0.07443909871842272   -0.007911444053049232
-0.036318376790255895   -0.07526368076935916   -0.008623259897393001
-0.011944881284852956   -0.03880629996294473   -0.006150143405110908
-0.012131238385437563   -0.03817759219294297   -0.006941924854550034
-0.01719655869228532   -0.07378837339375324   -0.008848445184980456
0.0014053647385740913   -0.0381954849644107   -0.0061838816433083975
-0.012032105962035463   -0.03860108904869448   -0.0065267458727603644
-0.01719655869228532   -0.07378837339375324   -0.008848445184980456
0.0011859708388241488   -0.07376179044079406   -0.00823356432206372
0.0014053647385740913   -0.0381954849644107   -0.0061838816433083975
0.001258461534946038   -0.07392633072985459   -0.008151168965337357
-0.012032105962035463   -0.03860108904869448   -0.0065267458727603644
0.0015281737615568899   -0.038396842087049   -0.006157413244341358
0.001258461534946038   -0.07392633072985459   -0.008151168965337357
0.0014053647385740913   -0.0381954849644107   -0.0061838816433083975
-0.012032105962035463   -0.03860108904869448   -0.0065267458727603644
0.001258461534946038   -0.07392633072985459   -0.008151168965337357
-0.017159976669965854   -0.07415622466512349   -0.008492917663113936
-0.01719655869228532   -0.07378837339375324   -0.008848445184980456
-0.012032105962035463   -0.03860108904869448   -0.0065267458727603644
0.001258461534946038   -0.07392633072985459   -0.008151168965337357
-0.01719655869228532   -0.07378837339375324   -0.008848445184980456
0.0014053647385740913   -0.0381954849644107   -0.0061838816433083975
-0.012032105962035463   -0.03860108904869448   -0.0065267458727603644
-0.017159976669965854   -0.07415622466512349   -0.008492917663113936
0.0015281737615568899   -0.038396842087049   -0.006157413244341358
-0.011944881284852956   -0.03880629996294473   -0.006150143405110908
-0.017159976669965854   -0.07415622466512349   -0.008492917663113936
0.001258461534946038   -0.07392633072985459   -0.008151168965337357
0.0015281737615568899   -0.038396842087049   -0.006157413244341358
0.0013026217062784187   -0.07393952170821597   -0.008110865249693382
-0.011944881284852956   -0.03880629996294473   -0.006150143405110908
0.0016090510359941248   -0.038385049463314266   -0.006174749620762754
0.0013026217062784187   -0.07393952170821597   -0.008110865249693382
0.0015281737615568899   -0.038396842087049   -0.006157413244341358
-0.011944881284852956   -0.03880629996294473   -0.006150143405110908
0.0013026217062784187   -0.07393952170821597   -0.008110865249693382
-0.01711366932734911   -0.07437210391716097   -0.008180633042041918
-0.017159976669965854   -0.07415622466512349   -0.008492917663113936
-0.011944881284852956   -0.03880629996294473   -0.006150143405110908
0.0013026217062784187   -0.07393952170821597   -0.008110865249693382
-0.017159976669965854   -0.07415622466512349   -0.008492917663113936
0.0015281737615568899   -0.038396842087049   -0.006157413244341358
-0.011944881284852956   -0.03880629996294473   -0.006150143405110908
-0.01711366932734911   -0.07437210391716097   -0.008180633042041918
0.0016090510359941248   -0.038385049463314266   -0.006174749620762754
-0.011812137156111723   -0.038800974258064704   -0.005821988580028328
-0.01711366932734911   -0.07437210391716097   -0.008180633042041918
0.0013026217062784187   -0.07393952170821597   -0.008110865249693382
0.0016090510359941248   -0.038385049463314266   -0.006174749620762754
0.0013326990341116106   -0.0737990982623618   -0.008115235433626912
-0.011812137156111723   -0.038800974258064704   -0.005821988580028328
0.0016962322434462016   -0.038153575789203   -0.006236590388508794
0.0013326990341116106   -0.0737990982623618   -0.008115235433626912
0.0016090510359941248   -0.038385049463314266   -0.006174749620762754
-0.011812137156111723   -0.038800974258064704   -0.005821988580028328
0.0013326990341116106   -0.0737990982623618   -0.008115235433626912
-0.01703349025278241   -0.07443909871842272   -0.007911444053049232
-0.01711366932734911   -0.07437210391716097   -0.008180633042041918
-0.011812137156111723   -0.038800974258064704   -0.005821988580028328
0.0013326990341116106   -0.0737990982623618   -0.008115235433626912
-0.01711366932734911   -0.07437210391716097   -0.008180633042041918
0.0016090510359941248   -0.038385049463314266   -0.006174749620762754
0.0014053647385740913   -0.0381954849644107   -0.0061838816433083975
0.0011859708388241488   -0.07376179044079406   -0.00823356432206372
0.01574730497624442   -0.03882051704827933   -0.005828474513607952
0.0015281737615568899   -0.038396842087049   -0.006157413244341358
0.0011859708388241488   -0.07376179044079406   -0.00823356432206372
0.0203512590818412   -0.07418186127586106   -0.007982899161430225
0.01574730497624442   -0.03882051704827933   -0.005828474513607952
0.02041311415730302   -0.0741602721638691   -0.00817935985659934
0.0015281737615568899   -0.038396842087049   -0.006157413244341358
0.01581371540497539   -0.03882027000122975   -0.006203360392105536
0.02041311415730302   -0.0741602721638691   -0.00817935985659934
0.01574730497624442   -0.03882051704827933   -0.005828474513607952
0.0015281737615568899   -0.038396842087049   -0.006157413244341358
0.02041311415730302   -0.0741602721638691   -0.00817935985659934
0.001258461534946038   -0.07392633072985459   -0.008151168965337357
0.0011859708388241488   -0.07376179044079406   -0.00823356432206372
0.0015281737615568899   -0.038396842087049   -0.006157413244341358
0.02041311415730302   -0.0741602721638691   -0.00817935985659934
0.0011859708388241488   -0.07376179044079406   -0.00823356432206372
0.01574730497624442   -0.03882051704827933   -0.005828474513607952
0.0015281737615568899   -0.038396842087049   -0.006157413244341358
0.001258461534946038   -0.07392633072985459   -0.008151168965337357
0.01581371540497539   -0.03882027000122975   -0.006203360392105536
0.0016090510359941248   -0.038385049463314266   -0.006174749620762754
0.001258461534946038   -0.07392633072985459   -0.008151168965337357
0.02041311415730302   -0.0741602721638691   -0.00817935985659934
0.01581371540497539   -0.03882027000122975   -0.006203360392105536
0.020354173694589854   -0.07399037008409223   -0.00841481922810411
0.0016090510359941248   -0.038385049463314266   -0.006174749620762754
0.015734535506561516   -0.038610851249063445   -0.006627811193283207
0.020354173694589854   -0.07399037008409223   -0.00841481922810411
0.01581371540497539   -0.03882027000122975   -0.006203360392105536
0.0016090510359941248   -0.038385049463314266   -0.006174749620762754
0.020354173694589854   -0.07399037008409223   -0.00841481922810411
0.0013026217062784187   -0.07393952170821597   -0.008110865249693382
0.001258461534946038   -0.07392633072985459   -0.008151168965337357
0.0016090510359941248   -0.038385049463314266   -0.006174749620762754
0.020354173694589854   -0.07399037008409223   -0.00841481922810411
0.001258461534946038   -0.07392633072985459   -0.008151168965337357
0.01581371540497539   -0.03882027000122975   -0.006203360392105536
0.0016090510359941248   -0.038385049463314266   -0.006174749620762754
0.0013026217062784187   -0.07393952170821597   -0.008110865249693382
0.015734535506561516   -0.038610851249063445   -0.006627811193283207
0.0016962322434462016   -0.038153575789203   -0.006236590388508794
0.0013026217062784187   -0.07393952170821597   -0.008110865249693382
0.020354173694589854   -0.07399037008409223   -0.00841481922810411
0.015734535506561516   -0.038610851249063445   -0.006627811193283207
0.020269948599520908   -0.07363566283822498   -0.008693878269003079
0.0016962322434462016   -0.038153575789203   -0.006236590388508794
0.015686946141704978   -0.03813475747077676   -0.007086143820379881
0.020269948599520908   -0.07363566283822498   -0.008693878269003079
0.015734535506561516   -0.038610851249063445   -0.006627811193283207
0.0016962322434462016   -0.038153575789203   -0.006236590388508794
0.020269948599520908   -0.07363566283822498   -0.008693878269003079
0.0013326990341116106   -0.0737990982623618   -0.008115235433626912
0.0013026217062784187   -0.07393952170821597   -0.008110865249693382
0.0016962322434462016   -0.038153575789203   -0.006236590388508794
0.020269948599520908   -0.07363566283822498   -0.008693878269003079
0.0013026217062784187   -0.07393952170821597   -0.008110865249693382
0.015734535506561516   -0.038610851249063445   -0.006627811193283207
0.01574730497624442   -0.03882051704827933   -0.005828474513607952
0.0203512590818412   -0.07418186127586106   -0.007982899161430225
0.03304602013563263   -0.03998337573516556   -0.005729367246896862
0.01581371540497539   -0.03882027000122975   -0.006203360392105536
0.0203512590818412   -0.07418186127586106   -0.007982899161430225
0.042173897954024965   -0.07494519550141851   -0.007983000231310641
0.03304602013563263   -0.03998337573516556   -0.005729367246896862
0.04179659842558591   -0.0748167094807669   -0.008494890423625024
0.01581371540497539   -0.03882027000122975   -0.006203360392105536
0.03236476793569231   -0.03987634458709576   -0.0065719470645543955
0.04179659842558591   -0.0748167094807669   -0.008494890423625024
0.03304602013563263   -0.03998337573516556   -0.005729367246896862
0.01581371540497539   -0.03882027000122975   -0.006203360392105536
0.04179659842558591   -0.0748167094807669   -0.008494890423625024
0.02041311415730302   -0.0741602721638691   -0.00817935985659934
0.0203512590818412   -0.07418186127586106   -0.007982899161430225
0.01581371540497539   -0.03882027000122975   -0.006203360392105536
0.04179659842558591   -0.0748167094807669   -0.008494890423625024
0.0203512590818412   -0.07418186127586106   -0.007982899161430225
0.03304602013563263   -0.03998337573516556   -0.005729367246896862
0.01581371540497539   -0.03882027000122975   -0.006203360392105536
0.02041311415730302   -0.0741602721638691   -0.00817935985659934
0.03236476793569231   -0.03987634458709576   -0.0065719470645543955
0.015734535506561516   -0.038610851249063445   -0.006627811193283207
0.02041311415730302   -0.0741602721638691   -0.00817935985659934
0.04179659842558591   -0.0748167094807669   -0.008494890423625024
0.03236476793569231   -0.03987634458709576   -0.0065719470645543955
0.04142143907033534   -0.07455471443910464   -0.009077099575227456
0.015734535506561516   -0.038610851249063445   -0.006627811193283207
0.03175670788146912   -0.03955316604190485   -0.007518886585500097
0.04142143907033534   -0.07455471443910464   -0.009077099575227456
0.03236476793569231   -0.03987634458709576   -0.0065719470645543955
0.015734535506561516   -0.038610851249063445   -0.006627811193283207
0.04142143907033534   -0.07455471443910464   -0.009077099575227456
0.020354173694589854   -0.07399037008409223   -0.00841481922810411
0.02041311415730302   -0.0741602721638691   -0.00817935985659934
0.015734535506561516   -0.038610851249063445   -0.006627811193283207
0.04142143907033534   -0.07455471443910464   -0.009077099575227456
0.02041311415730302   -0.0741602721638691   -0.00817935985659934
0.03236476793569231   -0.03987634458709576   -0.0065719470645543955
0.015734535506561516   -0.038610851249063445   -0.006627811193283207
0.020354173694589854   -0.07399037008409223   -0.00841481922810411
0.03175670788146912   -0.03955316604190485   -0.007518886585500097
0.015686946141704978   -0.03813475747077676   -0.007086143820379881
0.020354173694589854   -0.07399037008409223   -0.00841481922810411
0.04142143907033534   -0.07455471443910464   -0.009077099575227456
0.03175670788146912   -0.03955316604190485   -0.007518886585500097
0.04076166030795797   -0.074002949450976   -0.009729699984772104
0.015686946141704978   -0.03813475747077676   -0.007086143820379881
0.03084935595635406   -0.03883216258644457   -0.008504040953318186
0.04076166030795797   -0.074002949450976   -0.009729699984772104
0.03175670788146912   -0.03955316604190485   -0.007518886585500097
0.015686946141704978   -0.03813475747077676   -0.007086143820379881
0.04076166030795797   -0.074002949450976   -0.009729699984772104
0.020269948599520908   -0.07363566283822498   -0.008693878269003079
0.020354173694589854   -0.07399037008409223   -0.00841481922810411
0.015686946141704978   -0.03813475747077676   -0.007086143820379881
0.04076166030795797   -0.074002949450976   -0.009729699984772104
0.020354173694589854   -0.07399037008409223   -0.00841481922810411
0.03175670788146912   -0.03955316604190485   -0.007518886585500097
-0.05620635250211165   -0.0752964806395655   -0.011262497612122188
-0.06716376354411145   -0.1170734936216488   -0.012004816599891527
-0.036132465571955104   -0.07428977681679   -0.00983823385187044
-0.057214766641369645   -0.07608134285093068   -0.010277675809382885
-0.06716376354411145   -0.1170734936216488   -0.012004816599891527
-0.04358392163685148   -0.11643169539378143   -0.010841416854775592
-0.036132465571955104   -0.07428977681679   -0.00983823385187044
-0.043642723476667866   -0.11692678693783183   -0.010389714797923694
-0.057214766641369645   -0.07608134285093068   -0.010277675809382885
-0.03621820578989984   -0.07486433700495657   -0.009208061585532489
-0.043642723476667866   -0.11692678693783183   -0.010389714797923694
-0.036132465571955104   -0.07428977681679   -0.00983823385187044
-0.057214766641369645   -0.07608134285093068   -0.010277675809382885
-0.043642723476667866   -0.11692678693783183   -0.010389714797923694
-0.06784669052021049   -0.11774297599765113   -0.011349322816038569
-0.06716376354411145   -0.1170734936216488   -0.012004816599891527
-0.057214766641369645   -0.07608134285093068   -0.010277675809382885
-0.043642723476667866   -0.11692678693783183   -0.010389714797923694
-0.06716376354411145   -0.1170734936216488   -0.012004816599891527
-0.036132465571955104   -0.07428977681679   -0.00983823385187044
-0.057214766641369645   -0.07608134285093068   -0.010277675809382885
-0.06784669052021049   -0.11774297599765113   -0.011349322816038569
-0.03621820578989984   -0.07486433700495657   -0.009208061585532489
-0.05785347346789525   -0.07657294275386377   -0.009359383690003793
-0.06784669052021049   -0.11774297599765113   -0.011349322816038569
-0.043642723476667866   -0.11692678693783183   -0.010389714797923694
-0.03621820578989984   -0.07486433700495657   -0.009208061585532489
-0.04368671383182647   -0.11731876784245364   -0.009982913573004905
-0.05785347346789525   -0.07657294275386377   -0.009359383690003793
-0.036318376790255895   -0.07526368076935916   -0.008623259897393001
-0.04368671383182647   -0.11731876784245364   -0.009982913573004905
-0.03621820578989984   -0.07486433700495657   -0.009208061585532489
-0.05785347346789525   -0.07657294275386377   -0.009359383690003793
-0.04368671383182647   -0.11731876784245364   -0.009982913573004905
-0.06824169324178367   -0.11821601976210173   -0.010756457913926869
-0.06784669052021049   -0.11774297599765113   -0.011349322816038569
-0.05785347346789525   -0.07657294275386377   -0.009359383690003793
-0.04368671383182647   -0.11731876784245364   -0.009982913573004905
-0.06784669052021049   -0.11774297599765113   -0.011349322816038569
-0.03621820578989984   -0.07486433700495657   -0.009208061585532489
-0.05785347346789525   -0.07657294275386377   -0.009359383690003793
-0.06824169324178367   -0.11821601976210173   -0.010756457913926869
-0.036318376790255895   -0.07526368076935916   -0.008623259897393001
-0.05858019755869222   -0.07692525089737898   -0.008513837135134294
-0.06824169324178367   -0.11821601976210173   -0.010756457913926869
-0.04368671383182647   -0.11731876784245364   -0.009982913573004905
-0.036318376790255895   -0.07526368076935916   -0.008623259897393001
-0.04360278039502744   -0.11764008776136245   -0.00961508444574518
-0.05858019755869222   -0.07692525089737898   -0.008513837135134294
-0.036257189737771194   -0.07552564649077244   -0.008074178725877934
-0.04360278039502744   -0.11764008776136245   -0.00961508444574518
-0.036318376790255895   -0.07526368076935916   -0.008623259897393001
-0.05858019755869222   -0.07692525089737898   -0.008513837135134294
-0.04360278039502744   -0.11764008776136245   -0.00961508444574518
-0.06864909312184142   -0.11863898235012277   -0.010233629629707915
-0.06824169324178367   -0.11821601976210173   -0.010756457913926869
-0.05858019755869222   -0.07692525089737898   -0.008513837135134294
-0.04360278039502744   -0.11764008776136245   -0.00961508444574518
-0.06824169324178367   -0.11821601976210173   -0.010756457913926869
-0.036318376790255895   -0.07526368076935916   -0.008623259897393001
-0.036132465571955104   -0.07428977681679   -0.00983823385187044
-0.04358392163685148   -0.11643169539378143   -0.010841416854775592
-0.01719655869228532   -0.07378837339375324   -0.008848445184980456
-0.03621820578989984   -0.07486433700495657   -0.009208061585532489
-0.04358392163685148   -0.11643169539378143   -0.010841416854775592
-0.021473117263225063   -0.11610080675634966   -0.01003563380607724
-0.01719655869228532   -0.07378837339375324   -0.008848445184980456
-0.021438521813019286   -0.11641191965860137   -0.009738126752051846
-0.03621820578989984   -0.07486433700495657   -0.009208061585532489
-0.017159976669965854   -0.07415622466512349   -0.008492917663113936
-0.021438521813019286   -0.11641191965860137   -0.009738126752051846
-0.01719655869228532   -0.07378837339375324   -0.008848445184980456
-0.03621820578989984   -0.07486433700495657   -0.009208061585532489
-0.021438521813019286   -0.11641191965860137   -0.009738126752051846
-0.043642723476667866   -0.11692678693783183   -0.010389714797923694
-0.04358392163685148   -0.11643169539378143   -0.010841416854775592
-0.03621820578989984   -0.07486433700495657   -0.009208061585532489
-0.021438521813019286   -0.11641191965860137   -0.009738126752051846
-0.04358392163685148   -0.11643169539378143   -0.010841416854775592
-0.01719655869228532   -0.07378837339375324   -0.008848445184980456
-0.03621820578989984   -0.07486433700495657   -0.009208061585532489
-0.043642723476667866   -0.11692678693783183   -0.010389714797923694
-0.017159976669965854   -0.07415622466512349   -0.008492917663113936
-0.036318376790255895   -0.07526368076935916   -0.008623259897393001
-0.043642723476667866   -0.11692678693783183   -0.010389714797923694
-0.021438521813019286   -0.11641191965860137   -0.009738126752051846
-0.017159976669965854   -0.07415622466512349   -0.008492917663113936
-0.021388911882811786   -0.11663668254077836   -0.009484877415982081
-0.036318376790255895   -0.07526368076935916   -0.008623259897393001
-0.01711366932734911   -0.07437210391716097   -0.008180633042041918
-0.021388911882811786   -0.11663668254077836   -0.009484877415982081
-0.017159976669965854   -0.07415622466512349   -0.008492917663113936
-0.036318376790255895   -0.07526368076935916   -0.008623259897393001
-0.021388911882811786   -0.11663668254077836   -0.009484877415982081
-0.04368671383182647   -0.11731876784245364   -0.009982913573004905
-0.043642723476667866   -0.11692678693783183   -0.010389714797923694
-0.036318376790255895   -0.07526368076935916   -0.008623259897393001
-0.021388911882811786   -0.11663668254077836   -0.009484877415982081
-0.043642723476667866   -0.11692678693783183   -0.010389714797923694
-0.017159976669965854   -0.07415622466512349   -0.008492917663113936
-0.036318376790255895   -0.07526368076935916   -0.008623259897393001
-0.04368671383182647   -0.11731876784245364   -0.009982913573004905
-0.01711366932734911   -0.07437210391716097   -0.008180633042041918
-0.036257189737771194   -0.07552564649077244   -0.008074178725877934
-0.04368671383182647   -0.11731876784245364   -0.009982913573004905
-0.021388911882811786   -0.11663668254077836   -0.009484877415982081
-0.01711366932734911   -0.07437210391716097   -0.008180633042041918
-0.02131194693806664   -0.11677656207317068   -0.00927659616185802
-0.036257189737771194   -0.07552564649077244   -0.008074178725877934
-0.01703349025278241   -0.07443909871842272   -0.007911444053049232
-0.02131194693806664   -0.11677656207317068   -0.00927659616185802
-0.01711366932734911   -0.07437210391716097   -0.008180633042041918
-0.036257189737771194   -0.07552564649077244   -0.008074178725877934
-0.02131194693806664   -0.11677656207317068   -0.00927659616185802
-0.04360278039502744   -0.11764008776136245   -0.00961508444574518
-0.04368671383182647   -0.11731876784245364   -0.009982913573004905
-0.036257189737771194   -0.07552564649077244   -0.008074178725877934
-0.02131194693806664   -0.11677656207317068   -0.00927659616185802
-0.04368671383182647   -0.11731876784245364   -0.009982913573004905
-0.01711366932734911   -0.07437210391716097   -0.008180633042041918
-0.01719655869228532   -0.07378837339375324   -0.008848445184980456
-0.021473117263225063   -0.11610080675634966   -0.01003563380607724
0.0011859708388241488   -0.07376179044079406   -0.00823356432206372
-0.017159976669965854   -0.07415622466512349   -0.008492917663113936
-0.021473117263225063   -0.11610080675634966   -0.01003563380607724
3.877972326086338e-05   -0.11604441457195028   -0.009565078617831504
0.0011859708388241488   -0.07376179044079406   -0.00823356432206372
0.00010924571162997188   -0.11617074942427057   -0.009422889748416189
-0.017159976669965854   -0.07415622466512349   -0.008492917663113936
0.001258461534946038   -0.07392633072985459   -0.008151168965337357
0.00010924571162997188   -0.11617074942427057   -0.009422889748416189
0.0011859708388241488   -0.07376179044079406   -0.00823356432206372
-0.017159976669965854   -0.07415622466512349   -0.008492917663113936
0.00010924571162997188   -0.11617074942427057   -0.009422889748416189
-0.021438521813019286   -0.11641191965860137   -0.009738126752051846
-0.021473117263225063   -0.11610080675634966   -0.01003563380607724
-0.017159976669965854   -0.07415622466512349   -0.008492917663113936
0.00010924571162997188   -0.11617074942427057   -0.009422889748416189
-0.021473117263225063   -0.11610080675634966   -0.01003563380607724
0.0011859708388241488   -0.07376179044079406   -0.00823356432206372
-0.017159976669965854   -0.07415622466512349   -0.008492917663113936
-0.021438521813019286   -0.11641191965860137   -0.009738126752051846
0.001258461534946038   -0.07392633072985459   -0.008151168965337357
-0.01711366932734911   -0.07437210391716097   -0.008180633042041918
-0.021438521813019286   -0.11641191965860137   -0.009738126752051846
0.00010924571162997188   -0.11617074942427057   -0.009422889748416189
0.001258461534946038   -0.07392633072985459   -0.008151168965337357
0.00015762762815122366   -0.11621014667778257   -0.009324375516939844
-0.01711366932734911   -0.07437210391716097   -0.008180633042041918
0.0013026217062784187   -0.07393952170821597   -0.008110865249693382
0.00015762762815122366   -0.11621014667778257   -0.009324375516939844
0.001258461534946038   -0.07392633072985459   -0.008151168965337357
-0.01711366932734911   -0.07437210391716097   -0.008180633042041918
0.00015762762815122366   -0.11621014667778257   -0.009324375516939844
-0.021388911882811786   -0.11663668254077836   -0.009484877415982081
-0.021438521813019286   -0.11641191965860137   -0.009738126752051846
-0.01711366932734911   -0.07437210391716097   -0.008180633042041918
0.00015762762815122366   -0.11621014667778257   -0.009324375516939844
-0.021438521813019286   -0.11641191965860137   -0.009738126752051846
0.001258461534946038   -0.07392633072985459   -0.008151168965337357
-0.01711366932734911   -0.07437210391716097   -0.008180633042041918
-0.021388911882811786   -0.11663668254077836   -0.009484877415982081
0.0013026217062784187   -0.07393952170821597   -0.008110865249693382
-0.01703349025278241   -0.07443909871842272   -0.007911444053049232
-0.021388911882811786   -0.11663668254077836   -0.009484877415982081
0.00015762762815122366   -0.11621014667778257   -0.009324375516939844
0.0013026217062784187   -0.07393952170821597   -0.008110865249693382
0.00018596205021062244   -0.11616141953469004   -0.009271487331132188
-0.01703349025278241   -0.07443909871842272   -0.007911444053049232
0.0013326990341116106   -0.0737990982623618   -0.008115235433626912
0.00018596205021062244   -0.11616141953469004   -0.009271487331132188
0.0013026217062784187   -0.07393952170821597   -0.008110865249693382
-0.01703349025278241   -0.07443909871842272   -0.007911444053049232
0.00018596205021062244   -0.11616141953469004   -0.009271487331132188
-0.02131194693806664   -0.11677656207317068   -0.00927659616185802
-0.021388911882811786   -0.11663668254077836   -0.009484877415982081
-0.01703349025278241   -0.07443909871842272   -0.007911444053049232
0.00018596205021062244   -0.11616141953469004   -0.009271487331132188
-0.021388911882811786   -0.11663668254077836   -0.009484877415982081
0.0013026217062784187   -0.07393952170821597   -0.008110865249693382
0.0011859708388241488   -0.07376179044079406   -0.00823356432206372
3.877972326086338e-05   -0.11604441457195028   -0.009565078617831504
0.0203512590818412   -0.07418186127586106   -0.007982899161430225
0.001258461534946038   -0.07392633072985459   -0.008151168965337357
3.877972326086338e-05   -0.11604441457195028   -0.009565078617831504
0.022290066996488736   -0.11623922312067092   -0.009427621599169843
0.0203512590818412   -0.07418186127586106   -0.007982899161430225
0.022377197120972345   -0.11619171683474967   -0.009444073732499603
0.001258461534946038   -0.07392633072985459   -0.008151168965337357
0.02041311415730302   -0.0741602721638691   -0.00817935985659934
0.022377197120972345   -0.11619171683474967   -0.009444073732499603
0.0203512590818412   -0.07418186127586106   -0.007982899161430225
0.001258461534946038   -0.07392633072985459   -0.008151168965337357
0.022377197120972345   -0.11619171683474967   -0.009444073732499603
0.00010924571162997188   -0.11617074942427057   -0.009422889748416189
3.877972326086338e-05   -0.11604441457195028   -0.009565078617831504
0.001258461534946038   -0.07392633072985459   -0.008151168965337357
0.022377197120972345   -0.11619171683474967   -0.009444073732499603
3.877972326086338e-05   -0.11604441457195028   -0.009565078617831504
0.0203512590818412   -0.07418186127586106   -0.007982899161430225
0.001258461534946038   -0.07392633072985459   -0.008151168965337357
0.00010924571162997188   -0.11617074942427057   -0.009422889748416189
0.02041311415730302   -0.0741602721638691   -0.00817935985659934
0.0013026217062784187   -0.07393952170821597   -0.008110865249693382
0.00010924571162997188   -0.11617074942427057   -0.009422889748416189
0.022377197120972345   -0.11619171683474967   -0.009444073732499603
0.02041311415730302   -0.0741602721638691   -0.00817935985659934
0.022377281267832415   -0.11606368648277005   -0.009501865954365432
0.0013026217062784187   -0.07393952170821597   -0.008110865249693382
0.020354173694589854   -0.07399037008409223   -0.00841481922810411
0.022377281267832415   -0.11606368648277005   -0.009501865954365432
0.02041311415730302   -0.0741602721638691   -0.00817935985659934
0.0013026217062784187   -0.07393952170821597   -0.008110865249693382
0.022377281267832415   -0.11606368648277005   -0.009501865954365432
0.00015762762815122366   -0.11621014667778257   -0.009324375516939844
0.00010924571162997188   -0.11617074942427057   -0.009422889748416189
0.0013026217062784187   -0.07393952170821597   -0.008110865249693382
0.022377281267832415   -0.11606368648277005   -0.009501865954365432
0.00010924571162997188   -0.11617074942427057   -0.009422889748416189
0.02041311415730302   -0.0741602721638691   -0.00817935985659934
0.0013026217062784187   -0.07393952170821597   -0.008110865249693382
0.00015762762815122366   -0.11621014667778257   -0.009324375516939844
0.020354173694589854   -0.07399037008409223   -0.00841481922810411
0.0013326990341116106   -0.0737990982623618   -0.008115235433626912
0.00015762762815122366   -0.11621014667778257   -0.009324375516939844
0.022377281267832415   -0.11606368648277005   -0.009501865954365432
0.020354173694589854   -0.07399037008409223   -0.00841481922810411
0.022321805342636863   -0.11582285537259196   -0.009602550729824265
0.0013326990341116106   -0.0737990982623618   -0.008115235433626912
0.020269948599520908   -0.07363566283822498   -0.008693878269003079
0.022321805342636863   -0.11582285537259196   -0.009602550729824265
0.020354173694589854   -0.07399037008409223   -0.00841481922810411
0.0013326990341116106   -0.0737990982623618   -0.008115235433626912
0.022321805342636863   -0.11582285537259196   -0.009602550729824265
0.00018596205021062244   -0.11616141953469004   -0.009271487331132188
0.00015762762815122366   -0.11621014667778257   -0.009324375516939844
0.0013326990341116106   -0.0737990982623618   -0.008115235433626912
0.022321805342636863   -0.11582285537259196   -0.009602550729824265
0.00015762762815122366   -0.11621014667778257   -0.009324375516939844
0.020354173694589854   -0.07399037008409223   -0.00841481922810411
0.0203512590818412   -0.07418186127586106   -0.007982899161430225
0.022290066996488736   -0.11623922312067092   -0.009427621599169843
0.042173897954024965   -0.07494519550141851   -0.007983000231310641
0.02041311415730302   -0.0741602721638691   -0.00817935985659934
0.022290066996488736   -0.11623922312067092   -0.009427621599169843
0.04686162080692987   -0.11659834888880717   -0.009549392227883952
0.042173897954024965   -0.07494519550141851   -0.007983000231310641
0.04680793605063691   -0.1164333567603355   -0.00973774406501658
0.02041311415730302   -0.0741602721638691   -0.00817935985659934
0.04179659842558591   -0.0748167094807669   -0.008494890423625024
0.04680793605063691   -0.1164333567603355   -0.00973774406501658
0.042173897954024965   -0.07494519550141851   -0.007983000231310641
0.02041311415730302   -0.0741602721638691   -0.00817935985659934
0.04680793605063691   -0.1164333567603355   -0.00973774406501658
0.022377197120972345   -0.11619171683474967   -0.009444073732499603
0.022290066996488736   -0.11623922312067092   -0.009427621599169843
0.02041311415730302   -0.0741602721638691   -0.00817935985659934
0.04680793605063691   -0.1164333567603355   -0.00973774406501658
0.022290066996488736   -0.11623922312067092   -0.009427621599169843
0.042173897954024965   -0.07494519550141851   -0.007983000231310641
0.02041311415730302   -0.0741602721638691   -0.00817935985659934
0.022377197120972345   -0.11619171683474967   -0.009444073732499603
0.04179659842558591   -0.0748167094807669   -0.008494890423625024
0.020354173694589854   -0.07399037008409223   -0.00841481922810411
0.022377197120972345   -0.11619171683474967   -0.009444073732499603
0.04680793605063691   -0.1164333567603355   -0.00973774406501658
0.04179659842558591   -0.0748167094807669   -0.008494890423625024
0.04668152269614649   -0.11622398574277645   -0.009993122493175929
0.020354173694589854   -0.07399037008409223   -0.00841481922810411
0.04142143907033534   -0.07455471443910464   -0.009077099575227456
0.04668152269614649   -0.11622398574277645   -0.009993122493175929
0.04179659842558591   -0.0748167094807669   -0.008494890423625024
0.020354173694589854   -0.07399037008409223   -0.00841481922810411
0.04668152269614649   -0.11622398574277645   -0.009993122493175929
0.022377281267832415   -0.11606368648277005   -0.009501865954365432
0.022377197120972345   -0.11619171683474967   -0.009444073732499603
0.020354173694589854   -0.07399037008409223   -0.00841481922810411
0.04668152269614649   -0.11622398574277645   -0.009993122493175929
0.022377197120972345   -0.11619171683474967   -0.009444073732499603
0.04179659842558591   -0.0748167094807669   -0.008494890423625024
0.020354173694589854   -0.07399037008409223   -0.00841481922810411
0.022377281267832415   -0.11606368648277005   -0.009501865954365432
0.04142143907033534   -0.07455471443910464   -0.009077099575227456
0.020269948599520908   -0.07363566283822498   -0.008693878269003079
0.022377281267832415   -0.11606368648277005   -0.009501865954365432
0.04668152269614649   -0.11622398574277645   -0.009993122493175929
0.04142143907033534   -0.07455471443910464   -0.009077099575227456
0.04635182460785176   -0.11582281104505185   -0.010315042451640034
0.020269948599520908   -0.07363566283822498   -0.008693878269003079
0.04076166030795797   -0.074002949450976   -0.009729699984772104
0.04635182460785176   -0.11582281104505185   -0.010315042451640034
0.04142143907033534   -0.07455471443910464   -0.009077099575227456
0.020269948599520908   -0.07363566283822498   -0.008693878269003079
0.04635182460785176   -0.11582281104505185   -0.010315042451640034
0.022321805342636863   -0.11582285537259196   -0.009602550729824265
0.022377281267832415   -0.11606368648277005   -0.009501865954365432
0.020269948599520908   -0.07363566283822498   -0.008693878269003079
0.04635182460785176   -0.11582281104505185   -0.010315042451640034
0.022377281267832415   -0.11606368648277005   -0.009501865954365432
0.04142143907033534   -0.07455471443910464   -0.009077099575227456
-0.06716376354411145   -0.1170734936216488   -0.012004816599891527
-0.07381770600119335   -0.16259500749560077   -0.012217690823549857
-0.04358392163685148   -0.11643169539378143   -0.010841416854775592
-0.06784669052021049   -0.11774297599765113   -0.011349322816038569
-0.07381770600119335   -0.16259500749560077   -0.012217690823549857
-0.048485019549625925   -0.16233231129108422   -0.011289101649423714
-0.04358392163685148   -0.11643169539378143   -0.010841416854775592
-0.04847106868037367   -0.16275538653306132   -0.011011607873265277
-0.06784669052021049   -0.11774297599765113   -0.011349322816038569
-0.043642723476667866   -0.11692678693783183   -0.010389714797923694
-0.04847106868037367   -0.16275538653306132   -0.011011607873265277
-0.04358392163685148   -0.11643169539378143   -0.010841416854775592
-0.06784669052021049   -0.11774297599765113   -0.011349322816038569
-0.04847106868037367   -0.16275538653306132   -0.011011607873265277
-0.07414056148694352   -0.16316345223140621   -0.011878277107573889
-0.07381770600119335   -0.16259500749560077   -0.012217690823549857
-0.06784669052021049   -0.11774297599765113   -0.011349322816038569
-0.04847106868037367   -0.16275538653306132   -0.011011607873265277
-0.07381770600119335   -0.16259500749560077   -0.012217690823549857
-0.04358392163685148   -0.11643169539378143   -0.010841416854775592
-0.06784669052021049   -0.11774297599765113   -0.011349322816038569
-0.07414056148694352   -0.16316345223140621   -0.011878277107573889
-0.043642723476667866   -0.11692678693783183   -0.010389714797923694
-0.06824169324178367   -0.11821601976210173   -0.010756457913926869
-0.07414056148694352   -0.16316345223140621   -0.011878277107573889
-0.04847106868037367   -0.16275538653306132   -0.011011607873265277
-0.043642723476667866   -0.11692678693783183   -0.010389714797923694
-0.04841142890153733   -0.16314508598534083   -0.01078017220136436
-0.06824169324178367   -0.11821601976210173   -0.010756457913926869
-0.04368671383182647   -0.11731876784245364   -0.009982913573004905
-0.04841142890153733   -0.16314508598534083   -0.01078017220136436
-0.043642723476667866   -0.11692678693783183   -0.010389714797923694
-0.06824169324178367   -0.11821601976210173   -0.010756457913926869
-0.04841142890153733   -0.16314508598534083   -0.01078017220136436
-0.07424775025866202   -0.16362637591863735   -0.01160517395610883
-0.07414056148694352   -0.16316345223140621   -0.011878277107573889
-0.06824169324178367   -0.11821601976210173   -0.010756457913926869
-0.04841142890153733   -0.16314508598534083   -0.01078017220136436
-0.07414056148694352   -0.16316345223140621   -0.011878277107573889
-0.043642723476667866   -0.11692678693783183   -0.010389714797923694
-0.06824169324178367   -0.11821601976210173   -0.010756457913926869
-0.07424775025866202   -0.16362637591863735   -0.01160517395610883
-0.04368671383182647   -0.11731876784245364   -0.009982913573004905
-0.06864909312184142   -0.11863898235012277   -0.010233629629707915
-0.07424775025866202   -0.16362637591863735   -0.01160517395610883
-0.04841142890153733   -0.16314508598534083   -0.01078017220136436
-0.04368671383182647   -0.11731876784245364   -0.009982913573004905
-0.04825635656185019   -0.16353105961636213   -0.010591617456753475
-0.06864909312184142   -0.11863898235012277   -0.010233629629707915
-0.04360278039502744   -0.11764008776136245   -0.00961508444574518
-0.04825635656185019   -0.16353105961636213   -0.010591617456753475
-0.04368671383182647   -0.11731876784245364   -0.009982913573004905
-0.06864909312184142   -0.11863898235012277   -0.010233629629707915
-0.04825635656185019   -0.16353105961636213   -0.010591617456753475
-0.07428851449710086   -0.1641282300312426   -0.011404020439514138
-0.07424775025866202   -0.16362637591863735   -0.01160517395610883
-0.06864909312184142   -0.11863898235012277   -0.010233629629707915
-0.04825635656185019   -0.16353105961636213   -0.010591617456753475
-0.07424775025866202   -0.16362637591863735   -0.01160517395610883
-0.04368671383182647   -0.11731876784245364   -0.009982913573004905
-0.04358392163685148   -0.11643169539378143   -0.010841416854775592
-0.048485019549625925   -0.16233231129108422   -0.011289101649423714
-0.021473117263225063   -0.11610080675634966   -0.01003563380607724
-0.043642723476667866   -0.11692678693783183   -0.010389714797923694
-0.048485019549625925   -0.16233231129108422   -0.011289101649423714
-0.024951474059211675   -0.1621827001088397   -0.010656744391401365
-0.021473117263225063   -0.11610080675634966   -0.01003563380607724
-0.0248687841944231   -0.16243920886471805   -0.010415650764071822
-0.043642723476667866   -0.11692678693783183   -0.010389714797923694
-0.021438521813019286   -0.11641191965860137   -0.009738126752051846
-0.0248687841944231   -0.16243920886471805   -0.010415650764071822
-0.021473117263225063   -0.11610080675634966   -0.01003563380607724
-0.043642723476667866   -0.11692678693783183   -0.010389714797923694
-0.0248687841944231   -0.16243920886471805   -0.010415650764071822
-0.04847106868037367   -0.16275538653306132   -0.011011607873265277
-0.048485019549625925   -0.16233231129108422   -0.011289101649423714
-0.043642723476667866   -0.11692678693783183   -0.010389714797923694
-0.0248687841944231   -0.16243920886471805   -0.010415650764071822
-0.048485019549625925   -0.16233231129108422   -0.011289101649423714
-0.021473117263225063   -0.11610080675634966   -0.01003563380607724
-0.043642723476667866   -0.11692678693783183   -0.010389714797923694
-0.04847106868037367   -0.16275538653306132   -0.011011607873265277
-0.021438521813019286   -0.11641191965860137   -0.009738126752051846
-0.04368671383182647   -0.11731876784245364   -0.009982913573004905
-0.04847106868037367   -0.16275538653306132   -0.011011607873265277
-0.0248687841944231   -0.16243920886471805   -0.010415650764071822
-0.021438521813019286   -0.11641191965860137   -0.009738126752051846
-0.024766121069432212   -0.16267421557427783   -0.010220680347208357
-0.04368671383182647   -0.11731876784245364   -0.009982913573004905
-0.021388911882811786   -0.11663668254077836   -0.009484877415982081
-0.024766121069432212   -0.16267421557427783   -0.010220680347208357
-0.021438521813019286   -0.11641191965860137   -0.009738126752051846
-0.04368671383182647   -0.11731876784245364   -0.009982913573004905
-0.024766121069432212   -0.16267421557427783   -0.010220680347208357
-0.04841142890153733   -0.16314508598534083   -0.01078017220136436
-0.04847106868037367   -0.16275538653306132   -0.011011607873265277
-0.04368671383182647   -0.11731876784245364   -0.009982913573004905
-0.024766121069432212   -0.16267421557427783   -0.010220680347208357
-0.04847106868037367   -0.16275538653306132   -0.011011607873265277
-0.021438521813019286   -0.11641191965860137   -0.009738126752051846
-0.04368671383182647   -0.11731876784245364   -0.009982913573004905
-0.04841142890153733   -0.16314508598534083   -0.01078017220136436
-0.021388911882811786   -0.11663668254077836   -0.009484877415982081
-0.04360278039502744   -0.11764008776136245   -0.00961508444574518
-0.04841142890153733   -0.16314508598534083   -0.01078017220136436
-0.024766121069432212   -0.16267421557427783   -0.010220680347208357
-0.021388911882811786   -0.11663668254077836   -0.009484877415982081
-0.024641796337158035   -0.1628884829262418   -0.010072915917288795
-0.04360278039502744   -0.11764008776136245   -0.00961508444574518
-0.02131194693806664   -0.11677656207317068   -0.00927659616185802
-0.024641796337158035   -0.1628884829262418   -0.010072915917288795
-0.021388911882811786   -0.11663668254077836   -0.009484877415982081
-0.04360278039502744   -0.11764008776136245   -0.00961508444574518
-0.024641796337158035   -0.1628884829262418   -0.010072915917288795
-0.04825635656185019   -0.16353105961636213   -0.010591617456753475
-0.04841142890153733   -0.16314508598534083   -0.01078017220136436
-0.04360278039502744   -0.11764008776136245   -0.00961508444574518
-0.024641796337158035   -0.1628884829262418   -0.010072915917288795
-0.04841142890153733   -0.16314508598534083   -0.01078017220136436
-0.021388911882811786   -0.11663668254077836   -0.009484877415982081
-0.021473117263225063   -0.11610080675634966   -0.01003563380607724
-0.024951474059211675   -0.1621827001088397   -0.010656744391401365
3.877972326086338e-05   -0.11604441457195028   -0.009565078617831504
-0.021438521813019286   -0.11641191965860137   -0.009738126752051846
-0.024951474059211675   -0.1621827001088397   -0.010656744391401365
-0.0020544314847135074   -0.1620977552198329   -0.010328293326677217
3.877972326086338e-05   -0.11604441457195028   -0.009565078617831504
-0.0019369844562873036   -0.16218482390930006   -0.010125947834660913
-0.021438521813019286   -0.11641191965860137   -0.009738126752051846
0.00010924571162997188   -0.11617074942427057   -0.009422889748416189
-0.0019369844562873036   -0.16218482390930006   -0.010125947834660913
3.877972326086338e-05   -0.11604441457195028   -0.009565078617831504
-0.021438521813019286   -0.11641191965860137   -0.009738126752051846
-0.0019369844562873036   -0.16218482390930006   -0.010125947834660913
-0.0248687841944231   -0.16243920886471805   -0.010415650764071822
-0.024951474059211675   -0.1621827001088397   -0.010656744391401365
-0.021438521813019286   -0.11641191965860137   -0.009738126752051846
-0.0019369844562873036   -0.16218482390930006   -0.010125947834660913
-0.024951474059211675   -0.1621827001088397   -0.010656744391401365
3.877972326086338e-05   -0.11604441457195028   -0.009565078617831504
-0.021438521813019286   -0.11641191965860137   -0.009738126752051846
-0.0248687841944231   -0.16243920886471805   -0.010415650764071822
0.00010924571162997188   -0.11617074942427057   -0.009422889748416189
-0.021388911882811786   -0.11663668254077836   -0.009484877415982081
-0.0248687841944231   -0.16243920886471805   -0.010415650764071822
-0.0019369844562873036   -0.16218482390930006   -0.010125947834660913
0.00010924571162997188   -0.11617074942427057   -0.009422889748416189
-0.0018359425959627563   -0.16224889652383054   -0.009969305370321367
-0.021388911882811786   -0.11663668254077836   -0.009484877415982081
0.00015762762815122366   -0.11621014667778257   -0.009324375516939844
-0.0018359425959627563   -0.16224889652383054   -0.009969305370321367
0.00010924571162997188   -0.11617074942427057   -0.009422889748416189
-0.021388911882811786   -0.11663668254077836   -0.009484877415982081
-0.0018359425959627563   -0.16224889652383054   -0.009969305370321367
-0.024766121069432212   -0.16267421557427783   -0.010220680347208357
-0.0248687841944231   -0.16243920886471805   -0.010415650764071822
-0.021388911882811786   -0.11663668254077836   -0.009484877415982081
-0.0018359425959627563   -0.16224889652383054   -0.009969305370321367
-0.0248687841944231   -0.16243920886471805   -0.010415650764071822
0.00010924571162997188   -0.11617074942427057   -0.009422889748416189
-0.021388911882811786   -0.11663668254077836   -0.009484877415982081
-0.024766121069432212   -0.16267421557427783   -0.010220680347208357
0.00015762762815122366   -0.11621014667778257   -0.009324375516939844
-0.02131194693806664   -0.11677656207317068   -0.00927659616185802
-0.024766121069432212   -0.16267421557427783   -0.010220680347208357
-0.0018359425959627563   -0.16224889652383054   -0.009969305370321367
0.00015762762815122366   -0.11621014667778257   -0.009324375516939844
-0.0017602403752283186   -0.16228966131129707   -0.009860046380855799
-0.02131194693806664   -0.11677656207317068   -0.00927659616185802
0.00018596205021062244   -0.11616141953469004   -0.009271487331132188
-0.0017602403752283186   -0.16228966131129707   -0.009860046380855799
0.00015762762815122366   -0.11621014667778257   -0.009324375516939844
-0.02131194693806664   -0.11677656207317068   -0.00927659616185802
-0.0017602403752283186   -0.16228966131129707   -0.009860046380855799
-0.024641796337158035   -0.1628884829262418   -0.010072915917288795
-0.024766121069432212   -0.16267421557427783   -0.010220680347208357
-0.02131194693806664   -0.11677656207317068   -0.00927659616185802
-0.0017602403752283186   -0.16228966131129707   -0.009860046380855799
-0.024766121069432212   -0.16267421557427783   -0.010220680347208357
0.00015762762815122366   -0.11621014667778257   -0.009324375516939844
3.877972326086338e-05   -0.11604441457195028   -0.009565078617831504
-0.0020544314847135074   -0.1620977552198329   -0.010328293326677217
0.022290066996488736   -0.11623922312067092   -0.009427621599169843
0.00010924571162997188   -0.11617074942427057   -0.009422889748416189
-0.0020544314847135074   -0.1620977552198329   -0.010328293326677217
0.02154259840496625   -0.16206288377612263   -0.010306406832852909
0.022290066996488736   -0.11623922312067092   -0.009427621599169843
0.021699452117543153   -0.16198598518107818   -0.010144779232019119
0.00010924571162997188   -0.11617074942427057   -0.009422889748416189
0.022377197120972345   -0.11619171683474967   -0.009444073732499603
0.021699452117543153   -0.16198598518107818   -0.010144779232019119
0.022290066996488736   -0.11623922312067092   -0.009427621599169843
0.00010924571162997188   -0.11617074942427057   -0.009422889748416189
0.021699452117543153   -0.16198598518107818   -0.010144779232019119
-0.0019369844562873036   -0.16218482390930006   -0.010125947834660913
-0.0020544314847135074   -0.1620977552198329   -0.010328293326677217
0.00010924571162997188   -0.11617074942427057   -0.009422889748416189
0.021699452117543153   -0.16198598518107818   -0.010144779232019119
-0.0020544314847135074   -0.1620977552198329   -0.010328293326677217
0.022290066996488736   -0.11623922312067092   -0.009427621599169843
0.00010924571162997188   -0.11617074942427057   -0.009422889748416189
-0.0019369844562873036   -0.16218482390930006   -0.010125947834660913
0.022377197120972345   -0.11619171683474967   -0.009444073732499603
0.00015762762815122366   -0.11621014667778257   -0.009324375516939844
-0.0019369844562873036   -0.16218482390930006   -0.010125947834660913
0.021699452117543153   -0.16198598518107818   -0.010144779232019119
0.022377197120972345   -0.11619171683474967   -0.009444073732499603
0.021802288731731935   -0.16189538134705903   -0.010027562364700848
0.00015762762815122366   -0.11621014667778257   -0.009324375516939844
0.022377281267832415   -0.11606368648277005   -0.009501865954365432
0.021802288731731935   -0.16189538134705903   -0.010027562364700848
0.022377197120972345   -0.11619171683474967   -0.009444073732499603
0.00015762762815122366   -0.11621014667778257   -0.009324375516939844
0.021802288731731935   -0.16189538134705903   -0.010027562364700848
-0.0018359425959627563   -0.16224889652383054   -0.009969305370321367
-0.0019369844562873036   -0.16218482390930006   -0.010125947834660913
0.00015762762815122366   -0.11621014667778257   -0.009324375516939844
0.021802288731731935   -0.16189538134705903   -0.010027562364700848
-0.0019369844562873036   -0.16218482390930006   -0.010125947834660913
0.022377197120972345   -0.11619171683474967   -0.009444073732499603
0.00015762762815122366   -0.11621014667778257   -0.009324375516939844
-0.0018359425959627563   -0.16224889652383054   -0.009969305370321367
0.022377281267832415   -0.11606368648277005   -0.009501865954365432
0.00018596205021062244   -0.11616141953469004   -0.009271487331132188
-0.0018359425959627563   -0.16224889652383054   -0.009969305370321367
0.021802288731731935   -0.16189538134705903   -0.010027562364700848
0.022377281267832415   -0.11606368648277005   -0.009501865954365432
0.021818684636873406   -0.16176104191480392   -0.009953832411320054
0.00018596205021062244   -0.11616141953469004   -0.009271487331132188
0.022321805342636863   -0.11582285537259196   -0.009602550729824265
0.021818684636873406   -0.16176104191480392   -0.009953832411320054
0.022377281267832415   -0.11606368648277005   -0.009501865954365432
0.00018596205021062244   -0.11616141953469004   -0.009271487331132188
0.021818684636873406   -0.16176104191480392   -0.009953832411320054
-0.0017602403752283186   -0.16228966131129707   -0.009860046380855799
-0.0018359425959627563   -0.16224889652383054   -0.009969305370321367
0.00018596205021062244   -0.11616141953469004   -0.009271487331132188
0.021818684636873406   -0.16176104191480392   -0.009953832411320054
-0.0018359425959627563   -0.16224889652383054   -0.009969305370321367
0.022377281267832415   -0.11606368648277005   -0.009501865954365432
0.022290066996488736   -0.11623922312067092   -0.009427621599169843
0.02154259840496625   -0.16206288377612263   -0.010306406832852909
0.04686162080692987   -0.11659834888880717   -0.009549392227883952
0.022377197120972345   -0.11619171683474967   -0.009444073732499603
0.02154259840496625   -0.16206288377612263   -0.010306406832852909
0.04711938123953225   -0.16201613444301224   -0.010559447127421585
0.04686162080692987   -0.11659834888880717   -0.009549392227883952
0.047428617981314244   -0.1618098418160701   -0.010429034499841689
0.022377197120972345   -0.11619171683474967   -0.009444073732499603
0.04680793605063691   -0.1164333567603355   -0.00973774406501658
0.047428617981314244   -0.1618098418160701   -0.010429034499841689
0.04686162080692987   -0.11659834888880717   -0.009549392227883952
0.022377197120972345   -0.11619171683474967   -0.009444073732499603
0.047428617981314244   -0.1618098418160701   -0.010429034499841689
0.021699452117543153   -0.16198598518107818   -0.010144779232019119
0.02154259840496625   -0.16206288377612263   -0.010306406832852909
0.022377197120972345   -0.11619171683474967   -0.009444073732499603
0.047428617981314244   -0.1618098418160701   -0.010429034499841689
0.02154259840496625   -0.16206288377612263   -0.010306406832852909
0.04686162080692987   -0.11659834888880717   -0.009549392227883952
0.022377197120972345   -0.11619171683474967   -0.009444073732499603
0.021699452117543153   -0.16198598518107818   -0.010144779232019119
0.04680793605063691   -0.1164333567603355   -0.00973774406501658
0.022377281267832415   -0.11606368648277005   -0.009501865954365432
0.021699452117543153   -0.16198598518107818   -0.010144779232019119
0.047428617981314244   -0.1618098418160701   -0.010429034499841689
0.04680793605063691   -0.1164333567603355   -0.00973774406501658
0.04758865109627357   -0.1616463605806809   -0.010366038553122238
0.022377281267832415   -0.11606368648277005   -0.009501865954365432
0.04668152269614649   -0.11622398574277645   -0.009993122493175929
0.04758865109627357   -0.1616463605806809   -0.010366038553122238
0.04680793605063691   -0.1164333567603355   -0.00973774406501658
0.022377281267832415   -0.11606368648277005   -0.009501865954365432
0.04758865109627357   -0.1616463605806809   -0.010366038553122238
0.021802288731731935   -0.16189538134705903   -0.010027562364700848
0.021699452117543153   -0.16198598518107818   -0.010144779232019119
0.022377281267832415   -0.11606368648277005   -0.009501865954365432
0.04758865109627357   -0.1616463605806809   -0.010366038553122238
0.021699452117543153   -0.16198598518107818   -0.010144779232019119
0.04680793605063691   -0.1164333567603355   -0.00973774406501658
0.022377281267832415   -0.11606368648277005   -0.009501865954365432
0.021802288731731935   -0.16189538134705903   -0.010027562364700848
0.04668152269614649   -0.11622398574277645   -0.009993122493175929
0.022321805342636863   -0.11582285537259196   -0.009602550729824265
0.021802288731731935   -0.16189538134705903   -0.010027562364700848
0.04758865109627357   -0.1616463605806809   -0.010366038553122238
0.04668152269614649   -0.11622398574277645   -0.009993122493175929
0.0476196863726412   -0.16138228529734702   -0.0103716052665603
0.022321805342636863   -0.11582285537259196   -0.009602550729824265
0.04635182460785176   -0.11582281104505185   -0.010315042451640034
0.0476196863726412   -0.16138228529734702   -0.0103716052665603
0.04668152269614649   -0.11622398574277645   -0.009993122493175929
0.022321805342636863   -0.11582285537259196   -0.009602550729824265
0.0476196863726412   -0.16138228529734702   -0.0103716052665603
0.021818684636873406   -0.16176104191480392   -0.009953832411320054
0.021802288731731935   -0.16189538134705903   -0.010027562364700848
0.022321805342636863   -0.11582285537259196   -0.009602550729824265
0.0476196863726412   -0.16138228529734702   -0.0103716052665603
0.021802288731731935   -0.16189538134705903   -0.010027562364700848
0.04668152269614649   -0.11622398574277645   -0.009993122493175929
-0.07381770600119335   -0.16259500749560077   -0.012217690823549857
-0.07615784770719375   -0.20898017558357038   -0.01200471293491795
-0.048485019549625925   -0.16233231129108422   -0.011289101649423714
-0.07414056148694352   -0.16316345223140621   -0.011878277107573889
-0.07615784770719375   -0.20898017558357038   -0.01200471293491795
-0.05083538516075778   -0.20910041524053632   -0.011316486120799036
-0.048485019549625925   -0.16233231129108422   -0.011289101649423714
-0.05070247252766575   -0.20944975650033917   -0.01121096458917776
-0.07414056148694352   -0.16316345223140621   -0.011878277107573889
-0.04847106868037367   -0.16275538653306132   -0.011011607873265277
-0.05070247252766575   -0.20944975650033917   -0.01121096458917776
-0.048485019549625925   -0.16233231129108422   -0.011289101649423714
-0.07414056148694352   -0.16316345223140621   -0.011878277107573889
-0.05070247252766575   -0.20944975650033917   -0.01121096458917776
-0.07607562566503646   -0.20944736552382734   -0.011980863818459912
-0.07615784770719375   -0.20898017558357038   -0.01200471293491795
-0.07414056148694352   -0.16316345223140621   -0.011878277107573889
-0.05070247252766575   -0.20944975650033917   -0.01121096458917776
-0.07615784770719375   -0.20898017558357038   -0.01200471293491795
-0.048485019549625925   -0.16233231129108422   -0.011289101649423714
-0.07414056148694352   -0.16316345223140621   -0.011878277107573889
-0.07607562566503646   -0.20944736552382734   -0.011980863818459912
-0.04847106868037367   -0.16275538653306132   -0.011011607873265277
-0.07424775025866202   -0.16362637591863735   -0.01160517395610883
-0.07607562566503646   -0.20944736552382734   -0.011980863818459912
-0.05070247252766575   -0.20944975650033917   -0.01121096458917776
-0.04847106868037367   -0.16275538653306132   -0.011011607873265277
-0.05049302571361352   -0.20983607129268486   -0.011153071537885029
-0.07424775025866202   -0.16362637591863735   -0.01160517395610883
-0.04841142890153733   -0.16314508598534083   -0.01078017220136436
-0.05049302571361352   -0.20983607129268486   -0.011153071537885029
-0.04847106868037367   -0.16275538653306132   -0.011011607873265277
-0.07424775025866202   -0.16362637591863735   -0.01160517395610883
-0.05049302571361352   -0.20983607129268486   -0.011153071537885029
-0.07584711814761419   -0.20990008778359062   -0.012028208157820025
-0.07607562566503646   -0.20944736552382734   -0.011980863818459912
-0.07424775025866202   -0.16362637591863735   -0.01160517395610883
-0.05049302571361352   -0.20983607129268486   -0.011153071537885029
-0.07607562566503646   -0.20944736552382734   -0.011980863818459912
-0.04847106868037367   -0.16275538653306132   -0.011011607873265277
-0.07424775025866202   -0.16362637591863735   -0.01160517395610883
-0.07584711814761419   -0.20990008778359062   -0.012028208157820025
-0.04841142890153733   -0.16314508598534083   -0.01078017220136436
-0.07428851449710086   -0.1641282300312426   -0.011404020439514138
-0.07584711814761419   -0.20990008778359062   -0.012028208157820025
-0.05049302571361352   -0.20983607129268486   -0.011153071537885029
-0.04841142890153733   -0.16314508598534083   -0.01078017220136436
-0.050220514305082516   -0.21028590728925545   -0.01114208841569356
-0.07428851449710086   -0.1641282300312426   -0.011404020439514138
-0.04825635656185019   -0.16353105961636213   -0.010591617456753475
-0.050220514305082516   -0.21028590728925545   -0.01114208841569356
-0.04841142890153733   -0.16314508598534083   -0.01078017220136436
-0.07428851449710086   -0.1641282300312426   -0.011404020439514138
-0.050220514305082516   -0.21028590728925545   -0.01114208841569356
-0.0754734062516444   -0.2104824585727393   -0.012150277124806423
-0.07584711814761419   -0.20990008778359062   -0.012028208157820025
-0.07428851449710086   -0.1641282300312426   -0.011404020439514138
-0.050220514305082516   -0.21028590728925545   -0.01114208841569356
-0.07584711814761419   -0.20990008778359062   -0.012028208157820025
-0.04841142890153733   -0.16314508598534083   -0.01078017220136436
-0.048485019549625925   -0.16233231129108422   -0.011289101649423714
-0.05083538516075778   -0.20910041524053632   -0.011316486120799036
-0.024951474059211675   -0.1621827001088397   -0.010656744391401365
-0.04847106868037367   -0.16275538653306132   -0.011011607873265277
-0.05083538516075778   -0.20910041524053632   -0.011316486120799036
-0.027643130246780282   -0.2091273045875998   -0.010858838680659521
-0.024951474059211675   -0.1621827001088397   -0.010656744391401365
-0.02746385104215876   -0.2093281186534817   -0.010672634278244508
-0.04847106868037367   -0.16275538653306132   -0.011011607873265277
-0.0248687841944231   -0.16243920886471805   -0.010415650764071822
-0.02746385104215876   -0.2093281186534817   -0.010672634278244508
-0.024951474059211675   -0.1621827001088397   -0.010656744391401365
-0.04847106868037367   -0.16275538653306132   -0.011011607873265277
-0.02746385104215876   -0.2093281186534817   -0.010672634278244508
-0.05070247252766575   -0.20944975650033917   -0.01121096458917776
-0.05083538516075778   -0.20910041524053632   -0.011316486120799036
-0.04847106868037367   -0.16275538653306132   -0.011011607873265277
-0.02746385104215876   -0.2093281186534817   -0.010672634278244508
-0.05083538516075778   -0.20910041524053632   -0.011316486120799036
-0.024951474059211675   -0.1621827001088397   -0.010656744391401365
-0.04847106868037367   -0.16275538653306132   -0.011011607873265277
-0.05070247252766575   -0.20944975650033917   -0.01121096458917776
-0.0248687841944231   -0.16243920886471805   -0.010415650764071822
-0.04841142890153733   -0.16314508598534083   -0.01078017220136436
-0.05070247252766575   -0.20944975650033917   -0.01121096458917776
-0.02746385104215876   -0.2093281186534817   -0.010672634278244508
-0.0248687841944231   -0.16243920886471805   -0.010415650764071822
-0.027260772160397767   -0.20957160506095715   -0.01053425899789797
-0.04841142890153733   -0.16314508598534083   -0.01078017220136436
-0.024766121069432212   -0.16267421557427783   -0.010220680347208357
-0.027260772160397767   -0.20957160506095715   -0.01053425899789797
-0.0248687841944231   -0.16243920886471805   -0.010415650764071822
-0.04841142890153733   -0.16314508598534083   -0.01078017220136436
-0.027260772160397767   -0.20957160506095715   -0.01053425899789797
-0.05049302571361352   -0.20983607129268486   -0.011153071537885029
-0.05070247252766575   -0.20944975650033917   -0.01121096458917776
-0.04841142890153733   -0.16314508598534083   -0.01078017220136436
-0.027260772160397767   -0.20957160506095715   -0.01053425899789797
-0.05070247252766575   -0.20944975650033917   -0.01121096458917776
-0.0248687841944231   -0.16243920886471805   -0.010415650764071822
-0.04841142890153733   -0.16314508598534083   -0.01078017220136436
-0.05049302571361352   -0.20983607129268486   -0.011153071537885029
-0.024766121069432212   -0.16267421557427783   -0.010220680347208357
-0.04825635656185019   -0.16353105961636213   -0.010591617456753475
-0.05049302571361352   -0.20983607129268486   -0.011153071537885029
-0.027260772160397767   -0.20957160506095715   -0.01053425899789797
-0.024766121069432212   -0.16267421557427783   -0.010220680347208357
-0.0270417095026141   -0.20985852132262633   -0.0104452358370412
-0.04825635656185019   -0.16353105961636213   -0.010591617456753475
-0.024641796337158035   -0.1628884829262418   -0.010072915917288795
-0.0270417095026141   -0.20985852132262633   -0.0104452358370412
-0.024766121069432212   -0.16267421557427783   -0.010220680347208357
-0.04825635656185019   -0.16353105961636213   -0.010591617456753475
-0.0270417095026141   -0.20985852132262633   -0.0104452358370412
-0.050220514305082516   -0.21028590728925545   -0.01114208841569356
-0.05049302571361352   -0.20983607129268486   -0.011153071537885029
-0.04825635656185019   -0.16353105961636213   -0.010591617456753475
-0.0270417095026141   -0.20985852132262633   -0.0104452358370412
-0.05049302571361352   -0.20983607129268486   -0.011153071537885029
-0.024766121069432212   -0.16267421557427783   -0.010220680347208357
-0.024951474059211675   -0.1621827001088397   -0.010656744391401365
-0.027643130246780282   -0.2091273045875998   -0.010858838680659521
-0.0020544314847135074   -0.1620977552198329   -0.010328293326677217
-0.0248687841944231   -0.16243920886471805   -0.010415650764071822
-0.027643130246780282   -0.2091273045875998   -0.010858838680659521
-0.005107708858389437   -0.20900530379777035   -0.010670170595901458
-0.0020544314847135074   -0.1620977552198329   -0.010328293326677217
-0.00489522648522953   -0.20905282231426967   -0.010407289164453517
-0.0248687841944231   -0.16243920886471805   -0.010415650764071822
-0.0019369844562873036   -0.16218482390930006   -0.010125947834660913
-0.00489522648522953   -0.20905282231426967   -0.010407289164453517
-0.0020544314847135074   -0.1620977552198329   -0.010328293326677217
-0.0248687841944231   -0.16243920886471805   -0.010415650764071822
-0.00489522648522953   -0.20905282231426967   -0.010407289164453517
-0.02746385104215876   -0.2093281186534817   -0.010672634278244508
-0.027643130246780282   -0.2091273045875998   -0.010858838680659521
-0.0248687841944231   -0.16243920886471805   -0.010415650764071822
-0.00489522648522953   -0.20905282231426967   -0.010407289164453517
-0.027643130246780282   -0.2091273045875998   -0.010858838680659521
-0.0020544314847135074   -0.1620977552198329   -0.010328293326677217
-0.0248687841944231   -0.16243920886471805   -0.010415650764071822
-0.02746385104215876   -0.2093281186534817   -0.010672634278244508
-0.0019369844562873036   -0.16218482390930006   -0.010125947834660913
-0.024766121069432212   -0.16267421557427783   -0.010220680347208357
-0.02746385104215876   -0.2093281186534817   -0.010672634278244508
-0.00489522648522953   -0.20905282231426967   -0.010407289164453517
-0.0019369844562873036   -0.16218482390930006   -0.010125947834660913
-0.004694396046984109   -0.20913960843442847   -0.010191875668164546
-0.024766121069432212   -0.16267421557427783   -0.010220680347208357
-0.0018359425959627563   -0.16224889652383054   -0.009969305370321367
-0.004694396046984109   -0.20913960843442847   -0.010191875668164546
-0.0019369844562873036   -0.16218482390930006   -0.010125947834660913
-0.024766121069432212   -0.16267421557427783   -0.010220680347208357
-0.004694396046984109   -0.20913960843442847   -0.010191875668164546
-0.027260772160397767   -0.20957160506095715   -0.01053425899789797
-0.02746385104215876   -0.2093281186534817   -0.010672634278244508
-0.024766121069432212   -0.16267421557427783   -0.010220680347208357
-0.004694396046984109   -0.20913960843442847   -0.010191875668164546
-0.02746385104215876   -0.2093281186534817   -0.010672634278244508
-0.0019369844562873036   -0.16218482390930006   -0.010125947834660913
-0.024766121069432212   -0.16267421557427783   -0.010220680347208357
-0.027260772160397767   -0.20957160506095715   -0.01053425899789797
-0.0018359425959627563   -0.16224889652383054   -0.009969305370321367
-0.024641796337158035   -0.1628884829262418   -0.010072915917288795
-0.027260772160397767   -0.20957160506095715   -0.01053425899789797
-0.004694396046984109   -0.20913960843442847   -0.010191875668164546
-0.0018359425959627563   -0.16224889652383054   -0.009969305370321367
-0.0045245360377717935   -0.2092676726404691   -0.010025600406874845
-0.024641796337158035   -0.1628884829262418   -0.010072915917288795
-0.0017602403752283186   -0.16228966131129707   -0.009860046380855799
-0.0045245360377717935   -0.2092676726404691   -0.010025600406874845
-0.0018359425959627563   -0.16224889652383054   -0.009969305370321367
-0.024641796337158035   -0.1628884829262418   -0.010072915917288795
-0.0045245360377717935   -0.2092676726404691   -0.010025600406874845
-0.0270417095026141   -0.20985852132262633   -0.0104452358370412
-0.027260772160397767   -0.20957160506095715   -0.01053425899789797
-0.024641796337158035   -0.1628884829262418   -0.010072915917288795
-0.0045245360377717935   -0.2092676726404691   -0.010025600406874845
-0.027260772160397767   -0.20957160506095715   -0.01053425899789797
-0.0018359425959627563   -0.16224889652383054   -0.009969305370321367
-0.0020544314847135074   -0.1620977552198329   -0.010328293326677217
-0.005107708858389437   -0.20900530379777035   -0.010670170595901458
0.02154259840496625   -0.16206288377612263   -0.010306406832852909
-0.0019369844562873036   -0.16218482390930006   -0.010125947834660913
-0.005107708858389437   -0.20900530379777035   -0.010670170595901458
0.018109045781541686   -0.20873367270050064   -0.010759248158666112
0.02154259840496625   -0.16206288377612263   -0.010306406832852909
0.018380563415653587   -0.20862749429344088   -0.0104211403047709
-0.0019369844562873036   -0.16218482390930006   -0.010125947834660913
0.021699452117543153   -0.16198598518107818   -0.010144779232019119
0.018380563415653587   -0.20862749429344088   -0.0104211403047709
0.02154259840496625   -0.16206288377612263   -0.010306406832852909
-0.0019369844562873036   -0.16218482390930006   -0.010125947834660913
0.018380563415653587   -0.20862749429344088   -0.0104211403047709
-0.00489522648522953   -0.20905282231426967   -0.010407289164453517
-0.005107708858389437   -0.20900530379777035   -0.010670170595901458
-0.0019369844562873036   -0.16218482390930006   -0.010125947834660913
0.018380563415653587   -0.20862749429344088   -0.0104211403047709
-0.005107708858389437   -0.20900530379777035   -0.010670170595901458
0.02154259840496625   -0.16206288377612263   -0.010306406832852909
-0.0019369844562873036   -0.16218482390930006   -0.010125947834660913
-0.00489522648522953   -0.20905282231426967   -0.010407289164453517
0.021699452117543153   -0.16198598518107818   -0.010144779232019119
-0.0018359425959627563   -0.16224889652383054   -0.009969305370321367
-0.00489522648522953   -0.20905282231426967   -0.010407289164453517
0.018380563415653587   -0.20862749429344088   -0.0104211403047709
0.021699452117543153   -0.16198598518107818   -0.010144779232019119
0.018630831186980612   -0.20857235161596635   -0.010130372854412952
-0.0018359425959627563   -0.16224889652383054   -0.009969305370321367
0.021802288731731935   -0.16189538134705903   -0.010027562364700848
0.018630831186980612   -0.20857235161596635   -0.010130372854412952
0.021699452117543153   -0.16198598518107818   -0.010144779232019119
-0.0018359425959627563   -0.16224889652383054   -0.009969305370321367
0.018630831186980612   -0.20857235161596635   -0.010130372854412952
-0.004694396046984109   -0.20913960843442847   -0.010191875668164546
-0.00489522648522953   -0.20905282231426967   -0.010407289164453517
-0.0018359425959627563   -0.16224889652383054   -0.009969305370321367
0.018630831186980612   -0.20857235161596635   -0.010130372854412952
-0.00489522648522953   -0.20905282231426967   -0.010407289164453517
0.021699452117543153   -0.16198598518107818   -0.010144779232019119
-0.0018359425959627563   -0.16224889652383054   -0.009969305370321367
-0.004694396046984109   -0.20913960843442847   -0.010191875668164546
0.021802288731731935   -0.16189538134705903   -0.010027562364700848
-0.0017602403752283186   -0.16228966131129707   -0.009860046380855799
-0.004694396046984109   -0.20913960843442847   -0.010191875668164546
0.018630831186980612   -0.20857235161596635   -0.010130372854412952
0.021802288731731935   -0.16189538134705903   -0.010027562364700848
0.018763238046804343   -0.20854113550195888   -0.009883855508686196
-0.0017602403752283186   -0.16228966131129707   -0.009860046380855799
0.021818684636873406   -0.16176104191480392   -0.009953832411320054
0.018763238046804343   -0.20854113550195888   -0.009883855508686196
0.021802288731731935   -0.16189538134705903   -0.010027562364700848
-0.0017602403752283186   -0.16228966131129707   -0.009860046380855799
0.018763238046804343   -0.20854113550195888   -0.009883855508686196
-0.0045245360377717935   -0.2092676726404691   -0.010025600406874845
-0.004694396046984109   -0.20913960843442847   -0.010191875668164546
-0.0017602403752283186   -0.16228966131129707   -0.009860046380855799
0.018763238046804343   -0.20854113550195888   -0.009883855508686196
-0.004694396046984109   -0.20913960843442847   -0.010191875668164546
0.021802288731731935   -0.16189538134705903   -0.010027562364700848
0.02154259840496625   -0.16206288377612263   -0.010306406832852909
0.018109045781541686   -0.20873367270050064   -0.010759248158666112
0.04711938123953225   -0.16201613444301224   -0.010559447127421585
0.021699452117543153   -0.16198598518107818   -0.010144779232019119
0.018109045781541686   -0.20873367270050064   -0.010759248158666112
0.04297497335084106   -0.20827808417164384   -0.011139978834539113
0.04711938123953225   -0.16201613444301224   -0.010559447127421585
0.043686649944068796   -0.20803275998230433   -0.01069710307741522
0.021699452117543153   -0.16198598518107818   -0.010144779232019119
0.047428617981314244   -0.1618098418160701   -0.010429034499841689
0.043686649944068796   -0.20803275998230433   -0.01069710307741522
0.04711938123953225   -0.16201613444301224   -0.010559447127421585
0.021699452117543153   -0.16198598518107818   -0.010144779232019119
0.043686649944068796   -0.20803275998230433   -0.01069710307741522
0.018380563415653587   -0.20862749429344088   -0.0104211403047709
0.018109045781541686   -0.20873367270050064   -0.010759248158666112
0.021699452117543153   -0.16198598518107818   -0.010144779232019119
0.043686649944068796   -0.20803275998230433   -0.01069710307741522
0.018109045781541686   -0.20873367270050064   -0.010759248158666112
0.04711938123953225   -0.16201613444301224   -0.010559447127421585
0.021699452117543153   -0.16198598518107818   -0.010144779232019119
0.018380563415653587   -0.20862749429344088   -0.0104211403047709
0.047428617981314244   -0.1618098418160701   -0.010429034499841689
0.021802288731731935   -0.16189538134705903   -0.010027562364700848
0.018380563415653587   -0.20862749429344088   -0.0104211403047709
0.043686649944068796   -0.20803275998230433   -0.01069710307741522
0.047428617981314244   -0.1618098418160701   -0.010429034499841689
0.04417401210114297   -0.2079138886908168   -0.010321578283801171
0.021802288731731935   -0.16189538134705903   -0.010027562364700848
0.04758865109627357   -0.1616463605806809   -0.010366038553122238
0.04417401210114297   -0.2079138886908168   -0.010321578283801171
0.047428617981314244   -0.1618098418160701   -0.010429034499841689
0.021802288731731935   -0.16189538134705903   -0.010027562364700848
0.04417401210114297   -0.2079138886908168   -0.010321578283801171
0.018630831186980612   -0.20857235161596635   -0.010130372854412952
0.018380563415653587   -0.20862749429344088   -0.0104211403047709
0.021802288731731935   -0.16189538134705903   -0.010027562364700848
0.04417401210114297   -0.2079138886908168   -0.010321578283801171
0.018380563415653587   -0.20862749429344088   -0.0104211403047709
0.047428617981314244   -0.1618098418160701   -0.010429034499841689
0.021802288731731935   -0.16189538134705903   -0.010027562364700848
0.018630831186980612   -0.20857235161596635   -0.010130372854412952
0.04758865109627357   -0.1616463605806809   -0.010366038553122238
0.021818684636873406   -0.16176104191480392   -0.009953832411320054
0.018630831186980612   -0.20857235161596635   -0.010130372854412952
0.04417401210114297   -0.2079138886908168   -0.010321578283801171
0.04758865109627357   -0.1616463605806809   -0.010366038553122238
0.04460457711179535   -0.20778338225534995   -0.0100161835914692
0.021818684636873406   -0.16176104191480392   -0.009953832411320054
0.0476196863726412   -0.16138228529734702   -0.0103716052665603
0.04460457711179535   -0.20778338225534995   -0.0100161835914692
0.04758865109627357   -0.1616463605806809   -0.010366038553122238
0.021818684636873406   -0.16176104191480392   -0.009953832411320054
0.04460457711179535   -0.20778338225534995   -0.0100161835914692
0.018763238046804343   -0.20854113550195888   -0.009883855508686196
0.018630831186980612   -0.20857235161596635   -0.010130372854412952
0.021818684636873406   -0.16176104191480392   -0.009953832411320054
0.04460457711179535   -0.20778338225534995   -0.0100161835914692
0.018630831186980612   -0.20857235161596635   -0.010130372854412952
0.04758865109627357   -0.1616463605806809   -0.010366038553122238
-0.07615784770719375   -0.20898017558357038   -0.01200471293491795
-0.07413661989870107   -0.25331238146190926   -0.011472167877851587
-0.05083538516075778   -0.20910041524053632   -0.011316486120799036
-0.07607562566503646   -0.20944736552382734   -0.011980863818459912
-0.07413661989870107   -0.25331238146190926   -0.011472167877851587
-0.05063191272289642   -0.25382355786496646   -0.011056397737370079
-0.05083538516075778   -0.20910041524053632   -0.011316486120799036
-0.05033561249512994   -0.2540847975306944   -0.01111867808012498
-0.07607562566503646   -0.20944736552382734   -0.011980863818459912
-0.05070247252766575   -0.20944975650033917   -0.01121096458917776
-0.05033561249512994   -0.2540847975306944   -0.01111867808012498
-0.05083538516075778   -0.20910041524053632   -0.011316486120799036
-0.07607562566503646   -0.20944736552382734   -0.011980863818459912
-0.05033561249512994   -0.2540847975306944   -0.01111867808012498
-0.0736019998105476   -0.2536650344818528   -0.011765402037692026
-0.07413661989870107   -0.25331238146190926   -0.011472167877851587
-0.07607562566503646   -0.20944736552382734   -0.011980863818459912
-0.05033561249512994   -0.2540847975306944   -0.01111867808012498
-0.07413661989870107   -0.25331238146190926   -0.011472167877851587
-0.05083538516075778   -0.20910041524053632   -0.011316486120799036
-0.07607562566503646   -0.20944736552382734   -0.011980863818459912
-0.0736019998105476   -0.2536650344818528   -0.011765402037692026
-0.05070247252766575   -0.20944975650033917   -0.01121096458917776
-0.07584711814761419   -0.20990008778359062   -0.012028208157820025
-0.0736019998105476   -0.2536650344818528   -0.011765402037692026
-0.05033561249512994   -0.2540847975306944   -0.01111867808012498
-0.05070247252766575   -0.20944975650033917   -0.01121096458917776
-0.04993378499655285   -0.25445577531352537   -0.011229938390361821
-0.07584711814761419   -0.20990008778359062   -0.012028208157820025
-0.05049302571361352   -0.20983607129268486   -0.011153071537885029
-0.04993378499655285   -0.25445577531352537   -0.011229938390361821
-0.05070247252766575   -0.20944975650033917   -0.01121096458917776
-0.07584711814761419   -0.20990008778359062   -0.012028208157820025
-0.04993378499655285   -0.25445577531352537   -0.011229938390361821
-0.07299034498428186   -0.2540966550479281   -0.012135693595004477
-0.0736019998105476   -0.2536650344818528   -0.011765402037692026
-0.07584711814761419   -0.20990008778359062   -0.012028208157820025
-0.04993378499655285   -0.25445577531352537   -0.011229938390361821
-0.0736019998105476   -0.2536650344818528   -0.011765402037692026
-0.05070247252766575   -0.20944975650033917   -0.01121096458917776
-0.07584711814761419   -0.20990008778359062   -0.012028208157820025
-0.07299034498428186   -0.2540966550479281   -0.012135693595004477
-0.05049302571361352   -0.20983607129268486   -0.011153071537885029
-0.0754734062516444   -0.2104824585727393   -0.012150277124806423
-0.07299034498428186   -0.2540966550479281   -0.012135693595004477
-0.04993378499655285   -0.25445577531352537   -0.011229938390361821
-0.05049302571361352   -0.20983607129268486   -0.011153071537885029
-0.049502326511705205   -0.2549590754319093   -0.011391669991771911
-0.0754734062516444   -0.2104824585727393   -0.012150277124806423
-0.050220514305082516   -0.21028590728925545   -0.01114208841569356
-0.049502326511705205   -0.2549590754319093   -0.011391669991771911
-0.05049302571361352   -0.20983607129268486   -0.011153071537885029
-0.0754734062516444   -0.2104824585727393   -0.012150277124806423
-0.049502326511705205   -0.2549590754319093   -0.011391669991771911
-0.07215644199217128   -0.2547530535269478   -0.012584392566796717
-0.07299034498428186   -0.2540966550479281   -0.012135693595004477
-0.0754734062516444   -0.2104824585727393   -0.012150277124806423
-0.049502326511705205   -0.2549590754319093   -0.011391669991771911
-0.07299034498428186   -0.2540966550479281   -0.012135693595004477
-0.05049302571361352   -0.20983607129268486   -0.011153071537885029
-0.05083538516075778   -0.20910041524053632   -0.011316486120799036
-0.05063191272289642   -0.25382355786496646   -0.011056397737370079
-0.027643130246780282   -0.2091273045875998   -0.010858838680659521
-0.05070247252766575   -0.20944975650033917   -0.01121096458917776
-0.05063191272289642   -0.25382355786496646   -0.011056397737370079
-0.02957027194784831   -0.2540269908914771   -0.010789997588644032
-0.027643130246780282   -0.2091273045875998   -0.010858838680659521
-0.029247238710548552   -0.25416322888099313   -0.010654471320602004
-0.05070247252766575   -0.20944975650033917   -0.01121096458917776
-0.02746385104215876   -0.2093281186534817   -0.010672634278244508
-0.029247238710548552   -0.25416322888099313   -0.010654471320602004
-0.027643130246780282   -0.2091273045875998   -0.010858838680659521
-0.05070247252766575   -0.20944975650033917   -0.01121096458917776
-0.029247238710548552   -0.25416322888099313   -0.010654471320602004
-0.05033561249512994   -0.2540847975306944   -0.01111867808012498
-0.05063191272289642   -0.25382355786496646   -0.011056397737370079
-0.05070247252766575   -0.20944975650033917   -0.01121096458917776
-0.029247238710548552   -0.25416322888099313   -0.010654471320602004
-0.05063191272289642   -0.25382355786496646   -0.011056397737370079
-0.027643130246780282   -0.2091273045875998   -0.010858838680659521
-0.05070247252766575   -0.20944975650033917   -0.01121096458917776
-0.05033561249512994   -0.2540847975306944   -0.01111867808012498
-0.02746385104215876   -0.2093281186534817   -0.010672634278244508
-0.05049302571361352   -0.20983607129268486   -0.011153071537885029
-0.05033561249512994   -0.2540847975306944   -0.01111867808012498
-0.029247238710548552   -0.25416322888099313   -0.010654471320602004
-0.02746385104215876   -0.2093281186534817   -0.010672634278244508
-0.02889960416124857   -0.2544050578977175   -0.010567337086999211
-0.05049302571361352   -0.20983607129268486   -0.011153071537885029
-0.027260772160397767   -0.20957160506095715   -0.01053425899789797
-0.02889960416124857   -0.2544050578977175   -0.010567337086999211
-0.02746385104215876   -0.2093281186534817   -0.010672634278244508
-0.05049302571361352   -0.20983607129268486   -0.011153071537885029
-0.02889960416124857   -0.2544050578977175   -0.010567337086999211
-0.04993378499655285   -0.25445577531352537   -0.011229938390361821
-0.05033561249512994   -0.2540847975306944   -0.01111867808012498
-0.05049302571361352   -0.20983607129268486   -0.011153071537885029
-0.02889960416124857   -0.2544050578977175   -0.010567337086999211
-0.05033561249512994   -0.2540847975306944   -0.01111867808012498
-0.02746385104215876   -0.2093281186534817   -0.010672634278244508
-0.05049302571361352   -0.20983607129268486   -0.011153071537885029
-0.04993378499655285   -0.25445577531352537   -0.011229938390361821
-0.027260772160397767   -0.20957160506095715   -0.01053425899789797
-0.050220514305082516   -0.21028590728925545   -0.01114208841569356
-0.04993378499655285   -0.25445577531352537   -0.011229938390361821
-0.02889960416124857   -0.2544050578977175   -0.010567337086999211
-0.027260772160397767   -0.20957160506095715   -0.01053425899789797
-0.028542269475804138   -0.2547555755998598   -0.010530932058805058
-0.050220514305082516   -0.21028590728925545   -0.01114208841569356
-0.0270417095026141   -0.20985852132262633   -0.0104452358370412
-0.028542269475804138   -0.2547555755998598   -0.010530932058805058
-0.027260772160397767   -0.20957160506095715   -0.01053425899789797
-0.050220514305082516   -0.21028590728925545   -0.01114208841569356
-0.028542269475804138   -0.2547555755998598   -0.010530932058805058
-0.049502326511705205   -0.2549590754319093   -0.011391669991771911
-0.04993378499655285   -0.25445577531352537   -0.011229938390361821
-0.050220514305082516   -0.21028590728925545   -0.01114208841569356
-0.028542269475804138   -0.2547555755998598   -0.010530932058805058
-0.04993378499655285   -0.25445577531352537   -0.011229938390361821
-0.027260772160397767   -0.20957160506095715   -0.01053425899789797
-0.027643130246780282   -0.2091273045875998   -0.010858838680659521
-0.02957027194784831   -0.2540269908914771   -0.010789997588644032
-0.005107708858389437   -0.20900530379777035   -0.010670170595901458
-0.02746385104215876   -0.2093281186534817   -0.010672634278244508
-0.02957027194784831   -0.2540269908914771   -0.010789997588644032
-0.00914776443814766   -0.2538731238660953   -0.010743875088889132
-0.005107708858389437   -0.20900530379777035   -0.010670170595901458
-0.008790409426020593   -0.25387731883406456   -0.01041732734022963
-0.02746385104215876   -0.2093281186534817   -0.010672634278244508
-0.00489522648522953   -0.20905282231426967   -0.010407289164453517
-0.008790409426020593   -0.25387731883406456   -0.01041732734022963
-0.005107708858389437   -0.20900530379777035   -0.010670170595901458
-0.02746385104215876   -0.2093281186534817   -0.010672634278244508
-0.008790409426020593   -0.25387731883406456   -0.01041732734022963
-0.029247238710548552   -0.25416322888099313   -0.010654471320602004
-0.02957027194784831   -0.2540269908914771   -0.010789997588644032
-0.02746385104215876   -0.2093281186534817   -0.010672634278244508
-0.008790409426020593   -0.25387731883406456   -0.01041732734022963
-0.02957027194784831   -0.2540269908914771   -0.010789997588644032
-0.005107708858389437   -0.20900530379777035   -0.010670170595901458
-0.02746385104215876   -0.2093281186534817   -0.010672634278244508
-0.029247238710548552   -0.25416322888099313   -0.010654471320602004
-0.00489522648522953   -0.20905282231426967   -0.010407289164453517
-0.027260772160397767   -0.20957160506095715   -0.01053425899789797
-0.029247238710548552   -0.25416322888099313   -0.010654471320602004
-0.008790409426020593   -0.25387731883406456   -0.01041732734022963
-0.00489522648522953   -0.20905282231426967   -0.010407289164453517
-0.008442516544754168   -0.2539792544066357   -0.010139271454135934
-0.027260772160397767   -0.20957160506095715   -0.01053425899789797
-0.004694396046984109   -0.20913960843442847   -0.010191875668164546
-0.008442516544754168   -0.2539792544066357   -0.010139271454135934
-0.00489522648522953   -0.20905282231426967   -0.010407289164453517
-0.027260772160397767   -0.20957160506095715   -0.01053425899789797
-0.008442516544754168   -0.2539792544066357   -0.010139271454135934
-0.02889960416124857   -0.2544050578977175   -0.010567337086999211
-0.029247238710548552   -0.25416322888099313   -0.010654471320602004
-0.027260772160397767   -0.20957160506095715   -0.01053425899789797
-0.008442516544754168   -0.2539792544066357   -0.010139271454135934
-0.029247238710548552   -0.25416322888099313   -0.010654471320602004
-0.00489522648522953   -0.20905282231426967   -0.010407289164453517
-0.027260772160397767   -0.20957160506095715   -0.01053425899789797
-0.02889960416124857   -0.2544050578977175   -0.010567337086999211
-0.004694396046984109   -0.20913960843442847   -0.010191875668164546
-0.0270417095026141   -0.20985852132262633   -0.0104452358370412
-0.02889960416124857   -0.2544050578977175   -0.010567337086999211
-0.008442516544754168   -0.2539792544066357   -0.010139271454135934
-0.004694396046984109   -0.20913960843442847   -0.010191875668164546
-0.00813239746218094   -0.25418747146758225   -0.00991140223868477
-0.0270417095026141   -0.20985852132262633   -0.0104452358370412
-0.0045245360377717935   -0.2092676726404691   -0.010025600406874845
-0.00813239746218094   -0.25418747146758225   -0.00991140223868477
-0.004694396046984109   -0.20913960843442847   -0.010191875668164546
-0.0270417095026141   -0.20985852132262633   -0.0104452358370412
-0.00813239746218094   -0.25418747146758225   -0.00991140223868477
-0.028542269475804138   -0.2547555755998598   -0.010530932058805058
-0.02889960416124857   -0.2544050578977175   -0.010567337086999211
-0.0270417095026141   -0.20985852132262633   -0.0104452358370412
-0.00813239746218094   -0.25418747146758225   -0.00991140223868477
-0.02889960416124857   -0.2544050578977175   -0.010567337086999211
-0.004694396046984109   -0.20913960843442847   -0.010191875668164546
-0.005107708858389437   -0.20900530379777035   -0.010670170595901458
-0.00914776443814766   -0.2538731238660953   -0.010743875088889132
0.018109045781541686   -0.20873367270050064   -0.010759248158666112
-0.00489522648522953   -0.20905282231426967   -0.010407289164453517
-0.00914776443814766   -0.2538731238660953   -0.010743875088889132
0.011984307914949149   -0.2533730014742042   -0.010935360204207389
0.018109045781541686   -0.20873367270050064   -0.010759248158666112
0.012421114911269513   -0.25323627020942446   -0.01041969594845124
-0.00489522648522953   -0.20905282231426967   -0.010407289164453517
0.018380563415653587   -0.20862749429344088   -0.0104211403047709
0.012421114911269513   -0.25323627020942446   -0.01041969594845124
0.018109045781541686   -0.20873367270050064   -0.010759248158666112
-0.00489522648522953   -0.20905282231426967   -0.010407289164453517
0.012421114911269513   -0.25323627020942446   -0.01041969594845124
-0.008790409426020593   -0.25387731883406456   -0.01041732734022963
-0.00914776443814766   -0.2538731238660953   -0.010743875088889132
-0.00489522648522953   -0.20905282231426967   -0.010407289164453517
0.012421114911269513   -0.25323627020942446   -0.01041969594845124
-0.00914776443814766   -0.2538731238660953   -0.010743875088889132
0.018109045781541686   -0.20873367270050064   -0.010759248158666112
-0.00489522648522953   -0.20905282231426967   -0.010407289164453517
-0.008790409426020593   -0.25387731883406456   -0.01041732734022963
0.018380563415653587   -0.20862749429344088   -0.0104211403047709
-0.004694396046984109   -0.20913960843442847   -0.010191875668164546
-0.008790409426020593   -0.25387731883406456   -0.01041732734022963
0.012421114911269513   -0.25323627020942446   -0.01041969594845124
0.018380563415653587   -0.20862749429344088   -0.0104211403047709
0.012868607023747657   -0.253211152102271   -0.009955657513990409
-0.004694396046984109   -0.20913960843442847   -0.010191875668164546
0.018630831186980612   -0.20857235161596635   -0.010130372854412952
0.012868607023747657   -0.253211152102271   -0.009955657513990409
0.018380563415653587   -0.20862749429344088   -0.0104211403047709
-0.004694396046984109   -0.20913960843442847   -0.010191875668164546
0.012868607023747657   -0.253211152102271   -0.009955657513990409
-0.008442516544754168   -0.2539792544066357   -0.010139271454135934
-0.008790409426020593   -0.25387731883406456   -0.01041732734022963
-0.004694396046984109   -0.20913960843442847   -0.010191875668164546
0.012868607023747657   -0.253211152102271   -0.009955657513990409
-0.008790409426020593   -0.25387731883406456   -0.01041732734022963
0.018380563415653587   -0.20862749429344088   -0.0104211403047709
-0.004694396046984109   -0.20913960843442847   -0.010191875668164546
-0.008442516544754168   -0.2539792544066357   -0.010139271454135934
0.018630831186980612   -0.20857235161596635   -0.010130372854412952
-0.0045245360377717935   -0.2092676726404691   -0.010025600406874845
-0.008442516544754168   -0.2539792544066357   -0.010139271454135934
0.012868607023747657   -0.253211152102271   -0.009955657513990409
0.018630831186980612   -0.20857235161596635   -0.010130372854412952
0.01316550113255532   -0.25327696822308304   -0.00953644581895151
-0.0045245360377717935   -0.2092676726404691   -0.010025600406874845
0.018763238046804343   -0.20854113550195888   -0.009883855508686196
0.01316550113255532   -0.25327696822308304   -0.00953644581895151
0.018630831186980612   -0.20857235161596635   -0.010130372854412952
-0.0045245360377717935   -0.2092676726404691   -0.010025600406874845
0.01316550113255532   -0.25327696822308304   -0.00953644581895151
-0.00813239746218094   -0.25418747146758225   -0.00991140223868477
-0.008442516544754168   -0.2539792544066357   -0.010139271454135934
-0.0045245360377717935   -0.2092676726404691   -0.010025600406874845
0.01316550113255532   -0.25327696822308304   -0.00953644581895151
-0.008442516544754168   -0.2539792544066357   -0.010139271454135934
0.018630831186980612   -0.20857235161596635   -0.010130372854412952
0.018109045781541686   -0.20873367270050064   -0.010759248158666112
0.011984307914949149   -0.2533730014742042   -0.010935360204207389
0.04297497335084106   -0.20827808417164384   -0.011139978834539113
0.018380563415653587   -0.20862749429344088   -0.0104211403047709
0.011984307914949149   -0.2533730014742042   -0.010935360204207389
0.034477691779040004   -0.2525135216662201   -0.0114333802330308
0.04297497335084106   -0.20827808417164384   -0.011139978834539113
0.035639377501312984   -0.2522306804479655   -0.01068365675085042
0.018380563415653587   -0.20862749429344088   -0.0104211403047709
0.043686649944068796   -0.20803275998230433   -0.01069710307741522
0.035639377501312984   -0.2522306804479655   -0.01068365675085042
0.04297497335084106   -0.20827808417164384   -0.011139978834539113
0.018380563415653587   -0.20862749429344088   -0.0104211403047709
0.035639377501312984   -0.2522306804479655   -0.01068365675085042
0.012421114911269513   -0.25323627020942446   -0.01041969594845124
0.011984307914949149   -0.2533730014742042   -0.010935360204207389
0.018380563415653587   -0.20862749429344088   -0.0104211403047709
0.035639377501312984   -0.2522306804479655   -0.01068365675085042
0.011984307914949149   -0.2533730014742042   -0.010935360204207389
0.04297497335084106   -0.20827808417164384   -0.011139978834539113
0.018380563415653587   -0.20862749429344088   -0.0104211403047709
0.012421114911269513   -0.25323627020942446   -0.01041969594845124
0.043686649944068796   -0.20803275998230433   -0.01069710307741522
0.018630831186980612   -0.20857235161596635   -0.010130372854412952
0.012421114911269513   -0.25323627020942446   -0.01041969594845124
0.035639377501312984   -0.2522306804479655   -0.01068365675085042
0.043686649944068796   -0.20803275998230433   -0.01069710307741522
0.03649870408697254   -0.25215327569328433   -0.010002528169552338
0.018630831186980612   -0.20857235161596635   -0.010130372854412952
0.04417401210114297   -0.2079138886908168   -0.010321578283801171
0.03649870408697254   -0.25215327569328433   -0.010002528169552338
0.043686649944068796   -0.20803275998230433   -0.01069710307741522
0.018630831186980612   -0.20857235161596635   -0.010130372854412952
0.03649870408697254   -0.25215327569328433   -0.010002528169552338
0.012868607023747657   -0.253211152102271   -0.009955657513990409
0.012421114911269513   -0.25323627020942446   -0.01041969594845124
0.018630831186980612   -0.20857235161596635   -0.010130372854412952
0.03649870408697254   -0.25215327569328433   -0.010002528169552338
0.012421114911269513   -0.25323627020942446   -0.01041969594845124
0.043686649944068796   -0.20803275998230433   -0.01069710307741522
0.018630831186980612   -0.20857235161596635   -0.010130372854412952
0.012868607023747657   -0.253211152102271   -0.009955657513990409
0.04417401210114297   -0.2079138886908168   -0.010321578283801171
0.018763238046804343   -0.20854113550195888   -0.009883855508686196
0.012868607023747657   -0.253211152102271   -0.009955657513990409
0.03649870408697254   -0.25215327569328433   -0.010002528169552338
0.04417401210114297   -0.2079138886908168   -0.010321578283801171
0.03736827446048407   -0.2521521959974609   -0.009393075770042333
0.018763238046804343   -0.20854113550195888   -0.009883855508686196
0.04460457711179535   -0.20778338225534995   -0.0100161835914692
0.03736827446048407   -0.2521521959974609   -0.009393075770042333
0.04417401210114297   -0.2079138886908168   -0.010321578283801171
0.018763238046804343   -0.20854113550195888   -0.009883855508686196
0.03736827446048407   -0.2521521959974609   -0.009393075770042333
0.01316550113255532   -0.25327696822308304   -0.00953644581895151
0.012868607023747657   -0.253211152102271   -0.009955657513990409
0.018763238046804343   -0.20854113550195888   -0.009883855508686196
0.03736827446048407   -0.2521521959974609   -0.009393075770042333
0.012868607023747657   -0.253211152102271   -0.009955657513990409
0.04417401210114297   -0.2079138886908168   -0.010321578283801171
-0.07413661989870107   -0.25331238146190926   -0.011472167877851587
-0.06765256978983614   -0.2925702237245476   -0.010694069017434703
-0.05063191272289642   -0.25382355786496646   -0.011056397737370079
-0.0736019998105476   -0.2536650344818528   -0.011765402037692026
-0.06765256978983614   -0.2925702237245476   -0.010694069017434703
-0.04786252835875364   -0.2934950586105812   -0.010626134664987862
-0.05063191272289642   -0.25382355786496646   -0.011056397737370079
-0.04736672764428044   -0.29362900144109855   -0.010844445315354194
-0.0736019998105476   -0.2536650344818528   -0.011765402037692026
-0.05033561249512994   -0.2540847975306944   -0.01111867808012498
-0.04736672764428044   -0.29362900144109855   -0.010844445315354194
-0.05063191272289642   -0.25382355786496646   -0.011056397737370079
-0.0736019998105476   -0.2536650344818528   -0.011765402037692026
-0.04736672764428044   -0.29362900144109855   -0.010844445315354194
-0.06662188059856361   -0.29276921591891303   -0.011304317079713732
-0.06765256978983614   -0.2925702237245476   -0.010694069017434703
-0.0736019998105476   -0.2536650344818528   -0.011765402037692026
-0.04736672764428044   -0.29362900144109855   -0.010844445315354194
-0.06765256978983614   -0.2925702237245476   -0.010694069017434703
-0.05063191272289642   -0.25382355786496646   -0.011056397737370079
-0.0736019998105476   -0.2536650344818528   -0.011765402037692026
-0.06662188059856361   -0.29276921591891303   -0.011304317079713732
-0.05033561249512994   -0.2540847975306944   -0.01111867808012498
-0.07299034498428186   -0.2540966550479281   -0.012135693595004477
-0.06662188059856361   -0.29276921591891303   -0.011304317079713732
-0.04736672764428044   -0.29362900144109855   -0.010844445315354194
-0.05033561249512994   -0.2540847975306944   -0.01111867808012498
-0.04674407318880451   -0.2939490136032437   -0.011112602383251591
-0.07299034498428186   -0.2540966550479281   -0.012135693595004477
-0.04993378499655285   -0.25445577531352537   -0.011229938390361821
-0.04674407318880451   -0.2939490136032437   -0.011112602383251591
-0.05033561249512994   -0.2540847975306944   -0.01111867808012498
-0.07299034498428186   -0.2540966550479281   -0.012135693595004477
-0.04674407318880451   -0.2939490136032437   -0.011112602383251591
-0.0655927850824668   -0.29314473346378983   -0.011995742925028077
-0.06662188059856361   -0.29276921591891303   -0.011304317079713732
-0.07299034498428186   -0.2540966550479281   -0.012135693595004477
-0.04674407318880451   -0.2939490136032437   -0.011112602383251591
-0.06662188059856361   -0.29276921591891303   -0.011304317079713732
-0.05033561249512994   -0.2540847975306944   -0.01111867808012498
-0.07299034498428186   -0.2540966550479281   -0.012135693595004477
-0.0655927850824668   -0.29314473346378983   -0.011995742925028077
-0.04993378499655285   -0.25445577531352537   -0.011229938390361821
-0.07215644199217128   -0.2547530535269478   -0.012584392566796717
-0.0655927850824668   -0.29314473346378983   -0.011995742925028077
-0.04674407318880451   -0.2939490136032437   -0.011112602383251591
-0.04993378499655285   -0.25445577531352537   -0.011229938390361821
-0.04612951641955497   -0.29447325360136023   -0.011430140934249525
-0.07215644199217128   -0.2547530535269478   -0.012584392566796717
-0.049502326511705205   -0.2549590754319093   -0.011391669991771911
-0.04612951641955497   -0.29447325360136023   -0.011430140934249525
-0.04993378499655285   -0.25445577531352537   -0.011229938390361821
-0.07215644199217128   -0.2547530535269478   -0.012584392566796717
-0.04612951641955497   -0.29447325360136023   -0.011430140934249525
-0.06427428838221222   -0.2938449523408932   -0.012766769363266987
-0.0655927850824668   -0.29314473346378983   -0.011995742925028077
-0.07215644199217128   -0.2547530535269478   -0.012584392566796717
-0.04612951641955497   -0.29447325360136023   -0.011430140934249525
-0.0655927850824668   -0.29314473346378983   -0.011995742925028077
-0.04993378499655285   -0.25445577531352537   -0.011229938390361821
-0.05063191272289642   -0.25382355786496646   -0.011056397737370079
-0.04786252835875364   -0.2934950586105812   -0.010626134664987862
-0.02957027194784831   -0.2540269908914771   -0.010789997588644032
-0.05033561249512994   -0.2540847975306944   -0.01111867808012498
-0.04786252835875364   -0.2934950586105812   -0.010626134664987862
-0.030739468421588874   -0.2939302383881887   -0.010598577378541203
-0.02957027194784831   -0.2540269908914771   -0.010789997588644032
-0.03023041524500989   -0.29397446741627764   -0.010501368884158188
-0.05033561249512994   -0.2540847975306944   -0.01111867808012498
-0.029247238710548552   -0.25416322888099313   -0.010654471320602004
-0.03023041524500989   -0.29397446741627764   -0.010501368884158188
-0.02957027194784831   -0.2540269908914771   -0.010789997588644032
-0.05033561249512994   -0.2540847975306944   -0.01111867808012498
-0.03023041524500989   -0.29397446741627764   -0.010501368884158188
-0.04736672764428044   -0.29362900144109855   -0.010844445315354194
-0.04786252835875364   -0.2934950586105812   -0.010626134664987862
-0.05033561249512994   -0.2540847975306944   -0.01111867808012498
-0.03023041524500989   -0.29397446741627764   -0.010501368884158188
-0.04786252835875364   -0.2934950586105812   -0.010626134664987862
-0.02957027194784831   -0.2540269908914771   -0.010789997588644032
-0.05033561249512994   -0.2540847975306944   -0.01111867808012498
-0.04736672764428044   -0.29362900144109855   -0.010844445315354194
-0.029247238710548552   -0.25416322888099313   -0.010654471320602004
-0.04993378499655285   -0.25445577531352537   -0.011229938390361821
-0.04736672764428044   -0.29362900144109855   -0.010844445315354194
-0.03023041524500989   -0.29397446741627764   -0.010501368884158188
-0.029247238710548552   -0.25416322888099313   -0.010654471320602004
-0.029705155538524916   -0.29418475739448285   -0.010452533071997394
-0.04993378499655285   -0.25445577531352537   -0.011229938390361821
-0.02889960416124857   -0.2544050578977175   -0.010567337086999211
-0.029705155538524916   -0.29418475739448285   -0.010452533071997394
-0.029247238710548552   -0.25416322888099313   -0.010654471320602004
-0.04993378499655285   -0.25445577531352537   -0.011229938390361821
-0.029705155538524916   -0.29418475739448285   -0.010452533071997394
-0.04674407318880451   -0.2939490136032437   -0.011112602383251591
-0.04736672764428044   -0.29362900144109855   -0.010844445315354194
-0.04993378499655285   -0.25445577531352537   -0.011229938390361821
-0.029705155538524916   -0.29418475739448285   -0.010452533071997394
-0.04736672764428044   -0.29362900144109855   -0.010844445315354194
-0.029247238710548552   -0.25416322888099313   -0.010654471320602004
-0.04993378499655285   -0.25445577531352537   -0.011229938390361821
-0.04674407318880451   -0.2939490136032437   -0.011112602383251591
-0.02889960416124857   -0.2544050578977175   -0.010567337086999211
-0.049502326511705205   -0.2549590754319093   -0.011391669991771911
-0.04674407318880451   -0.2939490136032437   -0.011112602383251591
-0.029705155538524916   -0.29418475739448285   -0.010452533071997394
-0.02889960416124857   -0.2544050578977175   -0.010567337086999211
-0.029180831985172996   -0.2945710784909906   -0.0104513904232408
-0.049502326511705205   -0.2549590754319093   -0.011391669991771911
-0.028542269475804138   -0.2547555755998598   -0.010530932058805058
-0.029180831985172996   -0.2945710784909906   -0.0104513904232408
-0.02889960416124857   -0.2544050578977175   -0.010567337086999211
-0.049502326511705205   -0.2549590754319093   -0.011391669991771911
-0.029180831985172996   -0.2945710784909906   -0.0104513904232408
-0.04612951641955497   -0.29447325360136023   -0.011430140934249525
-0.04674407318880451   -0.2939490136032437   -0.011112602383251591
-0.049502326511705205   -0.2549590754319093   -0.011391669991771911
-0.029180831985172996   -0.2945710784909906   -0.0104513904232408
-0.04674407318880451   -0.2939490136032437   -0.011112602383251591
-0.02889960416124857   -0.2544050578977175   -0.010567337086999211
-0.02957027194784831   -0.2540269908914771   -0.010789997588644032
-0.030739468421588874   -0.2939302383881887   -0.010598577378541203
-0.00914776443814766   -0.2538731238660953   -0.010743875088889132
-0.029247238710548552   -0.25416322888099313   -0.010654471320602004
-0.030739468421588874   -0.2939302383881887   -0.010598577378541203
-0.014186194968291562   -0.293855124100093   -0.01071986013471455
-0.00914776443814766   -0.2538731238660953   -0.010743875088889132
-0.013628565353296622   -0.29379874307790305   -0.010318242969621732
-0.029247238710548552   -0.25416322888099313   -0.010654471320602004
-0.008790409426020593   -0.25387731883406456   -0.01041732734022963
-0.013628565353296622   -0.29379874307790305   -0.010318242969621732
-0.00914776443814766   -0.2538731238660953   -0.010743875088889132
-0.029247238710548552   -0.25416322888099313   -0.010654471320602004
-0.013628565353296622   -0.29379874307790305   -0.010318242969621732
-0.03023041524500989   -0.29397446741627764   -0.010501368884158188
-0.030739468421588874   -0.2939302383881887   -0.010598577378541203
-0.029247238710548552   -0.25416322888099313   -0.010654471320602004
-0.013628565353296622   -0.29379874307790305   -0.010318242969621732
-0.030739468421588874   -0.2939302383881887   -0.010598577378541203
-0.00914776443814766   -0.2538731238660953   -0.010743875088889132
-0.029247238710548552   -0.25416322888099313   -0.010654471320602004
-0.03023041524500989   -0.29397446741627764   -0.010501368884158188
-0.008790409426020593   -0.25387731883406456   -0.01041732734022963
-0.02889960416124857   -0.2544050578977175   -0.010567337086999211
-0.03023041524500989   -0.29397446741627764   -0.010501368884158188
-0.013628565353296622   -0.29379874307790305   -0.010318242969621732
-0.008790409426020593   -0.25387731883406456   -0.01041732734022963
-0.013087593774021737   -0.2938923022868212   -0.00996818033057332
-0.02889960416124857   -0.2544050578977175   -0.010567337086999211
-0.008442516544754168   -0.2539792544066357   -0.010139271454135934
-0.013087593774021737   -0.2938923022868212   -0.00996818033057332
-0.008790409426020593   -0.25387731883406456   -0.01041732734022963
-0.02889960416124857   -0.2544050578977175   -0.010567337086999211
-0.013087593774021737   -0.2938923022868212   -0.00996818033057332
-0.029705155538524916   -0.29418475739448285   -0.010452533071997394
-0.03023041524500989   -0.29397446741627764   -0.010501368884158188
-0.02889960416124857   -0.2544050578977175   -0.010567337086999211
-0.013087593774021737   -0.2938923022868212   -0.00996818033057332
-0.03023041524500989   -0.29397446741627764   -0.010501368884158188
-0.008790409426020593   -0.25387731883406456   -0.01041732734022963
-0.02889960416124857   -0.2544050578977175   -0.010567337086999211
-0.029705155538524916   -0.29418475739448285   -0.010452533071997394
-0.008442516544754168   -0.2539792544066357   -0.010139271454135934
-0.028542269475804138   -0.2547555755998598   -0.010530932058805058
-0.029705155538524916   -0.29418475739448285   -0.010452533071997394
-0.013087593774021737   -0.2938923022868212   -0.00996818033057332
-0.008442516544754168   -0.2539792544066357   -0.010139271454135934
-0.01259904418458377   -0.29415794390604216   -0.009665176357000087
-0.028542269475804138   -0.2547555755998598   -0.010530932058805058
-0.00813239746218094   -0.25418747146758225   -0.00991140223868477
-0.01259904418458377   -0.29415794390604216   -0.009665176357000087
-0.008442516544754168   -0.2539792544066357   -0.010139271454135934
-0.028542269475804138   -0.2547555755998598   -0.010530932058805058
-0.01259904418458377   -0.29415794390604216   -0.009665176357000087
-0.029180831985172996   -0.2945710784909906   -0.0104513904232408
-0.029705155538524916   -0.29418475739448285   -0.010452533071997394
-0.028542269475804138   -0.2547555755998598   -0.010530932058805058
-0.01259904418458377   -0.29415794390604216   -0.009665176357000087
-0.029705155538524916   -0.29418475739448285   -0.010452533071997394
-0.008442516544754168   -0.2539792544066357   -0.010139271454135934
-0.00914776443814766   -0.2538731238660953   -0.010743875088889132
-0.014186194968291562   -0.293855124100093   -0.01071986013471455
0.011984307914949149   -0.2533730014742042   -0.010935360204207389
-0.008790409426020593   -0.25387731883406456   -0.01041732734022963
-0.014186194968291562   -0.293855124100093   -0.01071986013471455
0.003152231875900279   -0.29325153857588765   -0.01101721640483873
0.011984307914949149   -0.2533730014742042   -0.010935360204207389
0.0038301853781675605   -0.29306711539158503   -0.010312351568122758
-0.008790409426020593   -0.25387731883406456   -0.01041732734022963
0.012421114911269513   -0.25323627020942446   -0.01041969594845124
0.0038301853781675605   -0.29306711539158503   -0.010312351568122758
0.011984307914949149   -0.2533730014742042   -0.010935360204207389
-0.008790409426020593   -0.25387731883406456   -0.01041732734022963
0.0038301853781675605   -0.29306711539158503   -0.010312351568122758
-0.013628565353296622   -0.29379874307790305   -0.010318242969621732
-0.014186194968291562   -0.293855124100093   -0.01071986013471455
-0.008790409426020593   -0.25387731883406456   -0.01041732734022963
0.0038301853781675605   -0.29306711539158503   -0.010312351568122758
-0.014186194968291562   -0.293855124100093   -0.01071986013471455
0.011984307914949149   -0.2533730014742042   -0.010935360204207389
-0.008790409426020593   -0.25387731883406456   -0.01041732734022963
-0.013628565353296622   -0.29379874307790305   -0.010318242969621732
0.012421114911269513   -0.25323627020942446   -0.01041969594845124
-0.008442516544754168   -0.2539792544066357   -0.010139271454135934
-0.013628565353296622   -0.29379874307790305   -0.010318242969621732
0.0038301853781675605   -0.29306711539158503   -0.010312351568122758
0.012421114911269513   -0.25323627020942446   -0.01041969594845124
0.0045439724592833824   -0.29305036254999306   -0.009672893569868609
-0.008442516544754168   -0.2539792544066357   -0.010139271454135934
0.012868607023747657   -0.253211152102271   -0.009955657513990409
0.0045439724592833824   -0.29305036254999306   -0.009672893569868609
0.012421114911269513   -0.25323627020942446   -0.01041969594845124
-0.008442516544754168   -0.2539792544066357   -0.010139271454135934
0.0045439724592833824   -0.29305036254999306   -0.009672893569868609
-0.013087593774021737   -0.2938923022868212   -0.00996818033057332
-0.013628565353296622   -0.29379874307790305   -0.010318242969621732
-0.008442516544754168   -0.2539792544066357   -0.010139271454135934
0.0045439724592833824   -0.29305036254999306   -0.009672893569868609
-0.013628565353296622   -0.29379874307790305   -0.010318242969621732
0.012421114911269513   -0.25323627020942446   -0.01041969594845124
-0.008442516544754168   -0.2539792544066357   -0.010139271454135934
-0.013087593774021737   -0.2938923022868212   -0.00996818033057332
0.012868607023747657   -0.253211152102271   -0.009955657513990409
-0.00813239746218094   -0.25418747146758225   -0.00991140223868477
-0.013087593774021737   -0.2938923022868212   -0.00996818033057332
0.0045439724592833824   -0.29305036254999306   -0.009672893569868609
0.012868607023747657   -0.253211152102271   -0.009955657513990409
0.005066028599006458   -0.29319374788877   -0.00907849745476427
-0.00813239746218094   -0.25418747146758225   -0.00991140223868477
0.01316550113255532   -0.25327696822308304   -0.00953644581895151
0.005066028599006458   -0.29319374788877   -0.00907849745476427
0.012868607023747657   -0.253211152102271   -0.009955657513990409
-0.00813239746218094   -0.25418747146758225   -0.00991140223868477
0.005066028599006458   -0.29319374788877   -0.00907849745476427
-0.01259904418458377   -0.29415794390604216   -0.009665176357000087
-0.013087593774021737   -0.2938923022868212   -0.00996818033057332
-0.00813239746218094   -0.25418747146758225   -0.00991140223868477
0.005066028599006458   -0.29319374788877   -0.00907849745476427
-0.013087593774021737   -0.2938923022868212   -0.00996818033057332
0.012868607023747657   -0.253211152102271   -0.009955657513990409
0.011984307914949149   -0.2533730014742042   -0.010935360204207389
0.003152231875900279   -0.29325153857588765   -0.01101721640483873
0.034477691779040004   -0.2525135216662201   -0.0114333802330308
0.012421114911269513   -0.25323627020942446   -0.01041969594845124
0.003152231875900279   -0.29325153857588765   -0.01101721640483873
0.021655060270670653   -0.2920619635935838   -0.011656225138265894
0.034477691779040004   -0.2525135216662201   -0.0114333802330308
0.02336682739691437   -0.29170745506915824   -0.010577755683446018
0.012421114911269513   -0.25323627020942446   -0.01041969594845124
0.035639377501312984   -0.2522306804479655   -0.01068365675085042
0.02336682739691437   -0.29170745506915824   -0.010577755683446018
0.034477691779040004   -0.2525135216662201   -0.0114333802330308
0.012421114911269513   -0.25323627020942446   -0.01041969594845124
0.02336682739691437   -0.29170745506915824   -0.010577755683446018
0.0038301853781675605   -0.29306711539158503   -0.010312351568122758
0.003152231875900279   -0.29325153857588765   -0.01101721640483873
0.012421114911269513   -0.25323627020942446   -0.01041969594845124
0.02336682739691437   -0.29170745506915824   -0.010577755683446018
0.003152231875900279   -0.29325153857588765   -0.01101721640483873
0.034477691779040004   -0.2525135216662201   -0.0114333802330308
0.012421114911269513   -0.25323627020942446   -0.01041969594845124
0.0038301853781675605   -0.29306711539158503   -0.010312351568122758
0.035639377501312984   -0.2522306804479655   -0.01068365675085042
0.012868607023747657   -0.253211152102271   -0.009955657513990409
0.0038301853781675605   -0.29306711539158503   -0.010312351568122758
0.02336682739691437   -0.29170745506915824   -0.010577755683446018
0.035639377501312984   -0.2522306804479655   -0.01068365675085042
0.024678887518124314   -0.2916460904482186   -0.009580374722280372
0.012868607023747657   -0.253211152102271   -0.009955657513990409
0.03649870408697254   -0.25215327569328433   -0.010002528169552338
0.024678887518124314   -0.2916460904482186   -0.009580374722280372
0.035639377501312984   -0.2522306804479655   -0.01068365675085042
0.012868607023747657   -0.253211152102271   -0.009955657513990409
0.024678887518124314   -0.2916460904482186   -0.009580374722280372
0.0045439724592833824   -0.29305036254999306   -0.009672893569868609
0.0038301853781675605   -0.29306711539158503   -0.010312351568122758
0.012868607023747657   -0.253211152102271   -0.009955657513990409
0.024678887518124314   -0.2916460904482186   -0.009580374722280372
0.0038301853781675605   -0.29306711539158503   -0.010312351568122758
0.035639377501312984   -0.2522306804479655   -0.01068365675085042
0.012868607023747657   -0.253211152102271   -0.009955657513990409
0.0045439724592833824   -0.29305036254999306   -0.009672893569868609
0.03649870408697254   -0.25215327569328433   -0.010002528169552338
0.01316550113255532   -0.25327696822308304   -0.00953644581895151
0.0045439724592833824   -0.29305036254999306   -0.009672893569868609
0.024678887518124314   -0.2916460904482186   -0.009580374722280372
0.03649870408697254   -0.25215327569328433   -0.010002528169552338
0.02603592248775908   -0.29175037114134406   -0.008672272684255305
0.01316550113255532   -0.25327696822308304   -0.00953644581895151
0.03736827446048407   -0.2521521959974609   -0.009393075770042333
0.02603592248775908   -0.29175037114134406   -0.008672272684255305
0.03649870408697254   -0.25215327569328433   -0.010002528169552338
0.01316550113255532   -0.25327696822308304   -0.00953644581895151
0.02603592248775908   -0.29175037114134406   -0.008672272684255305
0.005066028599006458   -0.29319374788877   -0.00907849745476427
0.0045439724592833824   -0.29305036254999306   -0.009672893569868609
0.01316550113255532   -0.25327696822308304   -0.00953644581895151
0.02603592248775908   -0.29175037114134406   -0.008672272684255305
0.0045439724592833824   -0.29305036254999306   -0.009672893569868609
0.03649870408697254   -0.25215327569328433   -0.010002528169552338
-0.06765256978983614   -0.2925702237245476   -0.010694069017434703
-0.05661295389018146   -0.3233994025624627   -0.0096989177892238
-0.04786252835875364   -0.2934950586105812   -0.010626134664987862
-0.06662188059856361   -0.29276921591891303   -0.011304317079713732
-0.05661295389018146   -0.3233994025624627   -0.0096989177892238
-0.04253465806409851   -0.324771941119006   -0.010111241906414
-0.04786252835875364   -0.2934950586105812   -0.010626134664987862
-0.041817546156986636   -0.3247002035296479   -0.010447382094520804
-0.06662188059856361   -0.29276921591891303   -0.011304317079713732
-0.04736672764428044   -0.29362900144109855   -0.010844445315354194
-0.041817546156986636   -0.3247002035296479   -0.010447382094520804
-0.04786252835875364   -0.2934950586105812   -0.010626134664987862
-0.06662188059856361   -0.29276921591891303   -0.011304317079713732
-0.041817546156986636   -0.3247002035296479   -0.010447382094520804
-0.05507153884211739   -0.32336008756864376   -0.010605429229431806
-0.05661295389018146   -0.3233994025624627   -0.0096989177892238
-0.06662188059856361   -0.29276921591891303   -0.011304317079713732
-0.041817546156986636   -0.3247002035296479   -0.010447382094520804
-0.05661295389018146   -0.3233994025624627   -0.0096989177892238
-0.04786252835875364   -0.2934950586105812   -0.010626134664987862
-0.06662188059856361   -0.29276921591891303   -0.011304317079713732
-0.05507153884211739   -0.32336008756864376   -0.010605429229431806
-0.04736672764428044   -0.29362900144109855   -0.010844445315354194
-0.0655927850824668   -0.29314473346378983   -0.011995742925028077
-0.05507153884211739   -0.32336008756864376   -0.010605429229431806
-0.041817546156986636   -0.3247002035296479   -0.010447382094520804
-0.04736672764428044   -0.29362900144109855   -0.010844445315354194
-0.04097481828003093   -0.32489593002858735   -0.010834582039176463
-0.0655927850824668   -0.29314473346378983   -0.011995742925028077
-0.04674407318880451   -0.2939490136032437   -0.011112602383251591
-0.04097481828003093   -0.32489593002858735   -0.010834582039176463
-0.04736672764428044   -0.29362900144109855   -0.010844445315354194
-0.0655927850824668   -0.29314473346378983   -0.011995742925028077
-0.04097481828003093   -0.32489593002858735   -0.010834582039176463
-0.053649952499523375   -0.323602214865695   -0.011583798480325674
-0.05507153884211739   -0.32336008756864376   -0.010605429229431806
-0.0655927850824668   -0.29314473346378983   -0.011995742925028077
-0.04097481828003093   -0.32489593002858735   -0.010834582039176463
-0.05507153884211739   -0.32336008756864376   -0.010605429229431806
-0.04736672764428044   -0.29362900144109855   -0.010844445315354194
-0.0655927850824668   -0.29314473346378983   -0.011995742925028077
-0.053649952499523375   -0.323602214865695   -0.011583798480325674
-0.04674407318880451   -0.2939490136032437   -0.011112602383251591
-0.06427428838221222   -0.2938449523408932   -0.012766769363266987
-0.053649952499523375   -0.323602214865695   -0.011583798480325674
-0.04097481828003093   -0.32489593002858735   -0.010834582039176463
-0.04674407318880451   -0.2939490136032437   -0.011112602383251591
-0.040210259702079316   -0.32536347270763116   -0.011269561214882392
-0.06427428838221222   -0.2938449523408932   -0.012766769363266987
-0.04612951641955497   -0.29447325360136023   -0.011430140934249525
-0.040210259702079316   -0.32536347270763116   -0.011269561214882392
-0.04674407318880451   -0.2939490136032437   -0.011112602383251591
-0.06427428838221222   -0.2938449523408932   -0.012766769363266987
-0.040210259702079316   -0.32536347270763116   -0.011269561214882392
-0.051916595962579956   -0.3242511932158484   -0.012629710918345461
-0.053649952499523375   -0.323602214865695   -0.011583798480325674
-0.06427428838221222   -0.2938449523408932   -0.012766769363266987
-0.040210259702079316   -0.32536347270763116   -0.011269561214882392
-0.053649952499523375   -0.323602214865695   -0.011583798480325674
-0.04674407318880451   -0.2939490136032437   -0.011112602383251591
-0.04786252835875364   -0.2934950586105812   -0.010626134664987862
-0.04253465806409851   -0.324771941119006   -0.010111241906414
-0.030739468421588874   -0.2939302383881887   -0.010598577378541203
-0.04736672764428044   -0.29362900144109855   -0.010844445315354194
-0.04253465806409851   -0.324771941119006   -0.010111241906414
-0.031047917850955387   -0.3256664930067713   -0.010433756496540237
-0.030739468421588874   -0.2939302383881887   -0.010598577378541203
-0.030311384245064694   -0.32555263875940893   -0.010330811406495138
-0.04736672764428044   -0.29362900144109855   -0.010844445315354194
-0.03023041524500989   -0.29397446741627764   -0.010501368884158188
-0.030311384245064694   -0.32555263875940893   -0.010330811406495138
-0.030739468421588874   -0.2939302383881887   -0.010598577378541203
-0.04736672764428044   -0.29362900144109855   -0.010844445315354194
-0.030311384245064694   -0.32555263875940893   -0.010330811406495138
-0.041817546156986636   -0.3247002035296479   -0.010447382094520804
-0.04253465806409851   -0.324771941119006   -0.010111241906414
-0.04736672764428044   -0.29362900144109855   -0.010844445315354194
-0.030311384245064694   -0.32555263875940893   -0.010330811406495138
-0.04253465806409851   -0.324771941119006   -0.010111241906414
-0.030739468421588874   -0.2939302383881887   -0.010598577378541203
-0.04736672764428044   -0.29362900144109855   -0.010844445315354194
-0.041817546156986636   -0.3247002035296479   -0.010447382094520804
-0.03023041524500989   -0.29397446741627764   -0.010501368884158188
-0.04674407318880451   -0.2939490136032437   -0.011112602383251591
-0.041817546156986636   -0.3247002035296479   -0.010447382094520804
-0.030311384245064694   -0.32555263875940893   -0.010330811406495138
-0.03023041524500989   -0.29397446741627764   -0.010501368884158188
-0.02958561998081144   -0.32566943273521054   -0.010277410526354214
-0.04674407318880451   -0.2939490136032437   -0.011112602383251591
-0.029705155538524916   -0.29418475739448285   -0.010452533071997394
-0.02958561998081144   -0.32566943273521054   -0.010277410526354214
-0.03023041524500989   -0.29397446741627764   -0.010501368884158188
-0.04674407318880451   -0.2939490136032437   -0.011112602383251591
-0.02958561998081144   -0.32566943273521054   -0.010277410526354214
-0.04097481828003093   -0.32489593002858735   -0.010834582039176463
-0.041817546156986636   -0.3247002035296479   -0.010447382094520804
-0.04674407318880451   -0.2939490136032437   -0.011112602383251591
-0.02958561998081144   -0.32566943273521054   -0.010277410526354214
-0.041817546156986636   -0.3247002035296479   -0.010447382094520804
-0.03023041524500989   -0.29397446741627764   -0.010501368884158188
-0.04674407318880451   -0.2939490136032437   -0.011112602383251591
-0.04097481828003093   -0.32489593002858735   -0.010834582039176463
-0.029705155538524916   -0.29418475739448285   -0.010452533071997394
-0.04612951641955497   -0.29447325360136023   -0.011430140934249525
-0.04097481828003093   -0.32489593002858735   -0.010834582039176463
-0.02958561998081144   -0.32566943273521054   -0.010277410526354214
-0.029705155538524916   -0.29418475739448285   -0.010452533071997394
-0.028918268186905946   -0.3260247127486143   -0.010284005100478834
-0.04612951641955497   -0.29447325360136023   -0.011430140934249525
-0.029180831985172996   -0.2945710784909906   -0.0104513904232408
-0.028918268186905946   -0.3260247127486143   -0.010284005100478834
-0.029705155538524916   -0.29418475739448285   -0.010452533071997394
-0.04612951641955497   -0.29447325360136023   -0.011430140934249525
-0.028918268186905946   -0.3260247127486143   -0.010284005100478834
-0.040210259702079316   -0.32536347270763116   -0.011269561214882392
-0.04097481828003093   -0.32489593002858735   -0.010834582039176463
-0.04612951641955497   -0.29447325360136023   -0.011430140934249525
-0.028918268186905946   -0.3260247127486143   -0.010284005100478834
-0.04097481828003093   -0.32489593002858735   -0.010834582039176463
-0.029705155538524916   -0.29418475739448285   -0.010452533071997394
-0.030739468421588874   -0.2939302383881887   -0.010598577378541203
-0.031047917850955387   -0.3256664930067713   -0.010433756496540237
-0.014186194968291562   -0.293855124100093   -0.01071986013471455
-0.03023041524500989   -0.29397446741627764   -0.010501368884158188
-0.031047917850955387   -0.3256664930067713   -0.010433756496540237
-0.020047661633195827   -0.3261441363928159   -0.010813193124825003
-0.014186194968291562   -0.293855124100093   -0.01071986013471455
-0.019217212360726064   -0.32598088050072466   -0.010296459603088387
-0.03023041524500989   -0.29397446741627764   -0.010501368884158188
-0.013628565353296622   -0.29379874307790305   -0.010318242969621732
-0.019217212360726064   -0.32598088050072466   -0.010296459603088387
-0.014186194968291562   -0.293855124100093   -0.01071986013471455
-0.03023041524500989   -0.29397446741627764   -0.010501368884158188
-0.019217212360726064   -0.32598088050072466   -0.010296459603088387
-0.030311384245064694   -0.32555263875940893   -0.010330811406495138
-0.031047917850955387   -0.3256664930067713   -0.010433756496540237
-0.03023041524500989   -0.29397446741627764   -0.010501368884158188
-0.019217212360726064   -0.32598088050072466   -0.010296459603088387
-0.031047917850955387   -0.3256664930067713   -0.010433756496540237
-0.014186194968291562   -0.293855124100093   -0.01071986013471455
-0.03023041524500989   -0.29397446741627764   -0.010501368884158188
-0.030311384245064694   -0.32555263875940893   -0.010330811406495138
-0.013628565353296622   -0.29379874307790305   -0.010318242969621732
-0.029705155538524916   -0.29418475739448285   -0.010452533071997394
-0.030311384245064694   -0.32555263875940893   -0.010330811406495138
-0.019217212360726064   -0.32598088050072466   -0.010296459603088387
-0.013628565353296622   -0.29379874307790305   -0.010318242969621732
-0.018425928856920452   -0.32602001824093213   -0.009823339198134311
-0.029705155538524916   -0.29418475739448285   -0.010452533071997394
-0.013087593774021737   -0.2938923022868212   -0.00996818033057332
-0.018425928856920452   -0.32602001824093213   -0.009823339198134311
-0.013628565353296622   -0.29379874307790305   -0.010318242969621732
-0.029705155538524916   -0.29418475739448285   -0.010452533071997394
-0.018425928856920452   -0.32602001824093213   -0.009823339198134311
-0.02958561998081144   -0.32566943273521054   -0.010277410526354214
-0.030311384245064694   -0.32555263875940893   -0.010330811406495138
-0.029705155538524916   -0.29418475739448285   -0.010452533071997394
-0.018425928856920452   -0.32602001824093213   -0.009823339198134311
-0.030311384245064694   -0.32555263875940893   -0.010330811406495138
-0.013628565353296622   -0.29379874307790305   -0.010318242969621732
-0.029705155538524916   -0.29418475739448285   -0.010452533071997394
-0.02958561998081144   -0.32566943273521054   -0.010277410526354214
-0.013087593774021737   -0.2938923022868212   -0.00996818033057332
-0.029180831985172996   -0.2945710784909906   -0.0104513904232408
-0.02958561998081144   -0.32566943273521054   -0.010277410526354214
-0.018425928856920452   -0.32602001824093213   -0.009823339198134311
-0.013087593774021737   -0.2938923022868212   -0.00996818033057332
-0.017768499486081318   -0.3263017633991859   -0.009421499427955105
-0.029180831985172996   -0.2945710784909906   -0.0104513904232408
-0.01259904418458377   -0.29415794390604216   -0.009665176357000087
-0.017768499486081318   -0.3263017633991859   -0.009421499427955105
-0.013087593774021737   -0.2938923022868212   -0.00996818033057332
-0.029180831985172996   -0.2945710784909906   -0.0104513904232408
-0.017768499486081318   -0.3263017633991859   -0.009421499427955105
-0.028918268186905946   -0.3260247127486143   -0.010284005100478834
-0.02958561998081144   -0.32566943273521054   -0.010277410526354214
-0.029180831985172996   -0.2945710784909906   -0.0104513904232408
-0.017768499486081318   -0.3263017633991859   -0.009421499427955105
-0.02958561998081144   -0.32566943273521054   -0.010277410526354214
-0.013087593774021737   -0.2938923022868212   -0.00996818033057332
-0.014186194968291562   -0.293855124100093   -0.01071986013471455
-0.020047661633195827   -0.3261441363928159   -0.010813193124825003
0.003152231875900279   -0.29325153857588765   -0.01101721640483873
-0.013628565353296622   -0.29379874307790305   -0.010318242969621732
-0.020047661633195827   -0.3261441363928159   -0.010813193124825003
-0.00833793218151068   -0.32603988342088636   -0.011258716992985567
0.003152231875900279   -0.29325153857588765   -0.01101721640483873
-0.00727172924116219   -0.3257842224289752   -0.010346543630971868
-0.013628565353296622   -0.29379874307790305   -0.010318242969621732
0.0038301853781675605   -0.29306711539158503   -0.010312351568122758
-0.00727172924116219   -0.3257842224289752   -0.010346543630971868
0.003152231875900279   -0.29325153857588765   -0.01101721640483873
-0.013628565353296622   -0.29379874307790305   -0.010318242969621732
-0.00727172924116219   -0.3257842224289752   -0.010346543630971868
-0.019217212360726064   -0.32598088050072466   -0.010296459603088387
-0.020047661633195827   -0.3261441363928159   -0.010813193124825003
-0.013628565353296622   -0.29379874307790305   -0.010318242969621732
-0.00727172924116219   -0.3257842224289752   -0.010346543630971868
-0.020047661633195827   -0.3261441363928159   -0.010813193124825003
0.003152231875900279   -0.29325153857588765   -0.01101721640483873
-0.013628565353296622   -0.29379874307790305   -0.010318242969621732
-0.019217212360726064   -0.32598088050072466   -0.010296459603088387
0.0038301853781675605   -0.29306711539158503   -0.010312351568122758
-0.013087593774021737   -0.2938923022868212   -0.00996818033057332
-0.019217212360726064   -0.32598088050072466   -0.010296459603088387
-0.00727172924116219   -0.3257842224289752   -0.010346543630971868
0.0038301853781675605   -0.29306711539158503   -0.010312351568122758
-0.006183213930119057   -0.3257381849817414   -0.009481134422730299
-0.013087593774021737   -0.2938923022868212   -0.00996818033057332
0.0045439724592833824   -0.29305036254999306   -0.009672893569868609
-0.006183213930119057   -0.3257381849817414   -0.009481134422730299
0.0038301853781675605   -0.29306711539158503   -0.010312351568122758
-0.013087593774021737   -0.2938923022868212   -0.00996818033057332
-0.006183213930119057   -0.3257381849817414   -0.009481134422730299
-0.018425928856920452   -0.32602001824093213   -0.009823339198134311
-0.019217212360726064   -0.32598088050072466   -0.010296459603088387
-0.013087593774021737   -0.2938923022868212   -0.00996818033057332
-0.006183213930119057   -0.3257381849817414   -0.009481134422730299
-0.019217212360726064   -0.32598088050072466   -0.010296459603088387
0.0038301853781675605   -0.29306711539158503   -0.010312351568122758
-0.013087593774021737   -0.2938923022868212   -0.00996818033057332
-0.018425928856920452   -0.32602001824093213   -0.009823339198134311
0.0045439724592833824   -0.29305036254999306   -0.009672893569868609
-0.01259904418458377   -0.29415794390604216   -0.009665176357000087
-0.018425928856920452   -0.32602001824093213   -0.009823339198134311
-0.006183213930119057   -0.3257381849817414   -0.009481134422730299
0.0045439724592833824   -0.29305036254999306   -0.009672893569868609
-0.005376042156793364   -0.3259476442321478   -0.00869595174453187
-0.01259904418458377   -0.29415794390604216   -0.009665176357000087
0.005066028599006458   -0.29319374788877   -0.00907849745476427
-0.005376042156793364   -0.3259476442321478   -0.00869595174453187
0.0045439724592833824   -0.29305036254999306   -0.009672893569868609
-0.01259904418458377   -0.29415794390604216   -0.009665176357000087
-0.005376042156793364   -0.3259476442321478   -0.00869595174453187
-0.017768499486081318   -0.3263017633991859   -0.009421499427955105
-0.018425928856920452   -0.32602001824093213   -0.009823339198134311
-0.01259904418458377   -0.29415794390604216   -0.009665176357000087
-0.005376042156793364   -0.3259476442321478   -0.00869595174453187
-0.018425928856920452   -0.32602001824093213   -0.009823339198134311
0.0045439724592833824   -0.29305036254999306   -0.009672893569868609
0.003152231875900279   -0.29325153857588765   -0.01101721640483873
-0.00833793218151068   -0.32603988342088636   -0.011258716992985567
0.021655060270670653   -0.2920619635935838   -0.011656225138265894
0.0038301853781675605   -0.29306711539158503   -0.010312351568122758
-0.00833793218151068   -0.32603988342088636   -0.011258716992985567
0.004289187482623035   -0.32492012456529096   -0.012176690209931739
0.021655060270670653   -0.2920619635935838   -0.011656225138265894
0.006762164464171372   -0.3243622000121069   -0.010683727050321912
0.0038301853781675605   -0.29306711539158503   -0.010312351568122758
0.02336682739691437   -0.29170745506915824   -0.010577755683446018
0.006762164464171372   -0.3243622000121069   -0.010683727050321912
0.021655060270670653   -0.2920619635935838   -0.011656225138265894
0.0038301853781675605   -0.29306711539158503   -0.010312351568122758
0.006762164464171372   -0.3243622000121069   -0.010683727050321912
-0.00727172924116219   -0.3257842224289752   -0.010346543630971868
-0.00833793218151068   -0.32603988342088636   -0.011258716992985567
0.0038301853781675605   -0.29306711539158503   -0.010312351568122758
0.006762164464171372   -0.3243622000121069   -0.010683727050321912
-0.00833793218151068   -0.32603988342088636   -0.011258716992985567
0.021655060270670653   -0.2920619635935838   -0.011656225138265894
0.0038301853781675605   -0.29306711539158503   -0.010312351568122758
-0.00727172924116219   -0.3257842224289752   -0.010346543630971868
0.02336682739691437   -0.29170745506915824   -0.010577755683446018
0.0045439724592833824   -0.29305036254999306   -0.009672893569868609
-0.00727172924116219   -0.3257842224289752   -0.010346543630971868
0.006762164464171372   -0.3243622000121069   -0.010683727050321912
0.02336682739691437   -0.29170745506915824   -0.010577755683446018
0.008706278480821778   -0.3242484353125334   -0.009282931017356812
0.0045439724592833824   -0.29305036254999306   -0.009672893569868609
0.024678887518124314   -0.2916460904482186   -0.009580374722280372
0.008706278480821778   -0.3242484353125334   -0.009282931017356812
0.02336682739691437   -0.29170745506915824   -0.010577755683446018
0.0045439724592833824   -0.29305036254999306   -0.009672893569868609
0.008706278480821778   -0.3242484353125334   -0.009282931017356812
-0.006183213930119057   -0.3257381849817414   -0.009481134422730299
-0.00727172924116219   -0.3257842224289752   -0.010346543630971868
0.0045439724592833824   -0.29305036254999306   -0.009672893569868609
0.008706278480821778   -0.3242484353125334   -0.009282931017356812
-0.00727172924116219   -0.3257842224289752   -0.010346543630971868
0.02336682739691437   -0.29170745506915824   -0.010577755683446018
0.0045439724592833824   -0.29305036254999306   -0.009672893569868609
-0.006183213930119057   -0.3257381849817414   -0.009481134422730299
0.024678887518124314   -0.2916460904482186   -0.009580374722280372
0.005066028599006458   -0.29319374788877   -0.00907849745476427
-0.006183213930119057   -0.3257381849817414   -0.009481134422730299
0.008706278480821778   -0.3242484353125334   -0.009282931017356812
0.024678887518124314   -0.2916460904482186   -0.009580374722280372
0.010723596194938597   -0.32434023328798856   -0.008004826233015948
0.005066028599006458   -0.29319374788877   -0.00907849745476427
0.02603592248775908   -0.29175037114134406   -0.008672272684255305
0.010723596194938597   -0.32434023328798856   -0.008004826233015948
0.024678887518124314   -0.2916460904482186   -0.009580374722280372
0.005066028599006458   -0.29319374788877   -0.00907849745476427
0.010723596194938597   -0.32434023328798856   -0.008004826233015948
-0.005376042156793364   -0.3259476442321478   -0.00869595174453187
-0.006183213930119057   -0.3257381849817414   -0.009481134422730299
0.005066028599006458   -0.29319374788877   -0.00907849745476427
0.010723596194938597   -0.32434023328798856   -0.008004826233015948
-0.006183213930119057   -0.3257381849817414   -0.009481134422730299
0.024678887518124314   -0.2916460904482186   -0.009580374722280372
-0.05661295389018146   -0.3233994025624627   -0.0096989177892238
-0.04140801931153011   -0.34170331647418695   -0.008531579564580513
-0.04253465806409851   -0.324771941119006   -0.010111241906414
-0.05507153884211739   -0.32336008756864376   -0.010605429229431806
-0.04140801931153011   -0.34170331647418695   -0.008531579564580513
-0.0348834344590512   -0.3434415613251064   -0.00957949440272976
-0.04253465806409851   -0.324771941119006   -0.010111241906414
-0.03397661506088835   -0.3430956605282794   -0.009936297951775605
-0.05507153884211739   -0.32336008756864376   -0.010605429229431806
-0.041817546156986636   -0.3247002035296479   -0.010447382094520804
-0.03397661506088835   -0.3430956605282794   -0.009936297951775605
-0.04253465806409851   -0.324771941119006   -0.010111241906414
-0.05507153884211739   -0.32336008756864376   -0.010605429229431806
-0.03397661506088835   -0.3430956605282794   -0.009936297951775605
-0.03948412944377321   -0.34131394856696967   -0.00961974450489753
-0.04140801931153011   -0.34170331647418695   -0.008531579564580513
-0.05507153884211739   -0.32336008756864376   -0.010605429229431806
-0.03397661506088835   -0.3430956605282794   -0.009936297951775605
-0.04140801931153011   -0.34170331647418695   -0.008531579564580513
-0.04253465806409851   -0.324771941119006   -0.010111241906414
-0.05507153884211739   -0.32336008756864376   -0.010605429229431806
-0.03948412944377321   -0.34131394856696967   -0.00961974450489753
-0.041817546156986636   -0.3247002035296479   -0.010447382094520804
-0.053649952499523375   -0.323602214865695   -0.011583798480325674
-0.03948412944377321   -0.34131394856696967   -0.00961974450489753
-0.03397661506088835   -0.3430956605282794   -0.009936297951775605
-0.041817546156986636   -0.3247002035296479   -0.010447382094520804
-0.03297347263619767   -0.3431095261375534   -0.01029666152385124
-0.053649952499523375   -0.323602214865695   -0.011583798480325674
-0.04097481828003093   -0.32489593002858735   -0.010834582039176463
-0.03297347263619767   -0.3431095261375534   -0.01029666152385124
-0.041817546156986636   -0.3247002035296479   -0.010447382094520804
-0.053649952499523375   -0.323602214865695   -0.011583798480325674
-0.03297347263619767   -0.3431095261375534   -0.01029666152385124
-0.037823899437666855   -0.3413436316580988   -0.010703433975766773
-0.03948412944377321   -0.34131394856696967   -0.00961974450489753
-0.053649952499523375   -0.323602214865695   -0.011583798480325674
-0.03297347263619767   -0.3431095261375534   -0.01029666152385124
-0.03948412944377321   -0.34131394856696967   -0.00961974450489753
-0.041817546156986636   -0.3247002035296479   -0.010447382094520804
-0.053649952499523375   -0.323602214865695   -0.011583798480325674
-0.037823899437666855   -0.3413436316580988   -0.010703433975766773
-0.04097481828003093   -0.32489593002858735   -0.010834582039176463
-0.051916595962579956   -0.3242511932158484   -0.012629710918345461
-0.037823899437666855   -0.3413436316580988   -0.010703433975766773
-0.03297347263619767   -0.3431095261375534   -0.01029666152385124
-0.04097481828003093   -0.32489593002858735   -0.010834582039176463
-0.03204091124805066   -0.34348467790057774   -0.010662101545189373
-0.051916595962579956   -0.3242511932158484   -0.012629710918345461
-0.040210259702079316   -0.32536347270763116   -0.011269561214882392
-0.03204091124805066   -0.34348467790057774   -0.010662101545189373
-0.04097481828003093   -0.32489593002858735   -0.010834582039176463
-0.051916595962579956   -0.3242511932158484   -0.012629710918345461
-0.03204091124805066   -0.34348467790057774   -0.010662101545189373
-0.035855594180979396   -0.34181608071379976   -0.011810556169769813
-0.037823899437666855   -0.3413436316580988   -0.010703433975766773
-0.051916595962579956   -0.3242511932158484   -0.012629710918345461
-0.03204091124805066   -0.34348467790057774   -0.010662101545189373
-0.037823899437666855   -0.3413436316580988   -0.010703433975766773
-0.04097481828003093   -0.32489593002858735   -0.010834582039176463
-0.04253465806409851   -0.324771941119006   -0.010111241906414
-0.0348834344590512   -0.3434415613251064   -0.00957949440272976
-0.031047917850955387   -0.3256664930067713   -0.010433756496540237
-0.041817546156986636   -0.3247002035296479   -0.010447382094520804
-0.0348834344590512   -0.3434415613251064   -0.00957949440272976
-0.030117757910624553   -0.3451977389140104   -0.010506457020431615
-0.031047917850955387   -0.3256664930067713   -0.010433756496540237
-0.02915985631303502   -0.34484345155135654   -0.010253102129103372
-0.041817546156986636   -0.3247002035296479   -0.010447382094520804
-0.030311384245064694   -0.32555263875940893   -0.010330811406495138
-0.02915985631303502   -0.34484345155135654   -0.010253102129103372
-0.031047917850955387   -0.3256664930067713   -0.010433756496540237
-0.041817546156986636   -0.3247002035296479   -0.010447382094520804
-0.02915985631303502   -0.34484345155135654   -0.010253102129103372
-0.03397661506088835   -0.3430956605282794   -0.009936297951775605
-0.0348834344590512   -0.3434415613251064   -0.00957949440272976
-0.041817546156986636   -0.3247002035296479   -0.010447382094520804
-0.02915985631303502   -0.34484345155135654   -0.010253102129103372
-0.0348834344590512   -0.3434415613251064   -0.00957949440272976
-0.031047917850955387   -0.3256664930067713   -0.010433756496540237
-0.041817546156986636   -0.3247002035296479   -0.010447382094520804
-0.03397661506088835   -0.3430956605282794   -0.009936297951775605
-0.030311384245064694   -0.32555263875940893   -0.010330811406495138
-0.04097481828003093   -0.32489593002858735   -0.010834582039176463
-0.03397661506088835   -0.3430956605282794   -0.009936297951775605
-0.02915985631303502   -0.34484345155135654   -0.010253102129103372
-0.030311384245064694   -0.32555263875940893   -0.010330811406495138
-0.028234237658403667   -0.3448346952664458   -0.009996515993298953
-0.04097481828003093   -0.32489593002858735   -0.010834582039176463
-0.02958561998081144   -0.32566943273521054   -0.010277410526354214
-0.028234237658403667   -0.3448346952664458   -0.009996515993298953
-0.030311384245064694   -0.32555263875940893   -0.010330811406495138
-0.04097481828003093   -0.32489593002858735   -0.010834582039176463
-0.028234237658403667   -0.3448346952664458   -0.009996515993298953
-0.03297347263619767   -0.3431095261375534   -0.01029666152385124
-0.03397661506088835   -0.3430956605282794   -0.009936297951775605
-0.04097481828003093   -0.32489593002858735   -0.010834582039176463
-0.028234237658403667   -0.3448346952664458   -0.009996515993298953
-0.03397661506088835   -0.3430956605282794   -0.009936297951775605
-0.030311384245064694   -0.32555263875940893   -0.010330811406495138
-0.04097481828003093   -0.32489593002858735   -0.010834582039176463
-0.03297347263619767   -0.3431095261375534   -0.01029666152385124
-0.02958561998081144   -0.32566943273521054   -0.010277410526354214
-0.040210259702079316   -0.32536347270763116   -0.011269561214882392
-0.03297347263619767   -0.3431095261375534   -0.01029666152385124
-0.028234237658403667   -0.3448346952664458   -0.009996515993298953
-0.02958561998081144   -0.32566943273521054   -0.010277410526354214
-0.02726883181017382   -0.34516410826182714   -0.009749865855303004
-0.040210259702079316   -0.32536347270763116   -0.011269561214882392
-0.028918268186905946   -0.3260247127486143   -0.010284005100478834
-0.02726883181017382   -0.34516410826182714   -0.009749865855303004
-0.02958561998081144   -0.32566943273521054   -0.010277410526354214
-0.040210259702079316   -0.32536347270763116   -0.011269561214882392
-0.02726883181017382   -0.34516410826182714   -0.009749865855303004
-0.03204091124805066   -0.34348467790057774   -0.010662101545189373
-0.03297347263619767   -0.3431095261375534   -0.01029666152385124
-0.040210259702079316   -0.32536347270763116   -0.011269561214882392
-0.02726883181017382   -0.34516410826182714   -0.009749865855303004
-0.03297347263619767   -0.3431095261375534   -0.01029666152385124
-0.02958561998081144   -0.32566943273521054   -0.010277410526354214
-0.031047917850955387   -0.3256664930067713   -0.010433756496540237
-0.030117757910624553   -0.3451977389140104   -0.010506457020431615
-0.020047661633195827   -0.3261441363928159   -0.010813193124825003
-0.030311384245064694   -0.32555263875940893   -0.010330811406495138
-0.030117757910624553   -0.3451977389140104   -0.010506457020431615
-0.025770001945074197   -0.3473293855779638   -0.011525574539309915
-0.020047661633195827   -0.3261441363928159   -0.010813193124825003
-0.02459497244570462   -0.3470232059764524   -0.01062758563909422
-0.030311384245064694   -0.32555263875940893   -0.010330811406495138
-0.019217212360726064   -0.32598088050072466   -0.010296459603088387
-0.02459497244570462   -0.3470232059764524   -0.01062758563909422
-0.020047661633195827   -0.3261441363928159   -0.010813193124825003
-0.030311384245064694   -0.32555263875940893   -0.010330811406495138
-0.02459497244570462   -0.3470232059764524   -0.01062758563909422
-0.02915985631303502   -0.34484345155135654   -0.010253102129103372
-0.030117757910624553   -0.3451977389140104   -0.010506457020431615
-0.030311384245064694   -0.32555263875940893   -0.010330811406495138
-0.02459497244570462   -0.3470232059764524   -0.01062758563909422
-0.030117757910624553   -0.3451977389140104   -0.010506457020431615
-0.020047661633195827   -0.3261441363928159   -0.010813193124825003
-0.030311384245064694   -0.32555263875940893   -0.010330811406495138
-0.02915985631303502   -0.34484345155135654   -0.010253102129103372
-0.019217212360726064   -0.32598088050072466   -0.010296459603088387
-0.02958561998081144   -0.32566943273521054   -0.010277410526354214
-0.02915985631303502   -0.34484345155135654   -0.010253102129103372
-0.02459497244570462   -0.3470232059764524   -0.01062758563909422
-0.019217212360726064   -0.32598088050072466   -0.010296459603088387
-0.0235070348963764   -0.34700541749474906   -0.009733128247769557
-0.02958561998081144   -0.32566943273521054   -0.010277410526354214
-0.018425928856920452   -0.32602001824093213   -0.009823339198134311
-0.0235070348963764   -0.34700541749474906   -0.009733128247769557
-0.019217212360726064   -0.32598088050072466   -0.010296459603088387
-0.02958561998081144   -0.32566943273521054   -0.010277410526354214
-0.0235070348963764   -0.34700541749474906   -0.009733128247769557
-0.028234237658403667   -0.3448346952664458   -0.009996515993298953
-0.02915985631303502   -0.34484345155135654   -0.010253102129103372
-0.02958561998081144   -0.32566943273521054   -0.010277410526354214
-0.0235070348963764   -0.34700541749474906   -0.009733128247769557
-0.02915985631303502   -0.34484345155135654   -0.010253102129103372
-0.019217212360726064   -0.32598088050072466   -0.010296459603088387
-0.02958561998081144   -0.32566943273521054   -0.010277410526354214
-0.028234237658403667   -0.3448346952664458   -0.009996515993298953
-0.018425928856920452   -0.32602001824093213   -0.009823339198134311
-0.028918268186905946   -0.3260247127486143   -0.010284005100478834
-0.028234237658403667   -0.3448346952664458   -0.009996515993298953
-0.0235070348963764   -0.34700541749474906   -0.009733128247769557
-0.018425928856920452   -0.32602001824093213   -0.009823339198134311
-0.02233794278647644   -0.3472600781670027   -0.008835833763116387
-0.028918268186905946   -0.3260247127486143   -0.010284005100478834
-0.017768499486081318   -0.3263017633991859   -0.009421499427955105
-0.02233794278647644   -0.3472600781670027   -0.008835833763116387
-0.018425928856920452   -0.32602001824093213   -0.009823339198134311
-0.028918268186905946   -0.3260247127486143   -0.010284005100478834
-0.02233794278647644   -0.3472600781670027   -0.008835833763116387
-0.02726883181017382   -0.34516410826182714   -0.009749865855303004
-0.028234237658403667   -0.3448346952664458   -0.009996515993298953
-0.028918268186905946   -0.3260247127486143   -0.010284005100478834
-0.02233794278647644   -0.3472600781670027   -0.008835833763116387
-0.028234237658403667   -0.3448346952664458   -0.009996515993298953
-0.018425928856920452   -0.32602001824093213   -0.009823339198134311
-0.020047661633195827   -0.3261441363928159   -0.010813193124825003
-0.025770001945074197   -0.3473293855779638   -0.011525574539309915
-0.00833793218151068   -0.32603988342088636   -0.011258716992985567
-0.019217212360726064   -0.32598088050072466   -0.010296459603088387
-0.025770001945074197   -0.3473293855779638   -0.011525574539309915
-0.021491076618185754   -0.35000000000000003   -0.012302014867109537
-0.00833793218151068   -0.32603988342088636   -0.011258716992985567
-0.020015033111282034   -0.35000000000000003   -0.010943246363955545
-0.019217212360726064   -0.32598088050072466   -0.010296459603088387
-0.00727172924116219   -0.3257842224289752   -0.010346543630971868
-0.020015033111282034   -0.35000000000000003   -0.010943246363955545
-0.00833793218151068   -0.32603988342088636   -0.011258716992985567
-0.019217212360726064   -0.32598088050072466   -0.010296459603088387
-0.020015033111282034   -0.35000000000000003   -0.010943246363955545
-0.02459497244570462   -0.3470232059764524   -0.01062758563909422
-0.025770001945074197   -0.3473293855779638   -0.011525574539309915
-0.019217212360726064   -0.32598088050072466   -0.010296459603088387
-0.020015033111282034   -0.35000000000000003   -0.010943246363955545
-0.025770001945074197   -0.3473293855779638   -0.011525574539309915
-0.00833793218151068   -0.32603988342088636   -0.011258716992985567
-0.019217212360726064   -0.32598088050072466   -0.010296459603088387
-0.02459497244570462   -0.3470232059764524   -0.01062758563909422
-0.00727172924116219   -0.3257842224289752   -0.010346543630971868
-0.018425928856920452   -0.32602001824093213   -0.009823339198134311
-0.02459497244570462   -0.3470232059764524   -0.01062758563909422
-0.020015033111282034   -0.35000000000000003   -0.010943246363955545
-0.00727172924116219   -0.3257842224289752   -0.010346543630971868
-0.018533461496949843   -0.35000000000000003   -0.009568313415182427
-0.018425928856920452   -0.32602001824093213   -0.009823339198134311
-0.006183213930119057   -0.3257381849817414   -0.009481134422730299
-0.018533461496949843   -0.35000000000000003   -0.009568313415182427
-0.00727172924116219   -0.3257842224289752   -0.010346543630971868
-0.018425928856920452   -0.32602001824093213   -0.009823339198134311
-0.018533461496949843   -0.35000000000000003   -0.009568313415182427
-0.0235070348963764   -0.34700541749474906   -0.009733128247769557
-0.02459497244570462   -0.3470232059764524   -0.01062758563909422
-0.018425928856920452   -0.32602001824093213   -0.009823339198134311
-0.018533461496949843   -0.35000000000000003   -0.009568313415182427
-0.02459497244570462   -0.3470232059764524   -0.01062758563909422
-0.00727172924116219   -0.3257842224289752   -0.010346543630971868
-0.018425928856920452   -0.32602001824093213   -0.009823339198134311
-0.0235070348963764   -0.34700541749474906   -0.009733128247769557
-0.006183213930119057   -0.3257381849817414   -0.009481134422730299
-0.017768499486081318   -0.3263017633991859   -0.009421499427955105
-0.0235070348963764   -0.34700541749474906   -0.009733128247769557
-0.018533461496949843   -0.35000000000000003   -0.009568313415182427
-0.006183213930119057   -0.3257381849817414   -0.009481134422730299
-0.017083324259384837   -0.35000000000000003   -0.008211429626005566
-0.017768499486081318   -0.3263017633991859   -0.009421499427955105
-0.005376042156793364   -0.3259476442321478   -0.00869595174453187
-0.017083324259384837   -0.35000000000000003   -0.008211429626005566
-0.006183213930119057   -0.3257381849817414   -0.009481134422730299
-0.017768499486081318   -0.3263017633991859   -0.009421499427955105
-0.017083324259384837   -0.35000000000000003   -0.008211429626005566
-0.02233794278647644   -0.3472600781670027   -0.008835833763116387
-0.0235070348963764   -0.34700541749474906   -0.009733128247769557
-0.017768499486081318   -0.3263017633991859   -0.009421499427955105
-0.017083324259384837   -0.35000000000000003   -0.008211429626005566
-0.0235070348963764   -0.34700541749474906   -0.009733128247769557
-0.006183213930119057   -0.3257381849817414   -0.009481134422730299
-0.00833793218151068   -0.32603988342088636   -0.011258716992985567
-0.021491076618185754   -0.35000000000000003   -0.012302014867109537
0.004289187482623035   -0.32492012456529096   -0.012176690209931739
-0.00727172924116219   -0.3257842224289752   -0.010346543630971868
-0.021491076618185754   -0.35000000000000003   -0.012302014867109537
-0.01840347682575337   -0.35000000000000003   -0.013242408238613244
0.004289187482623035   -0.32492012456529096   -0.012176690209931739
-0.015329314942574458   -0.35000000000000003   -0.011279382071414948
-0.00727172924116219   -0.3257842224289752   -0.010346543630971868
0.006762164464171372   -0.3243622000121069   -0.010683727050321912
-0.015329314942574458   -0.35000000000000003   -0.011279382071414948
0.004289187482623035   -0.32492012456529096   -0.012176690209931739
-0.00727172924116219   -0.3257842224289752   -0.010346543630971868
-0.015329314942574458   -0.35000000000000003   -0.011279382071414948
-0.020015033111282034   -0.35000000000000003   -0.010943246363955545
-0.021491076618185754   -0.35000000000000003   -0.012302014867109537
-0.00727172924116219   -0.3257842224289752   -0.010346543630971868
-0.015329314942574458   -0.35000000000000003   -0.011279382071414948
-0.021491076618185754   -0.35000000000000003   -0.012302014867109537
0.004289187482623035   -0.32492012456529096   -0.012176690209931739
-0.00727172924116219   -0.3257842224289752   -0.010346543630971868
-0.020015033111282034   -0.35000000000000003   -0.010943246363955545
0.006762164464171372   -0.3243622000121069   -0.010683727050321912
-0.006183213930119057   -0.3257381849817414   -0.009481134422730299
-0.020015033111282034   -0.35000000000000003   -0.010943246363955545
-0.015329314942574458   -0.35000000000000003   -0.011279382071414948
0.006762164464171372   -0.3243622000121069   -0.010683727050321912
-0.012877594319711902   -0.35000000000000003   -0.009401349401621593
-0.006183213930119057   -0.3257381849817414   -0.009481134422730299
0.008706278480821778   -0.3242484353125334   -0.009282931017356812
-0.012877594319711902   -0.35000000000000003   -0.009401349401621593
0.006762164464171372   -0.3243622000121069   -0.010683727050321912
-0.006183213930119057   -0.3257381849817414   -0.009481134422730299
-0.012877594319711902   -0.35000000000000003   -0.009401349401621593
-0.018533461496949843   -0.35000000000000003   -0.009568313415182427
-0.020015033111282034   -0.35000000000000003   -0.010943246363955545
-0.006183213930119057   -0.3257381849817414   -0.009481134422730299
-0.012877594319711902   -0.35000000000000003   -0.009401349401621593
-0.020015033111282034   -0.35000000000000003   -0.010943246363955545
0.006762164464171372   -0.3243622000121069   -0.010683727050321912
-0.006183213930119057   -0.3257381849817414   -0.009481134422730299
-0.018533461496949843   -0.35000000000000003   -0.009568313415182427
0.008706278480821778   -0.3242484353125334   -0.009282931017356812
-0.005376042156793364   -0.3259476442321478   -0.00869595174453187
-0.018533461496949843   -0.35000000000000003   -0.009568313415182427
-0.012877594319711902   -0.35000000000000003   -0.009401349401621593
0.008706278480821778   -0.3242484353125334   -0.009282931017356812
-0.009848484057629947   -0.35000000000000003   -0.007451873514576587
-0.005376042156793364   -0.3259476442321478   -0.00869595174453187
0.010723596194938597   -0.32434023328798856   -0.008004826233015948
-0.009848484057629947   -0.35000000000000003   -0.007451873514576587
0.008706278480821778   -0.3242484353125334   -0.009282931017356812
-0.005376042156793364   -0.3259476442321478   -0.00869595174453187
-0.009848484057629947   -0.35000000000000003   -0.007451873514576587
-0.017083324259384837   -0.35000000000000003   -0.008211429626005566
-0.018533461496949843   -0.35000000000000003   -0.009568313415182427
-0.005376042156793364   -0.3259476442321478   -0.00869595174453187
-0.009848484057629947   -0.35000000000000003   -0.007451873514576587
-0.018533461496949843   -0.35000000000000003   -0.009568313415182427
0.008706278480821778   -0.3242484353125334   -0.009282931017356812
-0.04140801931153011   -0.34170331647418695   -0.008531579564580513
-0.024585509315348045   -0.3425204675981842   -0.007299989079270617
-0.0348834344590512   -0.3434415613251064   -0.00957949440272976
-0.03948412944377321   -0.34131394856696967   -0.00961974450489753
-0.024585509315348045   -0.3425204675981842   -0.007299989079270617
-0.026145217581237102   -0.3438552447902104   -0.00864893545975979
-0.0348834344590512   -0.3434415613251064   -0.00957949440272976
-0.02546029586982961   -0.3433834208575729   -0.009137399135553925
-0.03948412944377321   -0.34131394856696967   -0.00961974450489753
-0.03397661506088835   -0.3430956605282794   -0.009936297951775605
-0.02546029586982961   -0.3433834208575729   -0.009137399135553925
-0.0348834344590512   -0.3434415613251064   -0.00957949440272976
-0.03948412944377321   -0.34131394856696967   -0.00961974450489753
-0.02546029586982961   -0.3433834208575729   -0.009137399135553925
-0.022844403298788347   -0.34191500777209877   -0.00844294752669715
-0.024585509315348045   -0.3425204675981842   -0.007299989079270617
-0.03948412944377321   -0.34131394856696967   -0.00961974450489753
-0.02546029586982961   -0.3433834208575729   -0.009137399135553925
-0.024585509315348045   -0.3425204675981842   -0.007299989079270617
-0.0348834344590512   -0.3434415613251064   -0.00957949440272976
-0.03948412944377321   -0.34131394856696967   -0.00961974450489753
-0.022844403298788347   -0.34191500777209877   -0.00844294752669715
-0.03397661506088835   -0.3430956605282794   -0.009936297951775605
-0.037823899437666855   -0.3413436316580988   -0.010703433975766773
-0.022844403298788347   -0.34191500777209877   -0.00844294752669715
-0.02546029586982961   -0.3433834208575729   -0.009137399135553925
-0.03397661506088835   -0.3430956605282794   -0.009936297951775605
-0.02465769439936026   -0.3432059691561815   -0.009587525780518764
-0.037823899437666855   -0.3413436316580988   -0.010703433975766773
-0.03297347263619767   -0.3431095261375534   -0.01029666152385124
-0.02465769439936026   -0.3432059691561815   -0.009587525780518764
-0.03397661506088835   -0.3430956605282794   -0.009936297951775605
-0.037823899437666855   -0.3413436316580988   -0.010703433975766773
-0.02465769439936026   -0.3432059691561815   -0.009587525780518764
-0.02139482609548575   -0.3417249082628301   -0.009538302448399935
-0.022844403298788347   -0.34191500777209877   -0.00844294752669715
-0.037823899437666855   -0.3413436316580988   -0.010703433975766773
-0.02465769439936026   -0.3432059691561815   -0.009587525780518764
-0.022844403298788347   -0.34191500777209877   -0.00844294752669715
-0.03397661506088835   -0.3430956605282794   -0.009936297951775605
-0.037823899437666855   -0.3413436316580988   -0.010703433975766773
-0.02139482609548575   -0.3417249082628301   -0.009538302448399935
-0.03297347263619767   -0.3431095261375534   -0.01029666152385124
-0.035855594180979396   -0.34181608071379976   -0.011810556169769813
-0.02139482609548575   -0.3417249082628301   -0.009538302448399935
-0.02465769439936026   -0.3432059691561815   -0.009587525780518764
-0.03297347263619767   -0.3431095261375534   -0.01029666152385124
-0.023969694102704622   -0.34332530578242776   -0.00999690468990999
-0.035855594180979396   -0.34181608071379976   -0.011810556169769813
-0.03204091124805066   -0.34348467790057774   -0.010662101545189373
-0.023969694102704622   -0.34332530578242776   -0.00999690468990999
-0.03297347263619767   -0.3431095261375534   -0.01029666152385124
-0.035855594180979396   -0.34181608071379976   -0.011810556169769813
-0.023969694102704622   -0.34332530578242776   -0.00999690468990999
-0.01975650842493727   -0.3418739545315867   -0.01058107086520089
-0.02139482609548575   -0.3417249082628301   -0.009538302448399935
-0.035855594180979396   -0.34181608071379976   -0.011810556169769813
-0.023969694102704622   -0.34332530578242776   -0.00999690468990999
-0.02139482609548575   -0.3417249082628301   -0.009538302448399935
-0.03297347263619767   -0.3431095261375534   -0.01029666152385124
-0.0348834344590512   -0.3434415613251064   -0.00957949440272976
-0.026145217581237102   -0.3438552447902104   -0.00864893545975979
-0.030117757910624553   -0.3451977389140104   -0.010506457020431615
-0.03397661506088835   -0.3430956605282794   -0.009936297951775605
-0.026145217581237102   -0.3438552447902104   -0.00864893545975979
-0.028227872375284027   -0.3446859290511702   -0.009728312055009142
-0.030117757910624553   -0.3451977389140104   -0.010506457020431615
-0.027621199955897943   -0.3442648517476727   -0.009741878445116354
-0.03397661506088835   -0.3430956605282794   -0.009936297951775605
-0.02915985631303502   -0.34484345155135654   -0.010253102129103372
-0.027621199955897943   -0.3442648517476727   -0.009741878445116354
-0.030117757910624553   -0.3451977389140104   -0.010506457020431615
-0.03397661506088835   -0.3430956605282794   -0.009936297951775605
-0.027621199955897943   -0.3442648517476727   -0.009741878445116354
-0.02546029586982961   -0.3433834208575729   -0.009137399135553925
-0.026145217581237102   -0.3438552447902104   -0.00864893545975979
-0.03397661506088835   -0.3430956605282794   -0.009936297951775605
-0.027621199955897943   -0.3442648517476727   -0.009741878445116354
-0.026145217581237102   -0.3438552447902104   -0.00864893545975979
-0.030117757910624553   -0.3451977389140104   -0.010506457020431615
-0.03397661506088835   -0.3430956605282794   -0.009936297951775605
-0.02546029586982961   -0.3433834208575729   -0.009137399135553925
-0.02915985631303502   -0.34484345155135654   -0.010253102129103372
-0.03297347263619767   -0.3431095261375534   -0.01029666152385124
-0.02546029586982961   -0.3433834208575729   -0.009137399135553925
-0.027621199955897943   -0.3442648517476727   -0.009741878445116354
-0.02915985631303502   -0.34484345155135654   -0.010253102129103372
-0.026945732164209715   -0.34411043087541876   -0.009705734601854433
-0.03297347263619767   -0.3431095261375534   -0.01029666152385124
-0.028234237658403667   -0.3448346952664458   -0.009996515993298953
-0.026945732164209715   -0.34411043087541876   -0.009705734601854433
-0.02915985631303502   -0.34484345155135654   -0.010253102129103372
-0.03297347263619767   -0.3431095261375534   -0.01029666152385124
-0.026945732164209715   -0.34411043087541876   -0.009705734601854433
-0.02465769439936026   -0.3432059691561815   -0.009587525780518764
-0.02546029586982961   -0.3433834208575729   -0.009137399135553925
-0.03297347263619767   -0.3431095261375534   -0.01029666152385124
-0.026945732164209715   -0.34411043087541876   -0.009705734601854433
-0.02546029586982961   -0.3433834208575729   -0.009137399135553925
-0.02915985631303502   -0.34484345155135654   -0.010253102129103372
-0.03297347263619767   -0.3431095261375534   -0.01029666152385124
-0.02465769439936026   -0.3432059691561815   -0.009587525780518764
-0.028234237658403667   -0.3448346952664458   -0.009996515993298953
-0.03204091124805066   -0.34348467790057774   -0.010662101545189373
-0.02465769439936026   -0.3432059691561815   -0.009587525780518764
-0.026945732164209715   -0.34411043087541876   -0.009705734601854433
-0.028234237658403667   -0.3448346952664458   -0.009996515993298953
-0.026258724636619185   -0.34421020180756484   -0.009630596201378152
-0.03204091124805066   -0.34348467790057774   -0.010662101545189373
-0.02726883181017382   -0.34516410826182714   -0.009749865855303004
-0.026258724636619185   -0.34421020180756484   -0.009630596201378152
-0.028234237658403667   -0.3448346952664458   -0.009996515993298953
-0.03204091124805066   -0.34348467790057774   -0.010662101545189373
-0.026258724636619185   -0.34421020180756484   -0.009630596201378152
-0.023969694102704622   -0.34332530578242776   -0.00999690468990999
-0.02465769439936026   -0.3432059691561815   -0.009587525780518764
-0.03204091124805066   -0.34348467790057774   -0.010662101545189373
-0.026258724636619185   -0.34421020180756484   -0.009630596201378152
-0.02465769439936026   -0.3432059691561815   -0.009587525780518764
-0.028234237658403667   -0.3448346952664458   -0.009996515993298953
-0.030117757910624553   -0.3451977389140104   -0.010506457020431615
-0.028227872375284027   -0.3446859290511702   -0.009728312055009142
-0.025770001945074197   -0.3473293855779638   -0.011525574539309915
-0.02915985631303502   -0.34484345155135654   -0.010253102129103372
-0.028227872375284027   -0.3446859290511702   -0.009728312055009142
-0.0304567545976552   -0.3450435091551547   -0.010789788035831966
-0.025770001945074197   -0.3473293855779638   -0.011525574539309915
-0.029828339240085454   -0.34464269974701167   -0.010346785012798872
-0.02915985631303502   -0.34484345155135654   -0.010253102129103372
-0.02459497244570462   -0.3470232059764524   -0.01062758563909422
-0.029828339240085454   -0.34464269974701167   -0.010346785012798872
-0.025770001945074197   -0.3473293855779638   -0.011525574539309915
-0.02915985631303502   -0.34484345155135654   -0.010253102129103372
-0.029828339240085454   -0.34464269974701167   -0.010346785012798872
-0.027621199955897943   -0.3442648517476727   -0.009741878445116354
-0.028227872375284027   -0.3446859290511702   -0.009728312055009142
-0.02915985631303502   -0.34484345155135654   -0.010253102129103372
-0.029828339240085454   -0.34464269974701167   -0.010346785012798872
-0.028227872375284027   -0.3446859290511702   -0.009728312055009142
-0.025770001945074197   -0.3473293855779638   -0.011525574539309915
-0.02915985631303502   -0.34484345155135654   -0.010253102129103372
-0.027621199955897943   -0.3442648517476727   -0.009741878445116354
-0.02459497244570462   -0.3470232059764524   -0.01062758563909422
-0.028234237658403667   -0.3448346952664458   -0.009996515993298953
-0.027621199955897943   -0.3442648517476727   -0.009741878445116354
-0.029828339240085454   -0.34464269974701167   -0.010346785012798872
-0.02459497244570462   -0.3470232059764524   -0.01062758563909422
-0.029073975157360293   -0.3445129776428396   -0.009843259752564403
-0.028234237658403667   -0.3448346952664458   -0.009996515993298953
-0.0235070348963764   -0.34700541749474906   -0.009733128247769557
-0.029073975157360293   -0.3445129776428396   -0.009843259752564403
-0.02459497244570462   -0.3470232059764524   -0.01062758563909422
-0.028234237658403667   -0.3448346952664458   -0.009996515993298953
-0.029073975157360293   -0.3445129776428396   -0.009843259752564403
-0.026945732164209715   -0.34411043087541876   -0.009705734601854433
-0.027621199955897943   -0.3442648517476727   -0.009741878445116354
-0.028234237658403667   -0.3448346952664458   -0.009996515993298953
-0.029073975157360293   -0.3445129776428396   -0.009843259752564403
-0.027621199955897943   -0.3442648517476727   -0.009741878445116354
-0.02459497244570462   -0.3470232059764524   -0.01062758563909422
-0.028234237658403667   -0.3448346952664458   -0.009996515993298953
-0.026945732164209715   -0.34411043087541876   -0.009705734601854433
-0.0235070348963764   -0.34700541749474906   -0.009733128247769557
-0.02726883181017382   -0.34516410826182714   -0.009749865855303004
-0.026945732164209715   -0.34411043087541876   -0.009705734601854433
-0.029073975157360293   -0.3445129776428396   -0.009843259752564403
-0.0235070348963764   -0.34700541749474906   -0.009733128247769557
-0.028297830870717872   -0.3446110428519691   -0.009306585008832725
-0.02726883181017382   -0.34516410826182714   -0.009749865855303004
-0.02233794278647644   -0.3472600781670027   -0.008835833763116387
-0.028297830870717872   -0.3446110428519691   -0.009306585008832725
-0.0235070348963764   -0.34700541749474906   -0.009733128247769557
-0.02726883181017382   -0.34516410826182714   -0.009749865855303004
-0.028297830870717872   -0.3446110428519691   -0.009306585008832725
-0.026258724636619185   -0.34421020180756484   -0.009630596201378152
-0.026945732164209715   -0.34411043087541876   -0.009705734601854433
-0.02726883181017382   -0.34516410826182714   -0.009749865855303004
-0.028297830870717872   -0.3446110428519691   -0.009306585008832725
-0.026945732164209715   -0.34411043087541876   -0.009705734601854433
-0.0235070348963764   -0.34700541749474906   -0.009733128247769557
-0.025770001945074197   -0.3473293855779638   -0.011525574539309915
-0.0304567545976552   -0.3450435091551547   -0.010789788035831966
-0.021491076618185754   -0.35000000000000003   -0.012302014867109537
-0.02459497244570462   -0.3470232059764524   -0.01062758563909422
-0.0304567545976552   -0.3450435091551547   -0.010789788035831966
-0.033682319298814295   -0.3446826245501877   -0.011795989048542753
-0.021491076618185754   -0.35000000000000003   -0.012302014867109537
-0.03286119842479778   -0.3443055102772419   -0.010918825385108574
-0.02459497244570462   -0.3470232059764524   -0.01062758563909422
-0.020015033111282034   -0.35000000000000003   -0.010943246363955545
-0.03286119842479778   -0.3443055102772419   -0.010918825385108574
-0.021491076618185754   -0.35000000000000003   -0.012302014867109537
-0.02459497244570462   -0.3470232059764524   -0.01062758563909422
-0.03286119842479778   -0.3443055102772419   -0.010918825385108574
-0.029828339240085454   -0.34464269974701167   -0.010346785012798872
-0.0304567545976552   -0.3450435091551547   -0.010789788035831966
-0.02459497244570462   -0.3470232059764524   -0.01062758563909422
-0.03286119842479778   -0.3443055102772419   -0.010918825385108574
-0.0304567545976552   -0.3450435091551547   -0.010789788035831966
-0.021491076618185754   -0.35000000000000003   -0.012302014867109537
-0.02459497244570462   -0.3470232059764524   -0.01062758563909422
-0.029828339240085454   -0.34464269974701167   -0.010346785012798872
-0.020015033111282034   -0.35000000000000003   -0.010943246363955545
-0.0235070348963764   -0.34700541749474906   -0.009733128247769557
-0.029828339240085454   -0.34464269974701167   -0.010346785012798872
-0.03286119842479778   -0.3443055102772419   -0.010918825385108574
-0.020015033111282034   -0.35000000000000003   -0.010943246363955545
-0.031779194544720515   -0.34421797569553364   -0.009974486335482806
-0.0235070348963764   -0.34700541749474906   -0.009733128247769557
-0.018533461496949843   -0.35000000000000003   -0.009568313415182427
-0.031779194544720515   -0.34421797569553364   -0.009974486335482806
-0.020015033111282034   -0.35000000000000003   -0.010943246363955545
-0.0235070348963764   -0.34700541749474906   -0.009733128247769557
-0.031779194544720515   -0.34421797569553364   -0.009974486335482806
-0.029073975157360293   -0.3445129776428396   -0.009843259752564403
-0.029828339240085454   -0.34464269974701167   -0.010346785012798872
-0.0235070348963764   -0.34700541749474906   -0.009733128247769557
-0.031779194544720515   -0.34421797569553364   -0.009974486335482806
-0.029828339240085454   -0.34464269974701167   -0.010346785012798872
-0.020015033111282034   -0.35000000000000003   -0.010943246363955545
-0.0235070348963764   -0.34700541749474906   -0.009733128247769557
-0.029073975157360293   -0.3445129776428396   -0.009843259752564403
-0.018533461496949843   -0.35000000000000003   -0.009568313415182427
-0.02233794278647644   -0.3472600781670027   -0.008835833763116387
-0.029073975157360293   -0.3445129776428396   -0.009843259752564403
-0.031779194544720515   -0.34421797569553364   -0.009974486335482806
-0.018533461496949843   -0.35000000000000003   -0.009568313415182427
-0.03075912894112736   -0.34436361288854955   -0.00899319682198548
-0.02233794278647644   -0.3472600781670027   -0.008835833763116387
-0.017083324259384837   -0.35000000000000003   -0.008211429626005566
-0.03075912894112736   -0.34436361288854955   -0.00899319682198548
-0.018533461496949843   -0.35000000000000003   -0.009568313415182427
-0.02233794278647644   -0.3472600781670027   -0.008835833763116387
-0.03075912894112736   -0.34436361288854955   -0.00899319682198548
-0.028297830870717872   -0.3446110428519691   -0.009306585008832725
-0.029073975157360293   -0.3445129776428396   -0.009843259752564403
-0.02233794278647644   -0.3472600781670027   -0.008835833763116387
-0.03075912894112736   -0.34436361288854955   -0.00899319682198548
-0.029073975157360293   -0.3445129776428396   -0.009843259752564403
-0.018533461496949843   -0.35000000000000003   -0.009568313415182427
-0.021491076618185754   -0.35000000000000003   -0.012302014867109537
-0.033682319298814295   -0.3446826245501877   -0.011795989048542753
-0.01840347682575337   -0.35000000000000003   -0.013242408238613244
-0.020015033111282034   -0.35000000000000003   -0.010943246363955545
-0.033682319298814295   -0.3446826245501877   -0.011795989048542753
-0.03992088391892921   -0.3429929765556362   -0.012858506916771336
-0.01840347682575337   -0.35000000000000003   -0.013242408238613244
-0.037753584187881106   -0.3426773417128114   -0.011419086708266397
-0.020015033111282034   -0.35000000000000003   -0.010943246363955545
-0.015329314942574458   -0.35000000000000003   -0.011279382071414948
-0.037753584187881106   -0.3426773417128114   -0.011419086708266397
-0.01840347682575337   -0.35000000000000003   -0.013242408238613244
-0.020015033111282034   -0.35000000000000003   -0.010943246363955545
-0.037753584187881106   -0.3426773417128114   -0.011419086708266397
-0.03286119842479778   -0.3443055102772419   -0.010918825385108574
-0.033682319298814295   -0.3446826245501877   -0.011795989048542753
-0.020015033111282034   -0.35000000000000003   -0.010943246363955545
-0.037753584187881106   -0.3426773417128114   -0.011419086708266397
-0.033682319298814295   -0.3446826245501877   -0.011795989048542753
-0.01840347682575337   -0.35000000000000003   -0.013242408238613244
-0.020015033111282034   -0.35000000000000003   -0.010943246363955545
-0.03286119842479778   -0.3443055102772419   -0.010918825385108574
-0.015329314942574458   -0.35000000000000003   -0.011279382071414948
-0.018533461496949843   -0.35000000000000003   -0.009568313415182427
-0.03286119842479778   -0.3443055102772419   -0.010918825385108574
-0.037753584187881106   -0.3426773417128114   -0.011419086708266397
-0.015329314942574458   -0.35000000000000003   -0.011279382071414948
-0.03575903765367759   -0.34263253130062277   -0.00988119658143912
-0.018533461496949843   -0.35000000000000003   -0.009568313415182427
-0.012877594319711902   -0.35000000000000003   -0.009401349401621593
-0.03575903765367759   -0.34263253130062277   -0.00988119658143912
-0.015329314942574458   -0.35000000000000003   -0.011279382071414948
-0.018533461496949843   -0.35000000000000003   -0.009568313415182427
-0.03575903765367759   -0.34263253130062277   -0.00988119658143912
-0.031779194544720515   -0.34421797569553364   -0.009974486335482806
-0.03286119842479778   -0.3443055102772419   -0.010918825385108574
-0.018533461496949843   -0.35000000000000003   -0.009568313415182427
-0.03575903765367759   -0.34263253130062277   -0.00988119658143912
-0.03286119842479778   -0.3443055102772419   -0.010918825385108574
-0.015329314942574458   -0.35000000000000003   -0.011279382071414948
-0.018533461496949843   -0.35000000000000003   -0.009568313415182427
-0.031779194544720515   -0.34421797569553364   -0.009974486335482806
-0.012877594319711902   -0.35000000000000003   -0.009401349401621593
-0.017083324259384837   -0.35000000000000003   -0.008211429626005566
-0.031779194544720515   -0.34421797569553364   -0.009974486335482806
-0.03575903765367759   -0.34263253130062277   -0.00988119658143912
-0.012877594319711902   -0.35000000000000003   -0.009401349401621593
-0.03324073973849357   -0.34304737031691207   -0.008271531889970861
-0.017083324259384837   -0.35000000000000003   -0.008211429626005566
-0.009848484057629947   -0.35000000000000003   -0.007451873514576587
-0.03324073973849357   -0.34304737031691207   -0.008271531889970861
-0.012877594319711902   -0.35000000000000003   -0.009401349401621593
-0.017083324259384837   -0.35000000000000003   -0.008211429626005566
-0.03324073973849357   -0.34304737031691207   -0.008271531889970861
-0.03075912894112736   -0.34436361288854955   -0.00899319682198548
-0.031779194544720515   -0.34421797569553364   -0.009974486335482806
-0.017083324259384837   -0.35000000000000003   -0.008211429626005566
-0.03324073973849357   -0.34304737031691207   -0.008271531889970861
-0.031779194544720515   -0.34421797569553364   -0.009974486335482806
-0.012877594319711902   -0.35000000000000003   -0.009401349401621593
-0.024585509315348045   -0.3425204675981842   -0.007299989079270617
-0.00982321996703192   -0.32941054443682266   -0.006313827531977475
-0.026145217581237102   -0.3438552447902104   -0.00864893545975979
-0.022844403298788347   -0.34191500777209877   -0.00844294752669715
-0.00982321996703192   -0.32941054443682266   -0.006313827531977475
-0.018671966159336938   -0.3304133959582462   -0.007745581072080451
-0.026145217581237102   -0.3438552447902104   -0.00864893545975979
-0.018186247197923795   -0.3298427434119436   -0.0081801467769448
-0.022844403298788347   -0.34191500777209877   -0.00844294752669715
-0.02546029586982961   -0.3433834208575729   -0.009137399135553925
-0.018186247197923795   -0.3298427434119436   -0.0081801467769448
-0.026145217581237102   -0.3438552447902104   -0.00864893545975979
-0.022844403298788347   -0.34191500777209877   -0.00844294752669715
-0.018186247197923795   -0.3298427434119436   -0.0081801467769448
-0.008438631596587606   -0.32870509909583895   -0.007299065789970258
-0.00982321996703192   -0.32941054443682266   -0.006313827531977475
-0.022844403298788347   -0.34191500777209877   -0.00844294752669715
-0.018186247197923795   -0.3298427434119436   -0.0081801467769448
-0.00982321996703192   -0.32941054443682266   -0.006313827531977475
-0.026145217581237102   -0.3438552447902104   -0.00864893545975979
-0.022844403298788347   -0.34191500777209877   -0.00844294752669715
-0.008438631596587606   -0.32870509909583895   -0.007299065789970258
-0.02546029586982961   -0.3433834208575729   -0.009137399135553925
-0.02139482609548575   -0.3417249082628301   -0.009538302448399935
-0.008438631596587606   -0.32870509909583895   -0.007299065789970258
-0.018186247197923795   -0.3298427434119436   -0.0081801467769448
-0.02546029586982961   -0.3433834208575729   -0.009137399135553925
-0.01764036929783727   -0.32952310018131786   -0.008575023936895892
-0.02139482609548575   -0.3417249082628301   -0.009538302448399935
-0.02465769439936026   -0.3432059691561815   -0.009587525780518764
-0.01764036929783727   -0.32952310018131786   -0.008575023936895892
-0.02546029586982961   -0.3433834208575729   -0.009137399135553925
-0.02139482609548575   -0.3417249082628301   -0.009538302448399935
-0.01764036929783727   -0.32952310018131786   -0.008575023936895892
-0.007349218211818104   -0.32836517139483007   -0.008225444363580262
-0.008438631596587606   -0.32870509909583895   -0.007299065789970258
-0.02139482609548575   -0.3417249082628301   -0.009538302448399935
-0.01764036929783727   -0.32952310018131786   -0.008575023936895892
-0.008438631596587606   -0.32870509909583895   -0.007299065789970258
-0.02546029586982961   -0.3433834208575729   -0.009137399135553925
-0.02139482609548575   -0.3417249082628301   -0.009538302448399935
-0.007349218211818104   -0.32836517139483007   -0.008225444363580262
-0.02465769439936026   -0.3432059691561815   -0.009587525780518764
-0.01975650842493727   -0.3418739545315867   -0.01058107086520089
-0.007349218211818104   -0.32836517139483007   -0.008225444363580262
-0.01764036929783727   -0.32952310018131786   -0.008575023936895892
-0.02465769439936026   -0.3432059691561815   -0.009587525780518764
-0.017221567183523315   -0.32944558058405543   -0.008931448294057452
-0.01975650842493727   -0.3418739545315867   -0.01058107086520089
-0.023969694102704622   -0.34332530578242776   -0.00999690468990999
-0.017221567183523315   -0.32944558058405543   -0.008931448294057452
-0.02465769439936026   -0.3432059691561815   -0.009587525780518764
-0.01975650842493727   -0.3418739545315867   -0.01058107086520089
-0.017221567183523315   -0.32944558058405543   -0.008931448294057452
-0.0061616236375547   -0.3282938702361778   -0.009090434221639689
-0.007349218211818104   -0.32836517139483007   -0.008225444363580262
-0.01975650842493727   -0.3418739545315867   -0.01058107086520089
-0.017221567183523315   -0.32944558058405543   -0.008931448294057452
-0.007349218211818104   -0.32836517139483007   -0.008225444363580262
-0.02465769439936026   -0.3432059691561815   -0.009587525780518764
-0.026145217581237102   -0.3438552447902104   -0.00864893545975979
-0.018671966159336938   -0.3304133959582462   -0.007745581072080451
-0.028227872375284027   -0.3446859290511702   -0.009728312055009142
-0.02546029586982961   -0.3433834208575729   -0.009137399135553925
-0.018671966159336938   -0.3304133959582462   -0.007745581072080451
-0.027391372877804385   -0.3307685840584803   -0.008914929407078135
-0.028227872375284027   -0.3446859290511702   -0.009728312055009142
-0.02698238412214725   -0.3302706061180256   -0.008939711617534393
-0.02546029586982961   -0.3433834208575729   -0.009137399135553925
-0.027621199955897943   -0.3442648517476727   -0.009741878445116354
-0.02698238412214725   -0.3302706061180256   -0.008939711617534393
-0.028227872375284027   -0.3446859290511702   -0.009728312055009142
-0.02546029586982961   -0.3433834208575729   -0.009137399135553925
-0.02698238412214725   -0.3302706061180256   -0.008939711617534393
-0.018186247197923795   -0.3298427434119436   -0.0081801467769448
-0.018671966159336938   -0.3304133959582462   -0.007745581072080451
-0.02546029586982961   -0.3433834208575729   -0.009137399135553925
-0.02698238412214725   -0.3302706061180256   -0.008939711617534393
-0.018671966159336938   -0.3304133959582462   -0.007745581072080451
-0.028227872375284027   -0.3446859290511702   -0.009728312055009142
-0.02546029586982961   -0.3433834208575729   -0.009137399135553925
-0.018186247197923795   -0.3298427434119436   -0.0081801467769448
-0.027621199955897943   -0.3442648517476727   -0.009741878445116354
-0.02465769439936026   -0.3432059691561815   -0.009587525780518764
-0.018186247197923795   -0.3298427434119436   -0.0081801467769448
-0.02698238412214725   -0.3302706061180256   -0.008939711617534393
-0.027621199955897943   -0.3442648517476727   -0.009741878445116354
-0.026559482477003665   -0.3299989493298183   -0.008927751573736308
-0.02465769439936026   -0.3432059691561815   -0.009587525780518764
-0.026945732164209715   -0.34411043087541876   -0.009705734601854433
-0.026559482477003665   -0.3299989493298183   -0.008927751573736308
-0.027621199955897943   -0.3442648517476727   -0.009741878445116354
-0.02465769439936026   -0.3432059691561815   -0.009587525780518764
-0.026559482477003665   -0.3299989493298183   -0.008927751573736308
-0.01764036929783727   -0.32952310018131786   -0.008575023936895892
-0.018186247197923795   -0.3298427434119436   -0.0081801467769448
-0.02465769439936026   -0.3432059691561815   -0.009587525780518764
-0.026559482477003665   -0.3299989493298183   -0.008927751573736308
-0.018186247197923795   -0.3298427434119436   -0.0081801467769448
-0.027621199955897943   -0.3442648517476727   -0.009741878445116354
-0.02465769439936026   -0.3432059691561815   -0.009587525780518764
-0.01764036929783727   -0.32952310018131786   -0.008575023936895892
-0.026945732164209715   -0.34411043087541876   -0.009705734601854433
-0.023969694102704622   -0.34332530578242776   -0.00999690468990999
-0.01764036929783727   -0.32952310018131786   -0.008575023936895892
-0.026559482477003665   -0.3299989493298183   -0.008927751573736308
-0.026945732164209715   -0.34411043087541876   -0.009705734601854433
-0.026151506072670406   -0.3299424694215246   -0.008878640934465689
-0.023969694102704622   -0.34332530578242776   -0.00999690468990999
-0.026258724636619185   -0.34421020180756484   -0.009630596201378152
-0.026151506072670406   -0.3299424694215246   -0.008878640934465689
-0.026945732164209715   -0.34411043087541876   -0.009705734601854433
-0.023969694102704622   -0.34332530578242776   -0.00999690468990999
-0.026151506072670406   -0.3299424694215246   -0.008878640934465689
-0.017221567183523315   -0.32944558058405543   -0.008931448294057452
-0.01764036929783727   -0.32952310018131786   -0.008575023936895892
-0.023969694102704622   -0.34332530578242776   -0.00999690468990999
-0.026151506072670406   -0.3299424694215246   -0.008878640934465689
-0.01764036929783727   -0.32952310018131786   -0.008575023936895892
-0.026945732164209715   -0.34411043087541876   -0.009705734601854433
-0.028227872375284027   -0.3446859290511702   -0.009728312055009142
-0.027391372877804385   -0.3307685840584803   -0.008914929407078135
-0.0304567545976552   -0.3450435091551547   -0.010789788035831966
-0.027621199955897943   -0.3442648517476727   -0.009741878445116354
-0.027391372877804385   -0.3307685840584803   -0.008914929407078135
-0.03604816041075397   -0.33045581084158393   -0.010008941981861653
-0.0304567545976552   -0.3450435091551547   -0.010789788035831966
-0.03564239670431167   -0.3300138850518548   -0.009640938374577352
-0.027621199955897943   -0.3442648517476727   -0.009741878445116354
-0.029828339240085454   -0.34464269974701167   -0.010346785012798872
-0.03564239670431167   -0.3300138850518548   -0.009640938374577352
-0.0304567545976552   -0.3450435091551547   -0.010789788035831966
-0.027621199955897943   -0.3442648517476727   -0.009741878445116354
-0.03564239670431167   -0.3300138850518548   -0.009640938374577352
-0.02698238412214725   -0.3302706061180256   -0.008939711617534393
-0.027391372877804385   -0.3307685840584803   -0.008914929407078135
-0.027621199955897943   -0.3442648517476727   -0.009741878445116354
-0.03564239670431167   -0.3300138850518548   -0.009640938374577352
-0.027391372877804385   -0.3307685840584803   -0.008914929407078135
-0.0304567545976552   -0.3450435091551547   -0.010789788035831966
-0.027621199955897943   -0.3442648517476727   -0.009741878445116354
-0.02698238412214725   -0.3302706061180256   -0.008939711617534393
-0.029828339240085454   -0.34464269974701167   -0.010346785012798872
-0.026945732164209715   -0.34411043087541876   -0.009705734601854433
-0.02698238412214725   -0.3302706061180256   -0.008939711617534393
-0.03564239670431167   -0.3300138850518548   -0.009640938374577352
-0.029828339240085454   -0.34464269974701167   -0.010346785012798872
-0.03518701667003685   -0.32979440988946124   -0.009236707604557704
-0.026945732164209715   -0.34411043087541876   -0.009705734601854433
-0.029073975157360293   -0.3445129776428396   -0.009843259752564403
-0.03518701667003685   -0.32979440988946124   -0.009236707604557704
-0.029828339240085454   -0.34464269974701167   -0.010346785012798872
-0.026945732164209715   -0.34411043087541876   -0.009705734601854433
-0.03518701667003685   -0.32979440988946124   -0.009236707604557704
-0.026559482477003665   -0.3299989493298183   -0.008927751573736308
-0.02698238412214725   -0.3302706061180256   -0.008939711617534393
-0.026945732164209715   -0.34411043087541876   -0.009705734601854433
-0.03518701667003685   -0.32979440988946124   -0.009236707604557704
-0.02698238412214725   -0.3302706061180256   -0.008939711617534393
-0.029828339240085454   -0.34464269974701167   -0.010346785012798872
-0.026945732164209715   -0.34411043087541876   -0.009705734601854433
-0.026559482477003665   -0.3299989493298183   -0.008927751573736308
-0.029073975157360293   -0.3445129776428396   -0.009843259752564403
-0.026258724636619185   -0.34421020180756484   -0.009630596201378152
-0.026559482477003665   -0.3299989493298183   -0.008927751573736308
-0.03518701667003685   -0.32979440988946124   -0.009236707604557704
-0.029073975157360293   -0.3445129776428396   -0.009843259752564403
-0.03472943064205458   -0.32977562242340513   -0.008791830616158824
-0.026258724636619185   -0.34421020180756484   -0.009630596201378152
-0.028297830870717872   -0.3446110428519691   -0.009306585008832725
-0.03472943064205458   -0.32977562242340513   -0.008791830616158824
-0.029073975157360293   -0.3445129776428396   -0.009843259752564403
-0.026258724636619185   -0.34421020180756484   -0.009630596201378152
-0.03472943064205458   -0.32977562242340513   -0.008791830616158824
-0.026151506072670406   -0.3299424694215246   -0.008878640934465689
-0.026559482477003665   -0.3299989493298183   -0.008927751573736308
-0.026258724636619185   -0.34421020180756484   -0.009630596201378152
-0.03472943064205458   -0.32977562242340513   -0.008791830616158824
-0.026559482477003665   -0.3299989493298183   -0.008927751573736308
-0.029073975157360293   -0.3445129776428396   -0.009843259752564403
-0.0304567545976552   -0.3450435091551547   -0.010789788035831966
-0.03604816041075397   -0.33045581084158393   -0.010008941981861653
-0.033682319298814295   -0.3446826245501877   -0.011795989048542753
-0.029828339240085454   -0.34464269974701167   -0.010346785012798872
-0.03604816041075397   -0.33045581084158393   -0.010008941981861653
-0.04556535838596277   -0.3294331177826934   -0.011012579104441748
-0.033682319298814295   -0.3446826245501877   -0.011795989048542753
-0.045069543593734614   -0.32904762327649917   -0.010260879927092514
-0.029828339240085454   -0.34464269974701167   -0.010346785012798872
-0.03286119842479778   -0.3443055102772419   -0.010918825385108574
-0.045069543593734614   -0.32904762327649917   -0.010260879927092514
-0.033682319298814295   -0.3446826245501877   -0.011795989048542753
-0.029828339240085454   -0.34464269974701167   -0.010346785012798872
-0.045069543593734614   -0.32904762327649917   -0.010260879927092514
-0.03564239670431167   -0.3300138850518548   -0.009640938374577352
-0.03604816041075397   -0.33045581084158393   -0.010008941981861653
-0.029828339240085454   -0.34464269974701167   -0.010346785012798872
-0.045069543593734614   -0.32904762327649917   -0.010260879927092514
-0.03604816041075397   -0.33045581084158393   -0.010008941981861653
-0.033682319298814295   -0.3446826245501877   -0.011795989048542753
-0.029828339240085454   -0.34464269974701167   -0.010346785012798872
-0.03564239670431167   -0.3300138850518548   -0.009640938374577352
-0.03286119842479778   -0.3443055102772419   -0.010918825385108574
-0.029073975157360293   -0.3445129776428396   -0.009843259752564403
-0.03564239670431167   -0.3300138850518548   -0.009640938374577352
-0.045069543593734614   -0.32904762327649917   -0.010260879927092514
-0.03286119842479778   -0.3443055102772419   -0.010918825385108574
-0.04438585055412266   -0.32888011956742885   -0.009475522415799038
-0.029073975157360293   -0.3445129776428396   -0.009843259752564403
-0.031779194544720515   -0.34421797569553364   -0.009974486335482806
-0.04438585055412266   -0.32888011956742885   -0.009475522415799038
-0.03286119842479778   -0.3443055102772419   -0.010918825385108574
-0.029073975157360293   -0.3445129776428396   -0.009843259752564403
-0.04438585055412266   -0.32888011956742885   -0.009475522415799038
-0.03518701667003685   -0.32979440988946124   -0.009236707604557704
-0.03564239670431167   -0.3300138850518548   -0.009640938374577352
-0.029073975157360293   -0.3445129776428396   -0.009843259752564403
-0.04438585055412266   -0.32888011956742885   -0.009475522415799038
-0.03564239670431167   -0.3300138850518548   -0.009640938374577352
-0.03286119842479778   -0.3443055102772419   -0.010918825385108574
-0.029073975157360293   -0.3445129776428396   -0.009843259752564403
-0.03518701667003685   -0.32979440988946124   -0.009236707604557704
-0.031779194544720515   -0.34421797569553364   -0.009974486335482806
-0.028297830870717872   -0.3446110428519691   -0.009306585008832725
-0.03518701667003685   -0.32979440988946124   -0.009236707604557704
-0.04438585055412266   -0.32888011956742885   -0.009475522415799038
-0.031779194544720515   -0.34421797569553364   -0.009974486335482806
-0.04378762835398682   -0.32893094794062244   -0.008634385160401981
-0.028297830870717872   -0.3446110428519691   -0.009306585008832725
-0.03075912894112736   -0.34436361288854955   -0.00899319682198548
-0.04378762835398682   -0.32893094794062244   -0.008634385160401981
-0.031779194544720515   -0.34421797569553364   -0.009974486335482806
-0.028297830870717872   -0.3446110428519691   -0.009306585008832725
-0.04378762835398682   -0.32893094794062244   -0.008634385160401981
-0.03472943064205458   -0.32977562242340513   -0.008791830616158824
-0.03518701667003685   -0.32979440988946124   -0.009236707604557704
-0.028297830870717872   -0.3446110428519691   -0.009306585008832725
-0.04378762835398682   -0.32893094794062244   -0.008634385160401981
-0.03518701667003685   -0.32979440988946124   -0.009236707604557704
-0.031779194544720515   -0.34421797569553364   -0.009974486335482806
-0.033682319298814295   -0.3446826245501877   -0.011795989048542753
-0.04556535838596277   -0.3294331177826934   -0.011012579104441748
-0.03992088391892921   -0.3429929765556362   -0.012858506916771336
-0.03286119842479778   -0.3443055102772419   -0.010918825385108574
-0.04556535838596277   -0.3294331177826934   -0.011012579104441748
-0.05782254937941692   -0.327769897573184   -0.01197201395904072
-0.03992088391892921   -0.3429929765556362   -0.012858506916771336
-0.05623861950979006   -0.327353603534961   -0.01078562230199545
-0.03286119842479778   -0.3443055102772419   -0.010918825385108574
-0.037753584187881106   -0.3426773417128114   -0.011419086708266397
-0.05623861950979006   -0.327353603534961   -0.01078562230199545
-0.03992088391892921   -0.3429929765556362   -0.012858506916771336
-0.03286119842479778   -0.3443055102772419   -0.010918825385108574
-0.05623861950979006   -0.327353603534961   -0.01078562230199545
-0.045069543593734614   -0.32904762327649917   -0.010260879927092514
-0.04556535838596277   -0.3294331177826934   -0.011012579104441748
-0.03286119842479778   -0.3443055102772419   -0.010918825385108574
-0.05623861950979006   -0.327353603534961   -0.01078562230199545
-0.04556535838596277   -0.3294331177826934   -0.011012579104441748
-0.03992088391892921   -0.3429929765556362   -0.012858506916771336
-0.03286119842479778   -0.3443055102772419   -0.010918825385108574
-0.045069543593734614   -0.32904762327649917   -0.010260879927092514
-0.037753584187881106   -0.3426773417128114   -0.011419086708266397
-0.031779194544720515   -0.34421797569553364   -0.009974486335482806
-0.045069543593734614   -0.32904762327649917   -0.010260879927092514
-0.05623861950979006   -0.327353603534961   -0.01078562230199545
-0.037753584187881106   -0.3426773417128114   -0.011419086708266397
-0.054816196523100005   -0.32719866712895973   -0.009528845993686974
-0.031779194544720515   -0.34421797569553364   -0.009974486335482806
-0.03575903765367759   -0.34263253130062277   -0.00988119658143912
-0.054816196523100005   -0.32719866712895973   -0.009528845993686974
-0.037753584187881106   -0.3426773417128114   -0.011419086708266397
-0.031779194544720515   -0.34421797569553364   -0.009974486335482806
-0.054816196523100005   -0.32719866712895973   -0.009528845993686974
-0.04438585055412266   -0.32888011956742885   -0.009475522415799038
-0.045069543593734614   -0.32904762327649917   -0.010260879927092514
-0.031779194544720515   -0.34421797569553364   -0.009974486335482806
-0.054816196523100005   -0.32719866712895973   -0.009528845993686974
-0.045069543593734614   -0.32904762327649917   -0.010260879927092514
-0.037753584187881106   -0.3426773417128114   -0.011419086708266397
-0.031779194544720515   -0.34421797569553364   -0.009974486335482806
-0.04438585055412266   -0.32888011956742885   -0.009475522415799038
-0.03575903765367759   -0.34263253130062277   -0.00988119658143912
-0.03075912894112736   -0.34436361288854955   -0.00899319682198548
-0.04438585055412266   -0.32888011956742885   -0.009475522415799038
-0.054816196523100005   -0.32719866712895973   -0.009528845993686974
-0.03575903765367759   -0.34263253130062277   -0.00988119658143912
-0.05297232409899054   -0.32738416177210145   -0.00821373174495583
-0.03075912894112736   -0.34436361288854955   -0.00899319682198548
-0.03324073973849357   -0.34304737031691207   -0.008271531889970861
-0.05297232409899054   -0.32738416177210145   -0.00821373174495583
-0.03575903765367759   -0.34263253130062277   -0.00988119658143912
-0.03075912894112736   -0.34436361288854955   -0.00899319682198548
-0.05297232409899054   -0.32738416177210145   -0.00821373174495583
-0.04378762835398682   -0.32893094794062244   -0.008634385160401981
-0.04438585055412266   -0.32888011956742885   -0.009475522415799038
-0.03075912894112736   -0.34436361288854955   -0.00899319682198548
-0.05297232409899054   -0.32738416177210145   -0.00821373174495583
-0.04438585055412266   -0.32888011956742885   -0.009475522415799038
-0.03575903765367759   -0.34263253130062277   -0.00988119658143912
-0.00982321996703192   -0.32941054443682266   -0.006313827531977475
0.002111879912127328   -0.30542209464532183   -0.005228110563772155
-0.018671966159336938   -0.3304133959582462   -0.007745581072080451
-0.008438631596587606   -0.32870509909583895   -0.007299065789970258
0.002111879912127328   -0.30542209464532183   -0.005228110563772155
-0.012757183995654857   -0.3061543744097312   -0.006632765880513275
-0.018671966159336938   -0.3304133959582462   -0.007745581072080451
-0.012500822025707578   -0.30555655739750454   -0.006976359389276047
-0.008438631596587606   -0.32870509909583895   -0.007299065789970258
-0.018186247197923795   -0.3298427434119436   -0.0081801467769448
-0.012500822025707578   -0.30555655739750454   -0.006976359389276047
-0.018671966159336938   -0.3304133959582462   -0.007745581072080451
-0.008438631596587606   -0.32870509909583895   -0.007299065789970258
-0.012500822025707578   -0.30555655739750454   -0.006976359389276047
0.0030743777450730043   -0.30470598112214436   -0.006009762974804772
0.002111879912127328   -0.30542209464532183   -0.005228110563772155
-0.008438631596587606   -0.32870509909583895   -0.007299065789970258
-0.012500822025707578   -0.30555655739750454   -0.006976359389276047
0.002111879912127328   -0.30542209464532183   -0.005228110563772155
-0.018671966159336938   -0.3304133959582462   -0.007745581072080451
-0.008438631596587606   -0.32870509909583895   -0.007299065789970258
0.0030743777450730043   -0.30470598112214436   -0.006009762974804772
-0.018186247197923795   -0.3298427434119436   -0.0081801467769448
-0.007349218211818104   -0.32836517139483007   -0.008225444363580262
0.0030743777450730043   -0.30470598112214436   -0.006009762974804772
-0.012500822025707578   -0.30555655739750454   -0.006976359389276047
-0.018186247197923795   -0.3298427434119436   -0.0081801467769448
-0.012209633856350209   -0.30516270302624837   -0.007279392331071834
-0.007349218211818104   -0.32836517139483007   -0.008225444363580262
-0.01764036929783727   -0.32952310018131786   -0.008575023936895892
-0.012209633856350209   -0.30516270302624837   -0.007279392331071834
-0.018186247197923795   -0.3298427434119436   -0.0081801467769448
-0.007349218211818104   -0.32836517139483007   -0.008225444363580262
-0.012209633856350209   -0.30516270302624837   -0.007279392331071834
0.0037819289752311306   -0.3042881907083866   -0.006734648116310177
0.0030743777450730043   -0.30470598112214436   -0.006009762974804772
-0.007349218211818104   -0.32836517139483007   -0.008225444363580262
-0.012209633856350209   -0.30516270302624837   -0.007279392331071834
0.0030743777450730043   -0.30470598112214436   -0.006009762974804772
-0.018186247197923795   -0.3298427434119436   -0.0081801467769448
-0.007349218211818104   -0.32836517139483007   -0.008225444363580262
0.0037819289752311306   -0.3042881907083866   -0.006734648116310177
-0.01764036929783727   -0.32952310018131786   -0.008575023936895892
-0.0061616236375547   -0.3282938702361778   -0.009090434221639689
0.0037819289752311306   -0.3042881907083866   -0.006734648116310177
-0.012209633856350209   -0.30516270302624837   -0.007279392331071834
-0.01764036929783727   -0.32952310018131786   -0.008575023936895892
-0.012035633925965978   -0.30496127563412156   -0.007545864311605756
-0.0061616236375547   -0.3282938702361778   -0.009090434221639689
-0.017221567183523315   -0.32944558058405543   -0.008931448294057452
-0.012035633925965978   -0.30496127563412156   -0.007545864311605756
-0.01764036929783727   -0.32952310018131786   -0.008575023936895892
-0.0061616236375547   -0.3282938702361778   -0.009090434221639689
-0.012035633925965978   -0.30496127563412156   -0.007545864311605756
0.004537366777655674   -0.30407621765122095   -0.0074024551185347
0.0037819289752311306   -0.3042881907083866   -0.006734648116310177
-0.0061616236375547   -0.3282938702361778   -0.009090434221639689
-0.012035633925965978   -0.30496127563412156   -0.007545864311605756
0.0037819289752311306   -0.3042881907083866   -0.006734648116310177
-0.01764036929783727   -0.32952310018131786   -0.008575023936895892
-0.018671966159336938   -0.3304133959582462   -0.007745581072080451
-0.012757183995654857   -0.3061543744097312   -0.006632765880513275
-0.027391372877804385   -0.3307685840584803   -0.008914929407078135
-0.018186247197923795   -0.3298427434119436   -0.0081801467769448
-0.012757183995654857   -0.3061543744097312   -0.006632765880513275
-0.027127280427532572   -0.3062940931835175   -0.00779237998297832
-0.027391372877804385   -0.3307685840584803   -0.008914929407078135
-0.02693828849809215   -0.30578037729692914   -0.007801845381283151
-0.018186247197923795   -0.3298427434119436   -0.0081801467769448
-0.02698238412214725   -0.3302706061180256   -0.008939711617534393
-0.02693828849809215   -0.30578037729692914   -0.007801845381283151
-0.027391372877804385   -0.3307685840584803   -0.008914929407078135
-0.018186247197923795   -0.3298427434119436   -0.0081801467769448
-0.02693828849809215   -0.30578037729692914   -0.007801845381283151
-0.012500822025707578   -0.30555655739750454   -0.006976359389276047
-0.012757183995654857   -0.3061543744097312   -0.006632765880513275
-0.018186247197923795   -0.3298427434119436   -0.0081801467769448
-0.02693828849809215   -0.30578037729692914   -0.007801845381283151
-0.012757183995654857   -0.3061543744097312   -0.006632765880513275
-0.027391372877804385   -0.3307685840584803   -0.008914929407078135
-0.018186247197923795   -0.3298427434119436   -0.0081801467769448
-0.012500822025707578   -0.30555655739750454   -0.006976359389276047
-0.02698238412214725   -0.3302706061180256   -0.008939711617534393
-0.01764036929783727   -0.32952310018131786   -0.008575023936895892
-0.012500822025707578   -0.30555655739750454   -0.006976359389276047
-0.02693828849809215   -0.30578037729692914   -0.007801845381283151
-0.02698238412214725   -0.3302706061180256   -0.008939711617534393
-0.026744046273343237   -0.3054492726967063   -0.007772481080042889
-0.01764036929783727   -0.32952310018131786   -0.008575023936895892
-0.026559482477003665   -0.3299989493298183   -0.008927751573736308
-0.026744046273343237   -0.3054492726967063   -0.007772481080042889
-0.02698238412214725   -0.3302706061180256   -0.008939711617534393
-0.01764036929783727   -0.32952310018131786   -0.008575023936895892
-0.026744046273343237   -0.3054492726967063   -0.007772481080042889
-0.012209633856350209   -0.30516270302624837   -0.007279392331071834
-0.012500822025707578   -0.30555655739750454   -0.006976359389276047
-0.01764036929783727   -0.32952310018131786   -0.008575023936895892
-0.026744046273343237   -0.3054492726967063   -0.007772481080042889
-0.012500822025707578   -0.30555655739750454   -0.006976359389276047
-0.02698238412214725   -0.3302706061180256   -0.008939711617534393
-0.01764036929783727   -0.32952310018131786   -0.008575023936895892
-0.012209633856350209   -0.30516270302624837   -0.007279392331071834
-0.026559482477003665   -0.3299989493298183   -0.008927751573736308
-0.017221567183523315   -0.32944558058405543   -0.008931448294057452
-0.012209633856350209   -0.30516270302624837   -0.007279392331071834
-0.026744046273343237   -0.3054492726967063   -0.007772481080042889
-0.026559482477003665   -0.3299989493298183   -0.008927751573736308
-0.026574115288666413   -0.3052976768131181   -0.007706823899222738
-0.017221567183523315   -0.32944558058405543   -0.008931448294057452
-0.026151506072670406   -0.3299424694215246   -0.008878640934465689
-0.026574115288666413   -0.3052976768131181   -0.007706823899222738
-0.026559482477003665   -0.3299989493298183   -0.008927751573736308
-0.017221567183523315   -0.32944558058405543   -0.008931448294057452
-0.026574115288666413   -0.3052976768131181   -0.007706823899222738
-0.012035633925965978   -0.30496127563412156   -0.007545864311605756
-0.012209633856350209   -0.30516270302624837   -0.007279392331071834
-0.017221567183523315   -0.32944558058405543   -0.008931448294057452
-0.026574115288666413   -0.3052976768131181   -0.007706823899222738
-0.012209633856350209   -0.30516270302624837   -0.007279392331071834
-0.026559482477003665   -0.3299989493298183   -0.008927751573736308
-0.027391372877804385   -0.3307685840584803   -0.008914929407078135
-0.027127280427532572   -0.3062940931835175   -0.00779237998297832
-0.03604816041075397   -0.33045581084158393   -0.010008941981861653
-0.02698238412214725   -0.3302706061180256   -0.008939711617534393
-0.027127280427532572   -0.3062940931835175   -0.00779237998297832
-0.041268469024835774   -0.3058378786614095   -0.008839352471236569
-0.03604816041075397   -0.33045581084158393   -0.010008941981861653
-0.041092462896550705   -0.3053944629333711   -0.0085227863881805
-0.02698238412214725   -0.3302706061180256   -0.008939711617534393
-0.03564239670431167   -0.3300138850518548   -0.009640938374577352
-0.041092462896550705   -0.3053944629333711   -0.0085227863881805
-0.03604816041075397   -0.33045581084158393   -0.010008941981861653
-0.02698238412214725   -0.3302706061180256   -0.008939711617534393
-0.041092462896550705   -0.3053944629333711   -0.0085227863881805
-0.02693828849809215   -0.30578037729692914   -0.007801845381283151
-0.027127280427532572   -0.3062940931835175   -0.00779237998297832
-0.02698238412214725   -0.3302706061180256   -0.008939711617534393
-0.041092462896550705   -0.3053944629333711   -0.0085227863881805
-0.027127280427532572   -0.3062940931835175   -0.00779237998297832
-0.03604816041075397   -0.33045581084158393   -0.010008941981861653
-0.02698238412214725   -0.3302706061180256   -0.008939711617534393
-0.02693828849809215   -0.30578037729692914   -0.007801845381283151
-0.03564239670431167   -0.3300138850518548   -0.009640938374577352
-0.026559482477003665   -0.3299989493298183   -0.008927751573736308
-0.02693828849809215   -0.30578037729692914   -0.007801845381283151
-0.041092462896550705   -0.3053944629333711   -0.0085227863881805
-0.03564239670431167   -0.3300138850518548   -0.009640938374577352
-0.040879840609020744   -0.3051316340914693   -0.008168206055401112
-0.026559482477003665   -0.3299989493298183   -0.008927751573736308
-0.03518701667003685   -0.32979440988946124   -0.009236707604557704
-0.040879840609020744   -0.3051316340914693   -0.008168206055401112
-0.03564239670431167   -0.3300138850518548   -0.009640938374577352
-0.026559482477003665   -0.3299989493298183   -0.008927751573736308
-0.040879840609020744   -0.3051316340914693   -0.008168206055401112
-0.026744046273343237   -0.3054492726967063   -0.007772481080042889
-0.02693828849809215   -0.30578037729692914   -0.007801845381283151
-0.026559482477003665   -0.3299989493298183   -0.008927751573736308
-0.040879840609020744   -0.3051316340914693   -0.008168206055401112
-0.02693828849809215   -0.30578037729692914   -0.007801845381283151
-0.03564239670431167   -0.3300138850518548   -0.009640938374577352
-0.026559482477003665   -0.3299989493298183   -0.008927751573736308
-0.026744046273343237   -0.3054492726967063   -0.007772481080042889
-0.03518701667003685   -0.32979440988946124   -0.009236707604557704
-0.026151506072670406   -0.3299424694215246   -0.008878640934465689
-0.026744046273343237   -0.3054492726967063   -0.007772481080042889
-0.040879840609020744   -0.3051316340914693   -0.008168206055401112
-0.03518701667003685   -0.32979440988946124   -0.009236707604557704
-0.04067283983338923   -0.3050408317456046   -0.007776788700743062
-0.026151506072670406   -0.3299424694215246   -0.008878640934465689
-0.03472943064205458   -0.32977562242340513   -0.008791830616158824
-0.04067283983338923   -0.3050408317456046   -0.007776788700743062
-0.03518701667003685   -0.32979440988946124   -0.009236707604557704
-0.026151506072670406   -0.3299424694215246   -0.008878640934465689
-0.04067283983338923   -0.3050408317456046   -0.007776788700743062
-0.026574115288666413   -0.3052976768131181   -0.007706823899222738
-0.026744046273343237   -0.3054492726967063   -0.007772481080042889
-0.026151506072670406   -0.3299424694215246   -0.008878640934465689
-0.04067283983338923   -0.3050408317456046   -0.007776788700743062
-0.026744046273343237   -0.3054492726967063   -0.007772481080042889
-0.03518701667003685   -0.32979440988946124   -0.009236707604557704
-0.03604816041075397   -0.33045581084158393   -0.010008941981861653
-0.041268469024835774   -0.3058378786614095   -0.008839352471236569
-0.04556535838596277   -0.3294331177826934   -0.011012579104441748
-0.03564239670431167   -0.3300138850518548   -0.009640938374577352
-0.041268469024835774   -0.3058378786614095   -0.008839352471236569
-0.05609192696658996   -0.3048023175502807   -0.00976911771048903
-0.04556535838596277   -0.3294331177826934   -0.011012579104441748
-0.05586291426927868   -0.30442631724051894   -0.009126255753165642
-0.03564239670431167   -0.3300138850518548   -0.009640938374577352
-0.045069543593734614   -0.32904762327649917   -0.010260879927092514
-0.05586291426927868   -0.30442631724051894   -0.009126255753165642
-0.04556535838596277   -0.3294331177826934   -0.011012579104441748
-0.03564239670431167   -0.3300138850518548   -0.009640938374577352
-0.05586291426927868   -0.30442631724051894   -0.009126255753165642
-0.041092462896550705   -0.3053944629333711   -0.0085227863881805
-0.041268469024835774   -0.3058378786614095   -0.008839352471236569
-0.03564239670431167   -0.3300138850518548   -0.009640938374577352
-0.05586291426927868   -0.30442631724051894   -0.009126255753165642
-0.041268469024835774   -0.3058378786614095   -0.008839352471236569
-0.04556535838596277   -0.3294331177826934   -0.011012579104441748
-0.03564239670431167   -0.3300138850518548   -0.009640938374577352
-0.041092462896550705   -0.3053944629333711   -0.0085227863881805
-0.045069543593734614   -0.32904762327649917   -0.010260879927092514
-0.03518701667003685   -0.32979440988946124   -0.009236707604557704
-0.041092462896550705   -0.3053944629333711   -0.0085227863881805
-0.05586291426927868   -0.30442631724051894   -0.009126255753165642
-0.045069543593734614   -0.32904762327649917   -0.010260879927092514
-0.05547518308754106   -0.3042253934532558   -0.008451178398541271
-0.03518701667003685   -0.32979440988946124   -0.009236707604557704
-0.04438585055412266   -0.32888011956742885   -0.009475522415799038
-0.05547518308754106   -0.3042253934532558   -0.008451178398541271
-0.045069543593734614   -0.32904762327649917   -0.010260879927092514
-0.03518701667003685   -0.32979440988946124   -0.009236707604557704
-0.05547518308754106   -0.3042253934532558   -0.008451178398541271
-0.040879840609020744   -0.3051316340914693   -0.008168206055401112
-0.041092462896550705   -0.3053944629333711   -0.0085227863881805
-0.03518701667003685   -0.32979440988946124   -0.009236707604557704
-0.05547518308754106   -0.3042253934532558   -0.008451178398541271
-0.041092462896550705   -0.3053944629333711   -0.0085227863881805
-0.045069543593734614   -0.32904762327649917   -0.010260879927092514
-0.03518701667003685   -0.32979440988946124   -0.009236707604557704
-0.040879840609020744   -0.3051316340914693   -0.008168206055401112
-0.04438585055412266   -0.32888011956742885   -0.009475522415799038
-0.03472943064205458   -0.32977562242340513   -0.008791830616158824
-0.040879840609020744   -0.3051316340914693   -0.008168206055401112
-0.05547518308754106   -0.3042253934532558   -0.008451178398541271
-0.04438585055412266   -0.32888011956742885   -0.009475522415799038
-0.055159181250100525   -0.30420996980234805   -0.007733930380817025
-0.03472943064205458   -0.32977562242340513   -0.008791830616158824
-0.04378762835398682   -0.32893094794062244   -0.008634385160401981
-0.055159181250100525   -0.30420996980234805   -0.007733930380817025
-0.04438585055412266   -0.32888011956742885   -0.009475522415799038
-0.03472943064205458   -0.32977562242340513   -0.008791830616158824
-0.055159181250100525   -0.30420996980234805   -0.007733930380817025
-0.04067283983338923   -0.3050408317456046   -0.007776788700743062
-0.040879840609020744   -0.3051316340914693   -0.008168206055401112
-0.03472943064205458   -0.32977562242340513   -0.008791830616158824
-0.055159181250100525   -0.30420996980234805   -0.007733930380817025
-0.040879840609020744   -0.3051316340914693   -0.008168206055401112
-0.04438585055412266   -0.32888011956742885   -0.009475522415799038
-0.04556535838596277   -0.3294331177826934   -0.011012579104441748
-0.05609192696658996   -0.3048023175502807   -0.00976911771048903
-0.05782254937941692   -0.327769897573184   -0.01197201395904072
-0.045069543593734614   -0.32904762327649917   -0.010260879927092514
-0.05609192696658996   -0.3048023175502807   -0.00976911771048903
-0.07338156148267279   -0.3033141623620335   -0.010633279784650087
-0.05782254937941692   -0.327769897573184   -0.01197201395904072
-0.07221767124722372   -0.30292328335373325   -0.009627676694149804
-0.045069543593734614   -0.32904762327649917   -0.010260879927092514
-0.05623861950979006   -0.327353603534961   -0.01078562230199545
-0.07221767124722372   -0.30292328335373325   -0.009627676694149804
-0.05782254937941692   -0.327769897573184   -0.01197201395904072
-0.045069543593734614   -0.32904762327649917   -0.010260879927092514
-0.07221767124722372   -0.30292328335373325   -0.009627676694149804
-0.05586291426927868   -0.30442631724051894   -0.009126255753165642
-0.05609192696658996   -0.3048023175502807   -0.00976911771048903
-0.045069543593734614   -0.32904762327649917   -0.010260879927092514
-0.07221767124722372   -0.30292328335373325   -0.009627676694149804
-0.05609192696658996   -0.3048023175502807   -0.00976911771048903
-0.05782254937941692   -0.327769897573184   -0.01197201395904072
-0.045069543593734614   -0.32904762327649917   -0.010260879927092514
-0.05586291426927868   -0.30442631724051894   -0.009126255753165642
-0.05623861950979006   -0.327353603534961   -0.01078562230199545
-0.04438585055412266   -0.32888011956742885   -0.009475522415799038
-0.05586291426927868   -0.30442631724051894   -0.009126255753165642
-0.07221767124722372   -0.30292328335373325   -0.009627676694149804
-0.05623861950979006   -0.327353603534961   -0.01078562230199545
-0.07120578341194639   -0.30273915614677405   -0.008569083026606963
-0.04438585055412266   -0.32888011956742885   -0.009475522415799038
-0.054816196523100005   -0.32719866712895973   -0.009528845993686974
-0.07120578341194639   -0.30273915614677405   -0.008569083026606963
-0.05623861950979006   -0.327353603534961   -0.01078562230199545
-0.04438585055412266   -0.32888011956742885   -0.009475522415799038
-0.07120578341194639   -0.30273915614677405   -0.008569083026606963
-0.05547518308754106   -0.3042253934532558   -0.008451178398541271
-0.05586291426927868   -0.30442631724051894   -0.009126255753165642
-0.04438585055412266   -0.32888011956742885   -0.009475522415799038
-0.07120578341194639   -0.30273915614677405   -0.008569083026606963
-0.05586291426927868   -0.30442631724051894   -0.009126255753165642
-0.05623861950979006   -0.327353603534961   -0.01078562230199545
-0.04438585055412266   -0.32888011956742885   -0.009475522415799038
-0.05547518308754106   -0.3042253934532558   -0.008451178398541271
-0.054816196523100005   -0.32719866712895973   -0.009528845993686974
-0.04378762835398682   -0.32893094794062244   -0.008634385160401981
-0.05547518308754106   -0.3042253934532558   -0.008451178398541271
-0.07120578341194639   -0.30273915614677405   -0.008569083026606963
-0.054816196523100005   -0.32719866712895973   -0.009528845993686974
-0.0698417571480554   -0.3028389784323342   -0.007464268318191113
-0.04378762835398682   -0.32893094794062244   -0.008634385160401981
-0.05297232409899054   -0.32738416177210145   -0.00821373174495583
-0.0698417571480554   -0.3028389784323342   -0.007464268318191113
-0.054816196523100005   -0.32719866712895973   -0.009528845993686974
-0.04378762835398682   -0.32893094794062244   -0.008634385160401981
-0.0698417571480554   -0.3028389784323342   -0.007464268318191113
-0.055159181250100525   -0.30420996980234805   -0.007733930380817025
-0.05547518308754106   -0.3042253934532558   -0.008451178398541271
-0.04378762835398682   -0.32893094794062244   -0.008634385160401981
-0.0698417571480554   -0.3028389784323342   -0.007464268318191113
-0.05547518308754106   -0.3042253934532558   -0.008451178398541271
-0.054816196523100005   -0.32719866712895973   -0.009528845993686974
0.002111879912127328   -0.30542209464532183   -0.005228110563772155
0.011136087196460778   -0.2729512245400607   -0.003985916232915251
-0.012757183995654857   -0.3061543744097312   -0.006632765880513275
0.0030743777450730043   -0.30470598112214436   -0.006009762974804772
0.011136087196460778   -0.2729512245400607   -0.003985916232915251
-0.0085055568556446   -0.2734324879641329   -0.005326211649567753
-0.012757183995654857   -0.3061543744097312   -0.006632765880513275
-0.008453732785816175   -0.2728379193145381   -0.005563166391299635
0.0030743777450730043   -0.30470598112214436   -0.006009762974804772
-0.012500822025707578   -0.30555655739750454   -0.006976359389276047
-0.008453732785816175   -0.2728379193145381   -0.005563166391299635
-0.012757183995654857   -0.3061543744097312   -0.006632765880513275
0.0030743777450730043   -0.30470598112214436   -0.006009762974804772
-0.008453732785816175   -0.2728379193145381   -0.005563166391299635
0.011703102038012288   -0.2722528083018061   -0.004561321439252217
0.011136087196460778   -0.2729512245400607   -0.003985916232915251
0.0030743777450730043   -0.30470598112214436   -0.006009762974804772
-0.008453732785816175   -0.2728379193145381   -0.005563166391299635
0.011136087196460778   -0.2729512245400607   -0.003985916232915251
-0.012757183995654857   -0.3061543744097312   -0.006632765880513275
0.0030743777450730043   -0.30470598112214436   -0.006009762974804772
0.011703102038012288   -0.2722528083018061   -0.004561321439252217
-0.012500822025707578   -0.30555655739750454   -0.006976359389276047
0.0037819289752311306   -0.3042881907083866   -0.006734648116310177
0.011703102038012288   -0.2722528083018061   -0.004561321439252217
-0.008453732785816175   -0.2728379193145381   -0.005563166391299635
-0.012500822025707578   -0.30555655739750454   -0.006976359389276047
-0.00838805387375096   -0.27240363178089083   -0.00576318814938217
0.0037819289752311306   -0.3042881907083866   -0.006734648116310177
-0.012209633856350209   -0.30516270302624837   -0.007279392331071834
-0.00838805387375096   -0.27240363178089083   -0.00576318814938217
-0.012500822025707578   -0.30555655739750454   -0.006976359389276047
0.0037819289752311306   -0.3042881907083866   -0.006734648116310177
-0.00838805387375096   -0.27240363178089083   -0.00576318814938217
0.01206437254291616   -0.2717906304925196   -0.0050845656016357075
0.011703102038012288   -0.2722528083018061   -0.004561321439252217
0.0037819289752311306   -0.3042881907083866   -0.006734648116310177
-0.00838805387375096   -0.27240363178089083   -0.00576318814938217
0.011703102038012288   -0.2722528083018061   -0.004561321439252217
-0.012500822025707578   -0.30555655739750454   -0.006976359389276047
0.0037819289752311306   -0.3042881907083866   -0.006734648116310177
0.01206437254291616   -0.2717906304925196   -0.0050845656016357075
-0.012209633856350209   -0.30516270302624837   -0.007279392331071834
0.004537366777655674   -0.30407621765122095   -0.0074024551185347
0.01206437254291616   -0.2717906304925196   -0.0050845656016357075
-0.00838805387375096   -0.27240363178089083   -0.00576318814938217
-0.012209633856350209   -0.30516270302624837   -0.007279392331071834
-0.008422139988640323   -0.2721159109813955   -0.005928976137236424
0.004537366777655674   -0.30407621765122095   -0.0074024551185347
-0.012035633925965978   -0.30496127563412156   -0.007545864311605756
-0.008422139988640323   -0.2721159109813955   -0.005928976137236424
-0.012209633856350209   -0.30516270302624837   -0.007279392331071834
0.004537366777655674   -0.30407621765122095   -0.0074024551185347
-0.008422139988640323   -0.2721159109813955   -0.005928976137236424
0.012433377730705918   -0.2714761603356051   -0.005556713857869803
0.01206437254291616   -0.2717906304925196   -0.0050845656016357075
0.004537366777655674   -0.30407621765122095   -0.0074024551185347
-0.008422139988640323   -0.2721159109813955   -0.005928976137236424
0.01206437254291616   -0.2717906304925196   -0.0050845656016357075
-0.012209633856350209   -0.30516270302624837   -0.007279392331071834
-0.012757183995654857   -0.3061543744097312   -0.006632765880513275
-0.0085055568556446   -0.2734324879641329   -0.005326211649567753
-0.027127280427532572   -0.3062940931835175   -0.00779237998297832
-0.012500822025707578   -0.30555655739750454   -0.006976359389276047
-0.0085055568556446   -0.2734324879641329   -0.005326211649567753
-0.027394837836628397   -0.2734335394185794   -0.006434444321204183
-0.027127280427532572   -0.3062940931835175   -0.00779237998297832
-0.02739799981652934   -0.27292955955393233   -0.006412158896391669
-0.012500822025707578   -0.30555655739750454   -0.006976359389276047
-0.02693828849809215   -0.30578037729692914   -0.007801845381283151
-0.02739799981652934   -0.27292955955393233   -0.006412158896391669
-0.027127280427532572   -0.3062940931835175   -0.00779237998297832
-0.012500822025707578   -0.30555655739750454   -0.006976359389276047
-0.02739799981652934   -0.27292955955393233   -0.006412158896391669
-0.008453732785816175   -0.2728379193145381   -0.005563166391299635
-0.0085055568556446   -0.2734324879641329   -0.005326211649567753
-0.012500822025707578   -0.30555655739750454   -0.006976359389276047
-0.02739799981652934   -0.27292955955393233   -0.006412158896391669
-0.0085055568556446   -0.2734324879641329   -0.005326211649567753
-0.027127280427532572   -0.3062940931835175   -0.00779237998297832
-0.012500822025707578   -0.30555655739750454   -0.006976359389276047
-0.008453732785816175   -0.2728379193145381   -0.005563166391299635
-0.02693828849809215   -0.30578037729692914   -0.007801845381283151
-0.012209633856350209   -0.30516270302624837   -0.007279392331071834
-0.008453732785816175   -0.2728379193145381   -0.005563166391299635
-0.02739799981652934   -0.27292955955393233   -0.006412158896391669
-0.02693828849809215   -0.30578037729692914   -0.007801845381283151
-0.027399942428269482   -0.27256692873264665   -0.006353118722934208
-0.012209633856350209   -0.30516270302624837   -0.007279392331071834
-0.026744046273343237   -0.3054492726967063   -0.007772481080042889
-0.027399942428269482   -0.27256692873264665   -0.006353118722934208
-0.02693828849809215   -0.30578037729692914   -0.007801845381283151
-0.012209633856350209   -0.30516270302624837   -0.007279392331071834
-0.027399942428269482   -0.27256692873264665   -0.006353118722934208
-0.00838805387375096   -0.27240363178089083   -0.00576318814938217
-0.008453732785816175   -0.2728379193145381   -0.005563166391299635
-0.012209633856350209   -0.30516270302624837   -0.007279392331071834
-0.027399942428269482   -0.27256692873264665   -0.006353118722934208
-0.008453732785816175   -0.2728379193145381   -0.005563166391299635
-0.02693828849809215   -0.30578037729692914   -0.007801845381283151
-0.012209633856350209   -0.30516270302624837   -0.007279392331071834
-0.00838805387375096   -0.27240363178089083   -0.00576318814938217
-0.026744046273343237   -0.3054492726967063   -0.007772481080042889
-0.012035633925965978   -0.30496127563412156   -0.007545864311605756
-0.00838805387375096   -0.27240363178089083   -0.00576318814938217
-0.027399942428269482   -0.27256692873264665   -0.006353118722934208
-0.026744046273343237   -0.3054492726967063   -0.007772481080042889
-0.02742722548726251   -0.27234588226533124   -0.006259185598537768
-0.012035633925965978   -0.30496127563412156   -0.007545864311605756
-0.026574115288666413   -0.3052976768131181   -0.007706823899222738
-0.02742722548726251   -0.27234588226533124   -0.006259185598537768
-0.026744046273343237   -0.3054492726967063   -0.007772481080042889
-0.012035633925965978   -0.30496127563412156   -0.007545864311605756
-0.02742722548726251   -0.27234588226533124   -0.006259185598537768
-0.008422139988640323   -0.2721159109813955   -0.005928976137236424
-0.00838805387375096   -0.27240363178089083   -0.00576318814938217
-0.012035633925965978   -0.30496127563412156   -0.007545864311605756
-0.02742722548726251   -0.27234588226533124   -0.006259185598537768
-0.00838805387375096   -0.27240363178089083   -0.00576318814938217
-0.026744046273343237   -0.3054492726967063   -0.007772481080042889
-0.027127280427532572   -0.3062940931835175   -0.00779237998297832
-0.027394837836628397   -0.2734335394185794   -0.006434444321204183
-0.041268469024835774   -0.3058378786614095   -0.008839352471236569
-0.02693828849809215   -0.30578037729692914   -0.007801845381283151
-0.027394837836628397   -0.2734335394185794   -0.006434444321204183
-0.045960453596774184   -0.27296451855349624   -0.007406121846267109
-0.041268469024835774   -0.3058378786614095   -0.008839352471236569
-0.04597749482410667   -0.272540417999181   -0.007127686245278046
-0.02693828849809215   -0.30578037729692914   -0.007801845381283151
-0.041092462896550705   -0.3053944629333711   -0.0085227863881805
-0.04597749482410667   -0.272540417999181   -0.007127686245278046
-0.041268469024835774   -0.3058378786614095   -0.008839352471236569
-0.02693828849809215   -0.30578037729692914   -0.007801845381283151
-0.04597749482410667   -0.272540417999181   -0.007127686245278046
-0.02739799981652934   -0.27292955955393233   -0.006412158896391669
-0.027394837836628397   -0.2734335394185794   -0.006434444321204183
-0.02693828849809215   -0.30578037729692914   -0.007801845381283151
-0.04597749482410667   -0.272540417999181   -0.007127686245278046
-0.027394837836628397   -0.2734335394185794   -0.006434444321204183
-0.041268469024835774   -0.3058378786614095   -0.008839352471236569
-0.02693828849809215   -0.30578037729692914   -0.007801845381283151
-0.02739799981652934   -0.27292955955393233   -0.006412158896391669
-0.041092462896550705   -0.3053944629333711   -0.0085227863881805
-0.026744046273343237   -0.3054492726967063   -0.007772481080042889
-0.02739799981652934   -0.27292955955393233   -0.006412158896391669
-0.04597749482410667   -0.272540417999181   -0.007127686245278046
-0.041092462896550705   -0.3053944629333711   -0.0085227863881805
-0.04596281730923862   -0.2722564118064779   -0.006813185530786415
-0.026744046273343237   -0.3054492726967063   -0.007772481080042889
-0.040879840609020744   -0.3051316340914693   -0.008168206055401112
-0.04596281730923862   -0.2722564118064779   -0.006813185530786415
-0.041092462896550705   -0.3053944629333711   -0.0085227863881805
-0.026744046273343237   -0.3054492726967063   -0.007772481080042889
-0.04596281730923862   -0.2722564118064779   -0.006813185530786415
-0.027399942428269482   -0.27256692873264665   -0.006353118722934208
-0.02739799981652934   -0.27292955955393233   -0.006412158896391669
-0.026744046273343237   -0.3054492726967063   -0.007772481080042889
-0.04596281730923862   -0.2722564118064779   -0.006813185530786415
-0.02739799981652934   -0.27292955955393233   -0.006412158896391669
-0.041092462896550705   -0.3053944629333711   -0.0085227863881805
-0.026744046273343237   -0.3054492726967063   -0.007772481080042889
-0.027399942428269482   -0.27256692873264665   -0.006353118722934208
-0.040879840609020744   -0.3051316340914693   -0.008168206055401112
-0.026574115288666413   -0.3052976768131181   -0.007706823899222738
-0.027399942428269482   -0.27256692873264665   -0.006353118722934208
-0.04596281730923862   -0.2722564118064779   -0.006813185530786415
-0.040879840609020744   -0.3051316340914693   -0.008168206055401112
-0.04595375261091175   -0.27210999521181894   -0.00646368294678944
-0.026574115288666413   -0.3052976768131181   -0.007706823899222738
-0.04067283983338923   -0.3050408317456046   -0.007776788700743062
-0.04595375261091175   -0.27210999521181894   -0.00646368294678944
-0.040879840609020744   -0.3051316340914693   -0.008168206055401112
-0.026574115288666413   -0.3052976768131181   -0.007706823899222738
-0.04595375261091175   -0.27210999521181894   -0.00646368294678944
-0.02742722548726251   -0.27234588226533124   -0.006259185598537768
-0.027399942428269482   -0.27256692873264665   -0.006353118722934208
-0.026574115288666413   -0.3052976768131181   -0.007706823899222738
-0.04595375261091175   -0.27210999521181894   -0.00646368294678944
-0.027399942428269482   -0.27256692873264665   -0.006353118722934208
-0.040879840609020744   -0.3051316340914693   -0.008168206055401112
-0.041268469024835774   -0.3058378786614095   -0.008839352471236569
-0.045960453596774184   -0.27296451855349624   -0.007406121846267109
-0.05609192696658996   -0.3048023175502807   -0.00976911771048903
-0.041092462896550705   -0.3053944629333711   -0.0085227863881805
-0.045960453596774184   -0.27296451855349624   -0.007406121846267109
-0.0651066207246886   -0.2720435319769012   -0.008242645126380298
-0.05609192696658996   -0.3048023175502807   -0.00976911771048903
-0.06508521151064757   -0.2716961756277645   -0.007705093931642938
-0.041092462896550705   -0.3053944629333711   -0.0085227863881805
-0.05586291426927868   -0.30442631724051894   -0.009126255753165642
-0.06508521151064757   -0.2716961756277645   -0.007705093931642938
-0.05609192696658996   -0.3048023175502807   -0.00976911771048903
-0.041092462896550705   -0.3053944629333711   -0.0085227863881805
-0.06508521151064757   -0.2716961756277645   -0.007705093931642938
-0.04597749482410667   -0.272540417999181   -0.007127686245278046
-0.045960453596774184   -0.27296451855349624   -0.007406121846267109
-0.041092462896550705   -0.3053944629333711   -0.0085227863881805
-0.06508521151064757   -0.2716961756277645   -0.007705093931642938
-0.045960453596774184   -0.27296451855349624   -0.007406121846267109
-0.05609192696658996   -0.3048023175502807   -0.00976911771048903
-0.041092462896550705   -0.3053944629333711   -0.0085227863881805
-0.04597749482410667   -0.272540417999181   -0.007127686245278046
-0.05586291426927868   -0.30442631724051894   -0.009126255753165642
-0.040879840609020744   -0.3051316340914693   -0.008168206055401112
-0.04597749482410667   -0.272540417999181   -0.007127686245278046
-0.06508521151064757   -0.2716961756277645   -0.007705093931642938
-0.05586291426927868   -0.30442631724051894   -0.009126255753165642
-0.06492621256278382   -0.27148344726214885   -0.007136898301094613
-0.040879840609020744   -0.3051316340914693   -0.008168206055401112
-0.05547518308754106   -0.3042253934532558   -0.008451178398541271
-0.06492621256278382   -0.27148344726214885   -0.007136898301094613
-0.05586291426927868   -0.30442631724051894   -0.009126255753165642
-0.040879840609020744   -0.3051316340914693   -0.008168206055401112
-0.06492621256278382   -0.27148344726214885   -0.007136898301094613
-0.04596281730923862   -0.2722564118064779   -0.006813185530786415
-0.04597749482410667   -0.272540417999181   -0.007127686245278046
-0.040879840609020744   -0.3051316340914693   -0.008168206055401112
-0.06492621256278382   -0.27148344726214885   -0.007136898301094613
-0.04597749482410667   -0.272540417999181   -0.007127686245278046
-0.05586291426927868   -0.30442631724051894   -0.009126255753165642
-0.040879840609020744   -0.3051316340914693   -0.008168206055401112
-0.04596281730923862   -0.2722564118064779   -0.006813185530786415
-0.05547518308754106   -0.3042253934532558   -0.008451178398541271
-0.04067283983338923   -0.3050408317456046   -0.007776788700743062
-0.04596281730923862   -0.2722564118064779   -0.006813185530786415
-0.06492621256278382   -0.27148344726214885   -0.007136898301094613
-0.05547518308754106   -0.3042253934532558   -0.008451178398541271
-0.06481958222668761   -0.271419824045065   -0.0065309136122520695
-0.04067283983338923   -0.3050408317456046   -0.007776788700743062
-0.055159181250100525   -0.30420996980234805   -0.007733930380817025
-0.06481958222668761   -0.271419824045065   -0.0065309136122520695
-0.05547518308754106   -0.3042253934532558   -0.008451178398541271
-0.04067283983338923   -0.3050408317456046   -0.007776788700743062
-0.06481958222668761   -0.271419824045065   -0.0065309136122520695
-0.04595375261091175   -0.27210999521181894   -0.00646368294678944
-0.04596281730923862   -0.2722564118064779   -0.006813185530786415
-0.04067283983338923   -0.3050408317456046   -0.007776788700743062
-0.06481958222668761   -0.271419824045065   -0.0065309136122520695
-0.04596281730923862   -0.2722564118064779   -0.006813185530786415
-0.05547518308754106   -0.3042253934532558   -0.008451178398541271
-0.05609192696658996   -0.3048023175502807   -0.00976911771048903
-0.0651066207246886   -0.2720435319769012   -0.008242645126380298
-0.07338156148267279   -0.3033141623620335   -0.010633279784650087
-0.05586291426927868   -0.30442631724051894   -0.009126255753165642
-0.0651066207246886   -0.2720435319769012   -0.008242645126380298
-0.08649188372226976   -0.2707772788722406   -0.008995421195225539
-0.07338156148267279   -0.3033141623620335   -0.010633279784650087
-0.08570063724953468   -0.2704371423809808   -0.00817400246467602
-0.05586291426927868   -0.30442631724051894   -0.009126255753165642
-0.07221767124722372   -0.30292328335373325   -0.009627676694149804
-0.08570063724953468   -0.2704371423809808   -0.00817400246467602
-0.07338156148267279   -0.3033141623620335   -0.010633279784650087
-0.05586291426927868   -0.30442631724051894   -0.009126255753165642
-0.08570063724953468   -0.2704371423809808   -0.00817400246467602
-0.06508521151064757   -0.2716961756277645   -0.007705093931642938
-0.0651066207246886   -0.2720435319769012   -0.008242645126380298
-0.05586291426927868   -0.30442631724051894   -0.009126255753165642
-0.08570063724953468   -0.2704371423809808   -0.00817400246467602
-0.0651066207246886   -0.2720435319769012   -0.008242645126380298
-0.07338156148267279   -0.3033141623620335   -0.010633279784650087
-0.05586291426927868   -0.30442631724051894   -0.009126255753165642
-0.06508521151064757   -0.2716961756277645   -0.007705093931642938
-0.07221767124722372   -0.30292328335373325   -0.009627676694149804
-0.05547518308754106   -0.3042253934532558   -0.008451178398541271
-0.06508521151064757   -0.2716961756277645   -0.007705093931642938
-0.08570063724953468   -0.2704371423809808   -0.00817400246467602
-0.07221767124722372   -0.30292328335373325   -0.009627676694149804
-0.08502282265620349   -0.2702503661019704   -0.0073011816451227195
-0.05547518308754106   -0.3042253934532558   -0.008451178398541271
-0.07120578341194639   -0.30273915614677405   -0.008569083026606963
-0.08502282265620349   -0.2702503661019704   -0.0073011816451227195
-0.07221767124722372   -0.30292328335373325   -0.009627676694149804
-0.05547518308754106   -0.3042253934532558   -0.008451178398541271
-0.08502282265620349   -0.2702503661019704   -0.0073011816451227195
-0.06492621256278382   -0.27148344726214885   -0.007136898301094613
-0.06508521151064757   -0.2716961756277645   -0.007705093931642938
-0.05547518308754106   -0.3042253934532558   -0.008451178398541271
-0.08502282265620349   -0.2702503661019704   -0.0073011816451227195
-0.06508521151064757   -0.2716961756277645   -0.007705093931642938
-0.07221767124722372   -0.30292328335373325   -0.009627676694149804
-0.05547518308754106   -0.3042253934532558   -0.008451178398541271
-0.06492621256278382   -0.27148344726214885   -0.007136898301094613
-0.07120578341194639   -0.30273915614677405   -0.008569083026606963
-0.055159181250100525   -0.30420996980234805   -0.007733930380817025
-0.06492621256278382   -0.27148344726214885   -0.007136898301094613
-0.08502282265620349   -0.2702503661019704   -0.0073011816451227195
-0.07120578341194639   -0.30273915614677405   -0.008569083026606963
-0.08404307125667813   -0.27030051262666116   -0.006383954787035549
-0.055159181250100525   -0.30420996980234805   -0.007733930380817025
-0.0698417571480554   -0.3028389784323342   -0.007464268318191113
-0.08404307125667813   -0.27030051262666116   -0.006383954787035549
-0.07120578341194639   -0.30273915614677405   -0.008569083026606963
-0.055159181250100525   -0.30420996980234805   -0.007733930380817025
-0.08404307125667813   -0.27030051262666116   -0.006383954787035549
-0.06481958222668761   -0.271419824045065   -0.0065309136122520695
-0.06492621256278382   -0.27148344726214885   -0.007136898301094613
-0.055159181250100525   -0.30420996980234805   -0.007733930380817025
-0.08404307125667813   -0.27030051262666116   -0.006383954787035549
-0.06492621256278382   -0.27148344726214885   -0.007136898301094613
-0.07120578341194639   -0.30273915614677405   -0.008569083026606963
0.011136087196460778   -0.2729512245400607   -0.003985916232915251
0.01731902365022173   -0.23397920325626084   -0.0026534522073586955
-0.0085055568556446   -0.2734324879641329   -0.005326211649567753
0.011703102038012288   -0.2722528083018061   -0.004561321439252217
0.01731902365022173   -0.23397920325626084   -0.0026534522073586955
-0.005942179742017065   -0.23421280907050224   -0.003914709858665777
-0.0085055568556446   -0.2734324879641329   -0.005326211649567753
-0.006054421719461465   -0.23363252323736206   -0.004041024782753238
0.011703102038012288   -0.2722528083018061   -0.004561321439252217
-0.008453732785816175   -0.2728379193145381   -0.005563166391299635
-0.006054421719461465   -0.23363252323736206   -0.004041024782753238
-0.0085055568556446   -0.2734324879641329   -0.005326211649567753
0.011703102038012288   -0.2722528083018061   -0.004561321439252217
-0.006054421719461465   -0.23363252323736206   -0.004041024782753238
0.017537375473097926   -0.23330636456450607   -0.0030277359278015766
0.01731902365022173   -0.23397920325626084   -0.0026534522073586955
0.011703102038012288   -0.2722528083018061   -0.004561321439252217
-0.006054421719461465   -0.23363252323736206   -0.004041024782753238
0.01731902365022173   -0.23397920325626084   -0.0026534522073586955
-0.0085055568556446   -0.2734324879641329   -0.005326211649567753
0.011703102038012288   -0.2722528083018061   -0.004561321439252217
0.017537375473097926   -0.23330636456450607   -0.0030277359278015766
-0.008453732785816175   -0.2728379193145381   -0.005563166391299635
0.01206437254291616   -0.2717906304925196   -0.0050845656016357075
0.017537375473097926   -0.23330636456450607   -0.0030277359278015766
-0.006054421719461465   -0.23363252323736206   -0.004041024782753238
-0.008453732785816175   -0.2728379193145381   -0.005563166391299635
-0.0061727274681311365   -0.23317046138367892   -0.0041345088577324374
0.01206437254291616   -0.2717906304925196   -0.0050845656016357075
-0.00838805387375096   -0.27240363178089083   -0.00576318814938217
-0.0061727274681311365   -0.23317046138367892   -0.0041345088577324374
-0.008453732785816175   -0.2728379193145381   -0.005563166391299635
0.01206437254291616   -0.2717906304925196   -0.0050845656016357075
-0.0061727274681311365   -0.23317046138367892   -0.0041345088577324374
0.017599635364813022   -0.23281225991375984   -0.003353618560893082
0.017537375473097926   -0.23330636456450607   -0.0030277359278015766
0.01206437254291616   -0.2717906304925196   -0.0050845656016357075
-0.0061727274681311365   -0.23317046138367892   -0.0041345088577324374
0.017537375473097926   -0.23330636456450607   -0.0030277359278015766
-0.008453732785816175   -0.2728379193145381   -0.005563166391299635
0.01206437254291616   -0.2717906304925196   -0.0050845656016357075
0.017599635364813022   -0.23281225991375984   -0.003353618560893082
-0.00838805387375096   -0.27240363178089083   -0.00576318814938217
0.012433377730705918   -0.2714761603356051   -0.005556713857869803
0.017599635364813022   -0.23281225991375984   -0.003353618560893082
-0.0061727274681311365   -0.23317046138367892   -0.0041345088577324374
-0.00838805387375096   -0.27240363178089083   -0.00576318814938217
-0.006371616066936856   -0.23281233423455763   -0.00419627997124902
0.012433377730705918   -0.2714761603356051   -0.005556713857869803
-0.008422139988640323   -0.2721159109813955   -0.005928976137236424
-0.006371616066936856   -0.23281233423455763   -0.00419627997124902
-0.00838805387375096   -0.27240363178089083   -0.00576318814938217
0.012433377730705918   -0.2714761603356051   -0.005556713857869803
-0.006371616066936856   -0.23281233423455763   -0.00419627997124902
0.017629997032009417   -0.23241119121467935   -0.0036333730570121386
0.017599635364813022   -0.23281225991375984   -0.003353618560893082
0.012433377730705918   -0.2714761603356051   -0.005556713857869803
-0.006371616066936856   -0.23281233423455763   -0.00419627997124902
0.017599635364813022   -0.23281225991375984   -0.003353618560893082
-0.00838805387375096   -0.27240363178089083   -0.00576318814938217
-0.0085055568556446   -0.2734324879641329   -0.005326211649567753
-0.005942179742017065   -0.23421280907050224   -0.003914709858665777
-0.027394837836628397   -0.2734335394185794   -0.006434444321204183
-0.008453732785816175   -0.2728379193145381   -0.005563166391299635
-0.005942179742017065   -0.23421280907050224   -0.003914709858665777
-0.028230660386892613   -0.23408862884098938   -0.004956720276860828
-0.027394837836628397   -0.2734335394185794   -0.006434444321204183
-0.0283844514885015   -0.233602361420262   -0.004896511684599322
-0.008453732785816175   -0.2728379193145381   -0.005563166391299635
-0.02739799981652934   -0.27292955955393233   -0.006412158896391669
-0.0283844514885015   -0.233602361420262   -0.004896511684599322
-0.027394837836628397   -0.2734335394185794   -0.006434444321204183
-0.008453732785816175   -0.2728379193145381   -0.005563166391299635
-0.0283844514885015   -0.233602361420262   -0.004896511684599322
-0.006054421719461465   -0.23363252323736206   -0.004041024782753238
-0.005942179742017065   -0.23421280907050224   -0.003914709858665777
-0.008453732785816175   -0.2728379193145381   -0.005563166391299635
-0.0283844514885015   -0.233602361420262   -0.004896511684599322
-0.005942179742017065   -0.23421280907050224   -0.003914709858665777
-0.027394837836628397   -0.2734335394185794   -0.006434444321204183
-0.008453732785816175   -0.2728379193145381   -0.005563166391299635
-0.006054421719461465   -0.23363252323736206   -0.004041024782753238
-0.02739799981652934   -0.27292955955393233   -0.006412158896391669
-0.00838805387375096   -0.27240363178089083   -0.00576318814938217
-0.006054421719461465   -0.23363252323736206   -0.004041024782753238
-0.0283844514885015   -0.233602361420262   -0.004896511684599322
-0.02739799981652934   -0.27292955955393233   -0.006412158896391669
-0.028540336946455386   -0.23321747132665988   -0.004802537747072069
-0.00838805387375096   -0.27240363178089083   -0.00576318814938217
-0.027399942428269482   -0.27256692873264665   -0.006353118722934208
-0.028540336946455386   -0.23321747132665988   -0.004802537747072069
-0.02739799981652934   -0.27292955955393233   -0.006412158896391669
-0.00838805387375096   -0.27240363178089083   -0.00576318814938217
-0.028540336946455386   -0.23321747132665988   -0.004802537747072069
-0.0061727274681311365   -0.23317046138367892   -0.0041345088577324374
-0.006054421719461465   -0.23363252323736206   -0.004041024782753238
-0.00838805387375096   -0.27240363178089083   -0.00576318814938217
-0.028540336946455386   -0.23321747132665988   -0.004802537747072069
-0.006054421719461465   -0.23363252323736206   -0.004041024782753238
-0.02739799981652934   -0.27292955955393233   -0.006412158896391669
-0.00838805387375096   -0.27240363178089083   -0.00576318814938217
-0.0061727274681311365   -0.23317046138367892   -0.0041345088577324374
-0.027399942428269482   -0.27256692873264665   -0.006353118722934208
-0.008422139988640323   -0.2721159109813955   -0.005928976137236424
-0.0061727274681311365   -0.23317046138367892   -0.0041345088577324374
-0.028540336946455386   -0.23321747132665988   -0.004802537747072069
-0.027399942428269482   -0.27256692873264665   -0.006353118722934208
-0.02872022044379692   -0.23293569738066505   -0.004676384362612371
-0.008422139988640323   -0.2721159109813955   -0.005928976137236424
-0.02742722548726251   -0.27234588226533124   -0.006259185598537768
-0.02872022044379692   -0.23293569738066505   -0.004676384362612371
-0.027399942428269482   -0.27256692873264665   -0.006353118722934208
-0.008422139988640323   -0.2721159109813955   -0.005928976137236424
-0.02872022044379692   -0.23293569738066505   -0.004676384362612371
-0.006371616066936856   -0.23281233423455763   -0.00419627997124902
-0.0061727274681311365   -0.23317046138367892   -0.0041345088577324374
-0.008422139988640323   -0.2721159109813955   -0.005928976137236424
-0.02872022044379692   -0.23293569738066505   -0.004676384362612371
-0.0061727274681311365   -0.23317046138367892   -0.0041345088577324374
-0.027399942428269482   -0.27256692873264665   -0.006353118722934208
-0.027394837836628397   -0.2734335394185794   -0.006434444321204183
-0.028230660386892613   -0.23408862884098938   -0.004956720276860828
-0.045960453596774184   -0.27296451855349624   -0.007406121846267109
-0.02739799981652934   -0.27292955955393233   -0.006412158896391669
-0.028230660386892613   -0.23408862884098938   -0.004956720276860828
-0.050140485026825915   -0.23362788828310305   -0.005849894644518834
-0.045960453596774184   -0.27296451855349624   -0.007406121846267109
-0.05030599335638264   -0.23322732190162448   -0.005603980400740338
-0.02739799981652934   -0.27292955955393233   -0.006412158896391669
-0.04597749482410667   -0.272540417999181   -0.007127686245278046
-0.05030599335638264   -0.23322732190162448   -0.005603980400740338
-0.045960453596774184   -0.27296451855349624   -0.007406121846267109
-0.02739799981652934   -0.27292955955393233   -0.006412158896391669
-0.05030599335638264   -0.23322732190162448   -0.005603980400740338
-0.0283844514885015   -0.233602361420262   -0.004896511684599322
-0.028230660386892613   -0.23408862884098938   -0.004956720276860828
-0.02739799981652934   -0.27292955955393233   -0.006412158896391669
-0.05030599335638264   -0.23322732190162448   -0.005603980400740338
-0.028230660386892613   -0.23408862884098938   -0.004956720276860828
-0.045960453596774184   -0.27296451855349624   -0.007406121846267109
-0.02739799981652934   -0.27292955955393233   -0.006412158896391669
-0.0283844514885015   -0.233602361420262   -0.004896511684599322
-0.04597749482410667   -0.272540417999181   -0.007127686245278046
-0.027399942428269482   -0.27256692873264665   -0.006353118722934208
-0.0283844514885015   -0.233602361420262   -0.004896511684599322
-0.05030599335638264   -0.23322732190162448   -0.005603980400740338
-0.04597749482410667   -0.272540417999181   -0.007127686245278046
-0.05044341116778503   -0.232927158219188   -0.005324877909390179
-0.027399942428269482   -0.27256692873264665   -0.006353118722934208
-0.04596281730923862   -0.2722564118064779   -0.006813185530786415
-0.05044341116778503   -0.232927158219188   -0.005324877909390179
-0.04597749482410667   -0.272540417999181   -0.007127686245278046
-0.027399942428269482   -0.27256692873264665   -0.006353118722934208
-0.05044341116778503   -0.232927158219188   -0.005324877909390179
-0.028540336946455386   -0.23321747132665988   -0.004802537747072069
-0.0283844514885015   -0.233602361420262   -0.004896511684599322
-0.027399942428269482   -0.27256692873264665   -0.006353118722934208
-0.05044341116778503   -0.232927158219188   -0.005324877909390179
-0.0283844514885015   -0.233602361420262   -0.004896511684599322
-0.04597749482410667   -0.272540417999181   -0.007127686245278046
-0.027399942428269482   -0.27256692873264665   -0.006353118722934208
-0.028540336946455386   -0.23321747132665988   -0.004802537747072069
-0.04596281730923862   -0.2722564118064779   -0.006813185530786415
-0.02742722548726251   -0.27234588226533124   -0.006259185598537768
-0.028540336946455386   -0.23321747132665988   -0.004802537747072069
-0.05044341116778503   -0.232927158219188   -0.005324877909390179
-0.04596281730923862   -0.2722564118064779   -0.006813185530786415
-0.05058472857361985   -0.23272699157769733   -0.005013577642395682
-0.02742722548726251   -0.27234588226533124   -0.006259185598537768
-0.04595375261091175   -0.27210999521181894   -0.00646368294678944
-0.05058472857361985   -0.23272699157769733   -0.005013577642395682
-0.04596281730923862   -0.2722564118064779   -0.006813185530786415
-0.02742722548726251   -0.27234588226533124   -0.006259185598537768
-0.05058472857361985   -0.23272699157769733   -0.005013577642395682
-0.02872022044379692   -0.23293569738066505   -0.004676384362612371
-0.028540336946455386   -0.23321747132665988   -0.004802537747072069
-0.02742722548726251   -0.27234588226533124   -0.006259185598537768
-0.05058472857361985   -0.23272699157769733   -0.005013577642395682
-0.028540336946455386   -0.23321747132665988   -0.004802537747072069
-0.04596281730923862   -0.2722564118064779   -0.006813185530786415
-0.045960453596774184   -0.27296451855349624   -0.007406121846267109
-0.050140485026825915   -0.23362788828310305   -0.005849894644518834
-0.0651066207246886   -0.2720435319769012   -0.008242645126380298
-0.04597749482410667   -0.272540417999181   -0.007127686245278046
-0.050140485026825915   -0.23362788828310305   -0.005849894644518834
-0.07257166568106119   -0.2328399349760376   -0.006597281380515954
-0.0651066207246886   -0.2720435319769012   -0.008242645126380298
-0.07270934466310931   -0.23252327795209082   -0.006163173891735295
-0.04597749482410667   -0.272540417999181   -0.007127686245278046
-0.06508521151064757   -0.2716961756277645   -0.007705093931642938
-0.07270934466310931   -0.23252327795209082   -0.006163173891735295
-0.0651066207246886   -0.2720435319769012   -0.008242645126380298
-0.04597749482410667   -0.272540417999181   -0.007127686245278046
-0.07270934466310931   -0.23252327795209082   -0.006163173891735295
-0.05030599335638264   -0.23322732190162448   -0.005603980400740338
-0.050140485026825915   -0.23362788828310305   -0.005849894644518834
-0.04597749482410667   -0.272540417999181   -0.007127686245278046
-0.07270934466310931   -0.23252327795209082   -0.006163173891735295
-0.050140485026825915   -0.23362788828310305   -0.005849894644518834
-0.0651066207246886   -0.2720435319769012   -0.008242645126380298
-0.04597749482410667   -0.272540417999181   -0.007127686245278046
-0.05030599335638264   -0.23322732190162448   -0.005603980400740338
-0.06508521151064757   -0.2716961756277645   -0.007705093931642938
-0.04596281730923862   -0.2722564118064779   -0.006813185530786415
-0.05030599335638264   -0.23322732190162448   -0.005603980400740338
-0.07270934466310931   -0.23252327795209082   -0.006163173891735295
-0.06508521151064757   -0.2716961756277645   -0.007705093931642938
-0.07272954454196347   -0.23230055377953449   -0.005700477485640455
-0.04596281730923862   -0.2722564118064779   -0.006813185530786415
-0.06492621256278382   -0.27148344726214885   -0.007136898301094613
-0.07272954454196347   -0.23230055377953449   -0.005700477485640455
-0.06508521151064757   -0.2716961756277645   -0.007705093931642938
-0.04596281730923862   -0.2722564118064779   -0.006813185530786415
-0.07272954454196347   -0.23230055377953449   -0.005700477485640455
-0.05044341116778503   -0.232927158219188   -0.005324877909390179
-0.05030599335638264   -0.23322732190162448   -0.005603980400740338
-0.04596281730923862   -0.2722564118064779   -0.006813185530786415
-0.07272954454196347   -0.23230055377953449   -0.005700477485640455
-0.05030599335638264   -0.23322732190162448   -0.005603980400740338
-0.06508521151064757   -0.2716961756277645   -0.007705093931642938
-0.04596281730923862   -0.2722564118064779   -0.006813185530786415
-0.05044341116778503   -0.232927158219188   -0.005324877909390179
-0.06492621256278382   -0.27148344726214885   -0.007136898301094613
-0.04595375261091175   -0.27210999521181894   -0.00646368294678944
-0.05044341116778503   -0.232927158219188   -0.005324877909390179
-0.07272954454196347   -0.23230055377953449   -0.005700477485640455
-0.06492621256278382   -0.27148344726214885   -0.007136898301094613
-0.07278248806924525   -0.2321867556615115   -0.005203158974183872
-0.04595375261091175   -0.27210999521181894   -0.00646368294678944
-0.06481958222668761   -0.271419824045065   -0.0065309136122520695
-0.07278248806924525   -0.2321867556615115   -0.005203158974183872
-0.06492621256278382   -0.27148344726214885   -0.007136898301094613
-0.04595375261091175   -0.27210999521181894   -0.00646368294678944
-0.07278248806924525   -0.2321867556615115   -0.005203158974183872
-0.05058472857361985   -0.23272699157769733   -0.005013577642395682
-0.05044341116778503   -0.232927158219188   -0.005324877909390179
-0.04595375261091175   -0.27210999521181894   -0.00646368294678944
-0.07278248806924525   -0.2321867556615115   -0.005203158974183872
-0.05044341116778503   -0.232927158219188   -0.005324877909390179
-0.06492621256278382   -0.27148344726214885   -0.007136898301094613
-0.0651066207246886   -0.2720435319769012   -0.008242645126380298
-0.07257166568106119   -0.2328399349760376   -0.006597281380515954
-0.08649188372226976   -0.2707772788722406   -0.008995421195225539
-0.06508521151064757   -0.2716961756277645   -0.007705093931642938
-0.07257166568106119   -0.2328399349760376   -0.006597281380515954
-0.09702814523846498   -0.2318093306196787   -0.007235563166149493
-0.08649188372226976   -0.2707772788722406   -0.008995421195225539
-0.0965688789842374   -0.23152011092569272   -0.006603394425716119
-0.06508521151064757   -0.2716961756277645   -0.007705093931642938
-0.08570063724953468   -0.2704371423809808   -0.00817400246467602
-0.0965688789842374   -0.23152011092569272   -0.006603394425716119
-0.08649188372226976   -0.2707772788722406   -0.008995421195225539
-0.06508521151064757   -0.2716961756277645   -0.007705093931642938
-0.0965688789842374   -0.23152011092569272   -0.006603394425716119
-0.07270934466310931   -0.23252327795209082   -0.006163173891735295
-0.07257166568106119   -0.2328399349760376   -0.006597281380515954
-0.06508521151064757   -0.2716961756277645   -0.007705093931642938
-0.0965688789842374   -0.23152011092569272   -0.006603394425716119
-0.07257166568106119   -0.2328399349760376   -0.006597281380515954
-0.08649188372226976   -0.2707772788722406   -0.008995421195225539
-0.06508521151064757   -0.2716961756277645   -0.007705093931642938
-0.07270934466310931   -0.23252327795209082   -0.006163173891735295
-0.08570063724953468   -0.2704371423809808   -0.00817400246467602
-0.06492621256278382   -0.27148344726214885   -0.007136898301094613
-0.07270934466310931   -0.23252327795209082   -0.006163173891735295
-0.0965688789842374   -0.23152011092569272   -0.006603394425716119
-0.08570063724953468   -0.2704371423809808   -0.00817400246467602
-0.09618114481715952   -0.23133017088730268   -0.0059213731014704585
-0.06492621256278382   -0.27148344726214885   -0.007136898301094613
-0.08502282265620349   -0.2702503661019704   -0.0073011816451227195
-0.09618114481715952   -0.23133017088730268   -0.0059213731014704585
-0.08570063724953468   -0.2704371423809808   -0.00817400246467602
-0.06492621256278382   -0.27148344726214885   -0.007136898301094613
-0.09618114481715952   -0.23133017088730268   -0.0059213731014704585
-0.07272954454196347   -0.23230055377953449   -0.005700477485640455
-0.07270934466310931   -0.23252327795209082   -0.006163173891735295
-0.06492621256278382   -0.27148344726214885   -0.007136898301094613
-0.09618114481715952   -0.23133017088730268   -0.0059213731014704585
-0.07270934466310931   -0.23252327795209082   -0.006163173891735295
-0.08570063724953468   -0.2704371423809808   -0.00817400246467602
-0.06492621256278382   -0.27148344726214885   -0.007136898301094613
-0.07272954454196347   -0.23230055377953449   -0.005700477485640455
-0.08502282265620349   -0.2702503661019704   -0.0073011816451227195
-0.06481958222668761   -0.271419824045065   -0.0065309136122520695
-0.07272954454196347   -0.23230055377953449   -0.005700477485640455
-0.09618114481715952   -0.23133017088730268   -0.0059213731014704585
-0.08502282265620349   -0.2702503661019704   -0.0073011816451227195
-0.09553826425469542   -0.23132580098398306   -0.005195694943095735
-0.06481958222668761   -0.271419824045065   -0.0065309136122520695
-0.08404307125667813   -0.27030051262666116   -0.006383954787035549
-0.09553826425469542   -0.23132580098398306   -0.005195694943095735
-0.08502282265620349   -0.2702503661019704   -0.0073011816451227195
-0.06481958222668761   -0.271419824045065   -0.0065309136122520695
-0.09553826425469542   -0.23132580098398306   -0.005195694943095735
-0.07278248806924525   -0.2321867556615115   -0.005203158974183872
-0.07272954454196347   -0.23230055377953449   -0.005700477485640455
-0.06481958222668761   -0.271419824045065   -0.0065309136122520695
-0.09553826425469542   -0.23132580098398306   -0.005195694943095735
-0.07272954454196347   -0.23230055377953449   -0.005700477485640455
-0.08502282265620349   -0.2702503661019704   -0.0073011816451227195
0.01731902365022173   -0.23397920325626084   -0.0026534522073586955
0.020715036166425078   -0.19032532946266997   -0.0013462613455350974
-0.005942179742017065   -0.23421280907050224   -0.003914709858665777
0.017537375473097926   -0.23330636456450607   -0.0030277359278015766
0.020715036166425078   -0.19032532946266997   -0.0013462613455350974
-0.005068809285226417   -0.1903148309474728   -0.0025169789329454162
-0.005942179742017065   -0.23421280907050224   -0.003914709858665777
-0.0053031657677554585   -0.18975305526257108   -0.0025317387551877916
0.017537375473097926   -0.23330636456450607   -0.0030277359278015766
-0.006054421719461465   -0.23363252323736206   -0.004041024782753238
-0.0053031657677554585   -0.18975305526257108   -0.0025317387551877916
-0.005942179742017065   -0.23421280907050224   -0.003914709858665777
0.017537375473097926   -0.23330636456450607   -0.0030277359278015766
-0.0053031657677554585   -0.18975305526257108   -0.0025317387551877916
0.020631977421666867   -0.18968083808038186   -0.0015225361063453925
0.020715036166425078   -0.19032532946266997   -0.0013462613455350974
0.017537375473097926   -0.23330636456450607   -0.0030277359278015766
-0.0053031657677554585   -0.18975305526257108   -0.0025317387551877916
0.020715036166425078   -0.19032532946266997   -0.0013462613455350974
-0.005942179742017065   -0.23421280907050224   -0.003914709858665777
0.017537375473097926   -0.23330636456450607   -0.0030277359278015766
0.020631977421666867   -0.18968083808038186   -0.0015225361063453925
-0.006054421719461465   -0.23363252323736206   -0.004041024782753238
0.017599635364813022   -0.23281225991375984   -0.003353618560893082
0.020631977421666867   -0.18968083808038186   -0.0015225361063453925
-0.0053031657677554585   -0.18975305526257108   -0.0025317387551877916
-0.006054421719461465   -0.23363252323736206   -0.004041024782753238
-0.005563508518268259   -0.18926690544129526   -0.0025175257784350274
0.017599635364813022   -0.23281225991375984   -0.003353618560893082
-0.0061727274681311365   -0.23317046138367892   -0.0041345088577324374
-0.005563508518268259   -0.18926690544129526   -0.0025175257784350274
-0.006054421719461465   -0.23363252323736206   -0.004041024782753238
0.017599635364813022   -0.23281225991375984   -0.003353618560893082
-0.005563508518268259   -0.18926690544129526   -0.0025175257784350274
0.020439356800828562   -0.18915876502056633   -0.001652373588150567
0.020631977421666867   -0.18968083808038186   -0.0015225361063453925
0.017599635364813022   -0.23281225991375984   -0.003353618560893082
-0.005563508518268259   -0.18926690544129526   -0.0025175257784350274
0.020631977421666867   -0.18968083808038186   -0.0015225361063453925
-0.006054421719461465   -0.23363252323736206   -0.004041024782753238
0.017599635364813022   -0.23281225991375984   -0.003353618560893082
0.020439356800828562   -0.18915876502056633   -0.001652373588150567
-0.0061727274681311365   -0.23317046138367892   -0.0041345088577324374
0.017629997032009417   -0.23241119121467935   -0.0036333730570121386
0.020439356800828562   -0.18915876502056633   -0.001652373588150567
-0.005563508518268259   -0.18926690544129526   -0.0025175257784350274
-0.0061727274681311365   -0.23317046138367892   -0.0041345088577324374
-0.005885315323585845   -0.18884400039529023   -0.002473197820105823
0.017629997032009417   -0.23241119121467935   -0.0036333730570121386
-0.006371616066936856   -0.23281233423455763   -0.00419627997124902
-0.005885315323585845   -0.18884400039529023   -0.002473197820105823
-0.0061727274681311365   -0.23317046138367892   -0.0041345088577324374
0.017629997032009417   -0.23241119121467935   -0.0036333730570121386
-0.005885315323585845   -0.18884400039529023   -0.002473197820105823
0.02017171340271671   -0.18867553088573097   -0.0017390153409036536
0.020439356800828562   -0.18915876502056633   -0.001652373588150567
0.017629997032009417   -0.23241119121467935   -0.0036333730570121386
-0.005885315323585845   -0.18884400039529023   -0.002473197820105823
0.020439356800828562   -0.18915876502056633   -0.001652373588150567
-0.0061727274681311365   -0.23317046138367892   -0.0041345088577324374
-0.005942179742017065   -0.23421280907050224   -0.003914709858665777
-0.005068809285226417   -0.1903148309474728   -0.0025169789329454162
-0.028230660386892613   -0.23408862884098938   -0.004956720276860828
-0.006054421719461465   -0.23363252323736206   -0.004041024782753238
-0.005068809285226417   -0.1903148309474728   -0.0025169789329454162
-0.029657993147034007   -0.19008065211820097   -0.003487072147901774
-0.028230660386892613   -0.23408862884098938   -0.004956720276860828
-0.029918906108885528   -0.18961269109368722   -0.0033859678703963567
-0.006054421719461465   -0.23363252323736206   -0.004041024782753238
-0.0283844514885015   -0.233602361420262   -0.004896511684599322
-0.029918906108885528   -0.18961269109368722   -0.0033859678703963567
-0.028230660386892613   -0.23408862884098938   -0.004956720276860828
-0.006054421719461465   -0.23363252323736206   -0.004041024782753238
-0.029918906108885528   -0.18961269109368722   -0.0033859678703963567
-0.0053031657677554585   -0.18975305526257108   -0.0025317387551877916
-0.005068809285226417   -0.1903148309474728   -0.0025169789329454162
-0.006054421719461465   -0.23363252323736206   -0.004041024782753238
-0.029918906108885528   -0.18961269109368722   -0.0033859678703963567
-0.005068809285226417   -0.1903148309474728   -0.0025169789329454162
-0.028230660386892613   -0.23408862884098938   -0.004956720276860828
-0.006054421719461465   -0.23363252323736206   -0.004041024782753238
-0.0053031657677554585   -0.18975305526257108   -0.0025317387551877916
-0.0283844514885015   -0.233602361420262   -0.004896511684599322
-0.0061727274681311365   -0.23317046138367892   -0.0041345088577324374
-0.0053031657677554585   -0.18975305526257108   -0.0025317387551877916
-0.029918906108885528   -0.18961269109368722   -0.0033859678703963567
-0.0283844514885015   -0.233602361420262   -0.004896511684599322
-0.030184977346977462   -0.1892063044468166   -0.0032547195962990857
-0.0061727274681311365   -0.23317046138367892   -0.0041345088577324374
-0.028540336946455386   -0.23321747132665988   -0.004802537747072069
-0.030184977346977462   -0.1892063044468166   -0.0032547195962990857
-0.0283844514885015   -0.233602361420262   -0.004896511684599322
-0.0061727274681311365   -0.23317046138367892   -0.0041345088577324374
-0.030184977346977462   -0.1892063044468166   -0.0032547195962990857
-0.005563508518268259   -0.18926690544129526   -0.0025175257784350274
-0.0053031657677554585   -0.18975305526257108   -0.0025317387551877916
-0.0061727274681311365   -0.23317046138367892   -0.0041345088577324374
-0.030184977346977462   -0.1892063044468166   -0.0032547195962990857
-0.0053031657677554585   -0.18975305526257108   -0.0025317387551877916
-0.0283844514885015   -0.233602361420262   -0.004896511684599322
-0.0061727274681311365   -0.23317046138367892   -0.0041345088577324374
-0.005563508518268259   -0.18926690544129526   -0.0025175257784350274
-0.028540336946455386   -0.23321747132665988   -0.004802537747072069
-0.006371616066936856   -0.23281233423455763   -0.00419627997124902
-0.005563508518268259   -0.18926690544129526   -0.0025175257784350274
-0.030184977346977462   -0.1892063044468166   -0.0032547195962990857
-0.028540336946455386   -0.23321747132665988   -0.004802537747072069
-0.030473329455600853   -0.1888652236465619   -0.0030946998026087406
-0.006371616066936856   -0.23281233423455763   -0.00419627997124902
-0.02872022044379692   -0.23293569738066505   -0.004676384362612371
-0.030473329455600853   -0.1888652236465619   -0.0030946998026087406
-0.028540336946455386   -0.23321747132665988   -0.004802537747072069
-0.006371616066936856   -0.23281233423455763   -0.00419627997124902
-0.030473329455600853   -0.1888652236465619   -0.0030946998026087406
-0.005885315323585845   -0.18884400039529023   -0.002473197820105823
-0.005563508518268259   -0.18926690544129526   -0.0025175257784350274
-0.006371616066936856   -0.23281233423455763   -0.00419627997124902
-0.030473329455600853   -0.1888652236465619   -0.0030946998026087406
-0.005563508518268259   -0.18926690544129526   -0.0025175257784350274
-0.028540336946455386   -0.23321747132665988   -0.004802537747072069
-0.028230660386892613   -0.23408862884098938   -0.004956720276860828
-0.029657993147034007   -0.19008065211820097   -0.003487072147901774
-0.050140485026825915   -0.23362788828310305   -0.005849894644518834
-0.0283844514885015   -0.233602361420262   -0.004896511684599322
-0.029657993147034007   -0.19008065211820097   -0.003487072147901774
-0.05383120807851463   -0.18964713774901143   -0.004307649093176372
-0.050140485026825915   -0.23362788828310305   -0.005849894644518834
-0.05409936195613127   -0.18926592815507187   -0.004090767616218365
-0.0283844514885015   -0.233602361420262   -0.004896511684599322
-0.05030599335638264   -0.23322732190162448   -0.005603980400740338
-0.05409936195613127   -0.18926592815507187   -0.004090767616218365
-0.050140485026825915   -0.23362788828310305   -0.005849894644518834
-0.0283844514885015   -0.233602361420262   -0.004896511684599322
-0.05409936195613127   -0.18926592815507187   -0.004090767616218365
-0.029918906108885528   -0.18961269109368722   -0.0033859678703963567
-0.029657993147034007   -0.19008065211820097   -0.003487072147901774
-0.0283844514885015   -0.233602361420262   -0.004896511684599322
-0.05409936195613127   -0.18926592815507187   -0.004090767616218365
-0.029657993147034007   -0.19008065211820097   -0.003487072147901774
-0.050140485026825915   -0.23362788828310305   -0.005849894644518834
-0.0283844514885015   -0.233602361420262   -0.004896511684599322
-0.029918906108885528   -0.18961269109368722   -0.0033859678703963567
-0.05030599335638264   -0.23322732190162448   -0.005603980400740338
-0.028540336946455386   -0.23321747132665988   -0.004802537747072069
-0.029918906108885528   -0.18961269109368722   -0.0033859678703963567
-0.05409936195613127   -0.18926592815507187   -0.004090767616218365
-0.05030599335638264   -0.23322732190162448   -0.005603980400740338
-0.05434284367842938   -0.18894585643344872   -0.0038444315783358394
-0.028540336946455386   -0.23321747132665988   -0.004802537747072069
-0.05044341116778503   -0.232927158219188   -0.005324877909390179
-0.05434284367842938   -0.18894585643344872   -0.0038444315783358394
-0.05030599335638264   -0.23322732190162448   -0.005603980400740338
-0.028540336946455386   -0.23321747132665988   -0.004802537747072069
-0.05434284367842938   -0.18894585643344872   -0.0038444315783358394
-0.030184977346977462   -0.1892063044468166   -0.0032547195962990857
-0.029918906108885528   -0.18961269109368722   -0.0033859678703963567
-0.028540336946455386   -0.23321747132665988   -0.004802537747072069
-0.05434284367842938   -0.18894585643344872   -0.0038444315783358394
-0.029918906108885528   -0.18961269109368722   -0.0033859678703963567
-0.05030599335638264   -0.23322732190162448   -0.005603980400740338
-0.028540336946455386   -0.23321747132665988   -0.004802537747072069
-0.030184977346977462   -0.1892063044468166   -0.0032547195962990857
-0.05044341116778503   -0.232927158219188   -0.005324877909390179
-0.02872022044379692   -0.23293569738066505   -0.004676384362612371
-0.030184977346977462   -0.1892063044468166   -0.0032547195962990857
-0.05434284367842938   -0.18894585643344872   -0.0038444315783358394
-0.05044341116778503   -0.232927158219188   -0.005324877909390179
-0.054588604518870876   -0.18868749308042956   -0.003569779703377866
-0.02872022044379692   -0.23293569738066505   -0.004676384362612371
-0.05058472857361985   -0.23272699157769733   -0.005013577642395682
-0.054588604518870876   -0.18868749308042956   -0.003569779703377866
-0.05044341116778503   -0.232927158219188   -0.005324877909390179
-0.02872022044379692   -0.23293569738066505   -0.004676384362612371
-0.054588604518870876   -0.18868749308042956   -0.003569779703377866
-0.030473329455600853   -0.1888652236465619   -0.0030946998026087406
-0.030184977346977462   -0.1892063044468166   -0.0032547195962990857
-0.02872022044379692   -0.23293569738066505   -0.004676384362612371
-0.054588604518870876   -0.18868749308042956   -0.003569779703377866
-0.030184977346977462   -0.1892063044468166   -0.0032547195962990857
-0.05044341116778503   -0.232927158219188   -0.005324877909390179
-0.050140485026825915   -0.23362788828310305   -0.005849894644518834
-0.05383120807851463   -0.18964713774901143   -0.004307649093176372
-0.07257166568106119   -0.2328399349760376   -0.006597281380515954
-0.05030599335638264   -0.23322732190162448   -0.005603980400740338
-0.05383120807851463   -0.18964713774901143   -0.004307649093176372
-0.07848223193935852   -0.1890049960773361   -0.004980298616247324
-0.07257166568106119   -0.2328399349760376   -0.006597281380515954
-0.07873164044424277   -0.18871139496007958   -0.0046467769459663105
-0.05030599335638264   -0.23322732190162448   -0.005603980400740338
-0.07270934466310931   -0.23252327795209082   -0.006163173891735295
-0.07873164044424277   -0.18871139496007958   -0.0046467769459663105
-0.07257166568106119   -0.2328399349760376   -0.006597281380515954
-0.05030599335638264   -0.23322732190162448   -0.005603980400740338
-0.07873164044424277   -0.18871139496007958   -0.0046467769459663105
-0.05409936195613127   -0.18926592815507187   -0.004090767616218365
-0.05383120807851463   -0.18964713774901143   -0.004307649093176372
-0.05030599335638264   -0.23322732190162448   -0.005603980400740338
-0.07873164044424277   -0.18871139496007958   -0.0046467769459663105
-0.05383120807851463   -0.18964713774901143   -0.004307649093176372
-0.07257166568106119   -0.2328399349760376   -0.006597281380515954
-0.05030599335638264   -0.23322732190162448   -0.005603980400740338
-0.05409936195613127   -0.18926592815507187   -0.004090767616218365
-0.07270934466310931   -0.23252327795209082   -0.006163173891735295
-0.05044341116778503   -0.232927158219188   -0.005324877909390179
-0.05409936195613127   -0.18926592815507187   -0.004090767616218365
-0.07873164044424277   -0.18871139496007958   -0.0046467769459663105
-0.07270934466310931   -0.23252327795209082   -0.006163173891735295
-0.07888434203214245   -0.18847079855998367   -0.00428781024470444
-0.05044341116778503   -0.232927158219188   -0.005324877909390179
-0.07272954454196347   -0.23230055377953449   -0.005700477485640455
-0.07888434203214245   -0.18847079855998367   -0.00428781024470444
-0.07270934466310931   -0.23252327795209082   -0.006163173891735295
-0.05044341116778503   -0.232927158219188   -0.005324877909390179
-0.07888434203214245   -0.18847079855998367   -0.00428781024470444
-0.05434284367842938   -0.18894585643344872   -0.0038444315783358394
-0.05409936195613127   -0.18926592815507187   -0.004090767616218365
-0.05044341116778503   -0.232927158219188   -0.005324877909390179
-0.07888434203214245   -0.18847079855998367   -0.00428781024470444
-0.05409936195613127   -0.18926592815507187   -0.004090767616218365
-0.07270934466310931   -0.23252327795209082   -0.006163173891735295
-0.05044341116778503   -0.232927158219188   -0.005324877909390179
-0.05434284367842938   -0.18894585643344872   -0.0038444315783358394
-0.07272954454196347   -0.23230055377953449   -0.005700477485640455
-0.05058472857361985   -0.23272699157769733   -0.005013577642395682
-0.05434284367842938   -0.18894585643344872   -0.0038444315783358394
-0.07888434203214245   -0.18847079855998367   -0.00428781024470444
-0.07272954454196347   -0.23230055377953449   -0.005700477485640455
-0.07905121871201766   -0.1882971819262662   -0.00389812062970536
-0.05058472857361985   -0.23272699157769733   -0.005013577642395682
-0.07278248806924525   -0.2321867556615115   -0.005203158974183872
-0.07905121871201766   -0.1882971819262662   -0.00389812062970536
-0.07272954454196347   -0.23230055377953449   -0.005700477485640455
-0.05058472857361985   -0.23272699157769733   -0.005013577642395682
-0.07905121871201766   -0.1882971819262662   -0.00389812062970536
-0.054588604518870876   -0.18868749308042956   -0.003569779703377866
-0.05434284367842938   -0.18894585643344872   -0.0038444315783358394
-0.05058472857361985   -0.23272699157769733   -0.005013577642395682
-0.07905121871201766   -0.1882971819262662   -0.00389812062970536
-0.05434284367842938   -0.18894585643344872   -0.0038444315783358394
-0.07272954454196347   -0.23230055377953449   -0.005700477485640455
-0.07257166568106119   -0.2328399349760376   -0.006597281380515954
-0.07848223193935852   -0.1890049960773361   -0.004980298616247324
-0.09702814523846498   -0.2318093306196787   -0.007235563166149493
-0.07270934466310931   -0.23252327795209082   -0.006163173891735295
-0.07848223193935852   -0.1890049960773361   -0.004980298616247324
-0.10493129416229001   -0.18821784817835496   -0.005516567551174671
-0.09702814523846498   -0.2318093306196787   -0.007235563166149493
-0.10475804850109899   -0.1879694493037159   -0.005073975898937773
-0.07270934466310931   -0.23252327795209082   -0.006163173891735295
-0.0965688789842374   -0.23152011092569272   -0.006603394425716119
-0.10475804850109899   -0.1879694493037159   -0.005073975898937773
-0.09702814523846498   -0.2318093306196787   -0.007235563166149493
-0.07270934466310931   -0.23252327795209082   -0.006163173891735295
-0.10475804850109899   -0.1879694493037159   -0.005073975898937773
-0.07873164044424277   -0.18871139496007958   -0.0046467769459663105
-0.07848223193935852   -0.1890049960773361   -0.004980298616247324
-0.07270934466310931   -0.23252327795209082   -0.006163173891735295
-0.10475804850109899   -0.1879694493037159   -0.005073975898937773
-0.07848223193935852   -0.1890049960773361   -0.004980298616247324
-0.09702814523846498   -0.2318093306196787   -0.007235563166149493
-0.07270934466310931   -0.23252327795209082   -0.006163173891735295
-0.07873164044424277   -0.18871139496007958   -0.0046467769459663105
-0.0965688789842374   -0.23152011092569272   -0.006603394425716119
-0.07272954454196347   -0.23230055377953449   -0.005700477485640455
-0.07873164044424277   -0.18871139496007958   -0.0046467769459663105
-0.10475804850109899   -0.1879694493037159   -0.005073975898937773
-0.0965688789842374   -0.23152011092569272   -0.006603394425716119
-0.10461698795336975   -0.18776625969113223   -0.004584700039162191
-0.07272954454196347   -0.23230055377953449   -0.005700477485640455
-0.09618114481715952   -0.23133017088730268   -0.0059213731014704585
-0.10461698795336975   -0.18776625969113223   -0.004584700039162191
-0.0965688789842374   -0.23152011092569272   -0.006603394425716119
-0.07272954454196347   -0.23230055377953449   -0.005700477485640455
-0.10461698795336975   -0.18776625969113223   -0.004584700039162191
-0.07888434203214245   -0.18847079855998367   -0.00428781024470444
-0.07873164044424277   -0.18871139496007958   -0.0046467769459663105
-0.07272954454196347   -0.23230055377953449   -0.005700477485640455
-0.10461698795336975   -0.18776625969113223   -0.004584700039162191
-0.07873164044424277   -0.18871139496007958   -0.0046467769459663105
-0.0965688789842374   -0.23152011092569272   -0.006603394425716119
-0.07272954454196347   -0.23230055377953449   -0.005700477485640455
-0.07888434203214245   -0.18847079855998367   -0.00428781024470444
-0.09618114481715952   -0.23133017088730268   -0.0059213731014704585
-0.07278248806924525   -0.2321867556615115   -0.005203158974183872
-0.07888434203214245   -0.18847079855998367   -0.00428781024470444
-0.10461698795336975   -0.18776625969113223   -0.004584700039162191
-0.09618114481715952   -0.23133017088730268   -0.0059213731014704585
-0.10426979586116099   -0.18769379843080744   -0.004054075680279833
-0.07278248806924525   -0.2321867556615115   -0.005203158974183872
-0.09553826425469542   -0.23132580098398306   -0.005195694943095735
-0.10426979586116099   -0.18769379843080744   -0.004054075680279833
-0.09618114481715952   -0.23133017088730268   -0.0059213731014704585
-0.07278248806924525   -0.2321867556615115   -0.005203158974183872
-0.10426979586116099   -0.18769379843080744   -0.004054075680279833
-0.07905121871201766   -0.1882971819262662   -0.00389812062970536
-0.07888434203214245   -0.18847079855998367   -0.00428781024470444
-0.07278248806924525   -0.2321867556615115   -0.005203158974183872
-0.10426979586116099   -0.18769379843080744   -0.004054075680279833
-0.07888434203214245   -0.18847079855998367   -0.00428781024470444
-0.09618114481715952   -0.23133017088730268   -0.0059213731014704585
0.020715036166425078   -0.19032532946266997   -0.0013462613455350974
0.02133706292010584   -0.14372716369576366   -0.0002003492893185901
-0.005068809285226417   -0.1903148309474728   -0.0025169789329454162
0.020631977421666867   -0.18968083808038186   -0.0015225361063453925
0.02133706292010584   -0.14372716369576366   -0.0002003492893185901
-0.005872773701577464   -0.14348317841512304   -0.0012551895560005523
-0.005068809285226417   -0.1903148309474728   -0.0025169789329454162
-0.006192719650699127   -0.142944753893233   -0.0011589445913648597
0.020631977421666867   -0.18968083808038186   -0.0015225361063453925
-0.0053031657677554585   -0.18975305526257108   -0.0025317387551877916
-0.006192719650699127   -0.142944753893233   -0.0011589445913648597
-0.005068809285226417   -0.1903148309474728   -0.0025169789329454162
0.020631977421666867   -0.18968083808038186   -0.0015225361063453925
-0.006192719650699127   -0.142944753893233   -0.0011589445913648597
0.02099278666663905   -0.1431116125975816   -0.00017593838576921222
0.02133706292010584   -0.14372716369576366   -0.0002003492893185901
0.020631977421666867   -0.18968083808038186   -0.0015225361063453925
-0.006192719650699127   -0.142944753893233   -0.0011589445913648597
0.02133706292010584   -0.14372716369576366   -0.0002003492893185901
-0.005068809285226417   -0.1903148309474728   -0.0025169789329454162
0.020631977421666867   -0.18968083808038186   -0.0015225361063453925
0.02099278666663905   -0.1431116125975816   -0.00017593838576921222
-0.0053031657677554585   -0.18975305526257108   -0.0025317387551877916
0.020439356800828562   -0.18915876502056633   -0.001652373588150567
0.02099278666663905   -0.1431116125975816   -0.00017593838576921222
-0.006192719650699127   -0.142944753893233   -0.0011589445913648597
-0.0053031657677554585   -0.18975305526257108   -0.0025317387551877916
-0.006558642461695736   -0.14243468951479307   -0.0010365528052393204
0.020439356800828562   -0.18915876502056633   -0.001652373588150567
-0.005563508518268259   -0.18926690544129526   -0.0025175257784350274
-0.006558642461695736   -0.14243468951479307   -0.0010365528052393204
-0.0053031657677554585   -0.18975305526257108   -0.0025317387551877916
0.020439356800828562   -0.18915876502056633   -0.001652373588150567
-0.006558642461695736   -0.14243468951479307   -0.0010365528052393204
0.020573888801320175   -0.14255872292831914   -9.801785203019967e-05
0.02099278666663905   -0.1431116125975816   -0.00017593838576921222
0.020439356800828562   -0.18915876502056633   -0.001652373588150567
-0.006558642461695736   -0.14243468951479307   -0.0010365528052393204
0.02099278666663905   -0.1431116125975816   -0.00017593838576921222
-0.0053031657677554585   -0.18975305526257108   -0.0025317387551877916
0.020439356800828562   -0.18915876502056633   -0.001652373588150567
0.020573888801320175   -0.14255872292831914   -9.801785203019967e-05
-0.005563508518268259   -0.18926690544129526   -0.0025175257784350274
0.02017171340271671   -0.18867553088573097   -0.0017390153409036536
0.020573888801320175   -0.14255872292831914   -9.801785203019967e-05
-0.006558642461695736   -0.14243468951479307   -0.0010365528052393204
-0.005563508518268259   -0.18926690544129526   -0.0025175257784350274
-0.006968434620957087   -0.14194610127215151   -0.0008814433285235404
0.02017171340271671   -0.18867553088573097   -0.0017390153409036536
-0.005885315323585845   -0.18884400039529023   -0.002473197820105823
-0.006968434620957087   -0.14194610127215151   -0.0008814433285235404
-0.005563508518268259   -0.18926690544129526   -0.0025175257784350274
0.02017171340271671   -0.18867553088573097   -0.0017390153409036536
-0.006968434620957087   -0.14194610127215151   -0.0008814433285235404
0.02002267561889207   -0.14197894589521576   3.0964736435786454e-05
0.020573888801320175   -0.14255872292831914   -9.801785203019967e-05
0.02017171340271671   -0.18867553088573097   -0.0017390153409036536
-0.006968434620957087   -0.14194610127215151   -0.0008814433285235404
0.020573888801320175   -0.14255872292831914   -9.801785203019967e-05
-0.005563508518268259   -0.18926690544129526   -0.0025175257784350274
-0.005068809285226417   -0.1903148309474728   -0.0025169789329454162
-0.005872773701577464   -0.14348317841512304   -0.0012551895560005523
-0.029657993147034007   -0.19008065211820097   -0.003487072147901774
-0.0053031657677554585   -0.18975305526257108   -0.0025317387551877916
-0.005872773701577464   -0.14348317841512304   -0.0012551895560005523
-0.03165675057646431   -0.14320363848910403   -0.0021518845986691474
-0.029657993147034007   -0.19008065211820097   -0.003487072147901774
-0.03198189558647822   -0.14275154419870023   -0.0020075452393503485
-0.0053031657677554585   -0.18975305526257108   -0.0025317387551877916
-0.029918906108885528   -0.18961269109368722   -0.0033859678703963567
-0.03198189558647822   -0.14275154419870023   -0.0020075452393503485
-0.029657993147034007   -0.19008065211820097   -0.003487072147901774
-0.0053031657677554585   -0.18975305526257108   -0.0025317387551877916
-0.03198189558647822   -0.14275154419870023   -0.0020075452393503485
-0.006192719650699127   -0.142944753893233   -0.0011589445913648597
-0.005872773701577464   -0.14348317841512304   -0.0012551895560005523
-0.0053031657677554585   -0.18975305526257108   -0.0025317387551877916
-0.03198189558647822   -0.14275154419870023   -0.0020075452393503485
-0.005872773701577464   -0.14348317841512304   -0.0012551895560005523
-0.029657993147034007   -0.19008065211820097   -0.003487072147901774
-0.0053031657677554585   -0.18975305526257108   -0.0025317387551877916
-0.006192719650699127   -0.142944753893233   -0.0011589445913648597
-0.029918906108885528   -0.18961269109368722   -0.0033859678703963567
-0.005563508518268259   -0.18926690544129526   -0.0025175257784350274
-0.006192719650699127   -0.142944753893233   -0.0011589445913648597
-0.03198189558647822   -0.14275154419870023   -0.0020075452393503485
-0.029918906108885528   -0.18961269109368722   -0.0033859678703963567
-0.03231417326824564   -0.14232150565834836   -0.0018383568906723104
-0.005563508518268259   -0.18926690544129526   -0.0025175257784350274
-0.030184977346977462   -0.1892063044468166   -0.0032547195962990857
-0.03231417326824564   -0.14232150565834836   -0.0018383568906723104
-0.029918906108885528   -0.18961269109368722   -0.0033859678703963567
-0.005563508518268259   -0.18926690544129526   -0.0025175257784350274
-0.03231417326824564   -0.14232150565834836   -0.0018383568906723104
-0.006558642461695736   -0.14243468951479307   -0.0010365528052393204
-0.006192719650699127   -0.142944753893233   -0.0011589445913648597
-0.005563508518268259   -0.18926690544129526   -0.0025175257784350274
-0.03231417326824564   -0.14232150565834836   -0.0018383568906723104
-0.006192719650699127   -0.142944753893233   -0.0011589445913648597
-0.029918906108885528   -0.18961269109368722   -0.0033859678703963567
-0.005563508518268259   -0.18926690544129526   -0.0025175257784350274
-0.006558642461695736   -0.14243468951479307   -0.0010365528052393204
-0.030184977346977462   -0.1892063044468166   -0.0032547195962990857
-0.005885315323585845   -0.18884400039529023   -0.002473197820105823
-0.006558642461695736   -0.14243468951479307   -0.0010365528052393204
-0.03231417326824564   -0.14232150565834836   -0.0018383568906723104
-0.030184977346977462   -0.1892063044468166   -0.0032547195962990857
-0.03266735079821583   -0.14191997184673633   -0.001643997996925074
-0.005885315323585845   -0.18884400039529023   -0.002473197820105823
-0.030473329455600853   -0.1888652236465619   -0.0030946998026087406
-0.03266735079821583   -0.14191997184673633   -0.001643997996925074
-0.030184977346977462   -0.1892063044468166   -0.0032547195962990857
-0.005885315323585845   -0.18884400039529023   -0.002473197820105823
-0.03266735079821583   -0.14191997184673633   -0.001643997996925074
-0.006968434620957087   -0.14194610127215151   -0.0008814433285235404
-0.006558642461695736   -0.14243468951479307   -0.0010365528052393204
-0.005885315323585845   -0.18884400039529023   -0.002473197820105823
-0.03266735079821583   -0.14191997184673633   -0.001643997996925074
-0.006558642461695736   -0.14243468951479307   -0.0010365528052393204
-0.030184977346977462   -0.1892063044468166   -0.0032547195962990857
-0.029657993147034007   -0.19008065211820097   -0.003487072147901774
-0.03165675057646431   -0.14320363848910403   -0.0021518845986691474
-0.05383120807851463   -0.18964713774901143   -0.004307649093176372
-0.029918906108885528   -0.18961269109368722   -0.0033859678703963567
-0.03165675057646431   -0.14320363848910403   -0.0021518845986691474
-0.05702378302061128   -0.14287062932304237   -0.00291576961751966
-0.05383120807851463   -0.18964713774901143   -0.004307649093176372
-0.05734609102422872   -0.14249880260129816   -0.0027231789568770964
-0.029918906108885528   -0.18961269109368722   -0.0033859678703963567
-0.05409936195613127   -0.18926592815507187   -0.004090767616218365
-0.05734609102422872   -0.14249880260129816   -0.0027231789568770964
-0.05383120807851463   -0.18964713774901143   -0.004307649093176372
-0.029918906108885528   -0.18961269109368722   -0.0033859678703963567
-0.05734609102422872   -0.14249880260129816   -0.0027231789568770964
-0.03198189558647822   -0.14275154419870023   -0.0020075452393503485
-0.03165675057646431   -0.14320363848910403   -0.0021518845986691474
-0.029918906108885528   -0.18961269109368722   -0.0033859678703963567
-0.05734609102422872   -0.14249880260129816   -0.0027231789568770964
-0.03165675057646431   -0.14320363848910403   -0.0021518845986691474
-0.05383120807851463   -0.18964713774901143   -0.004307649093176372
-0.029918906108885528   -0.18961269109368722   -0.0033859678703963567
-0.03198189558647822   -0.14275154419870023   -0.0020075452393503485
-0.05409936195613127   -0.18926592815507187   -0.004090767616218365
-0.030184977346977462   -0.1892063044468166   -0.0032547195962990857
-0.03198189558647822   -0.14275154419870023   -0.0020075452393503485
-0.05734609102422872   -0.14249880260129816   -0.0027231789568770964
-0.05409936195613127   -0.18926592815507187   -0.004090767616218365
-0.05764768329514588   -0.14215037150446722   -0.002506592163504177
-0.030184977346977462   -0.1892063044468166   -0.0032547195962990857
-0.05434284367842938   -0.18894585643344872   -0.0038444315783358394
-0.05764768329514588   -0.14215037150446722   -0.002506592163504177
-0.05409936195613127   -0.18926592815507187   -0.004090767616218365
-0.030184977346977462   -0.1892063044468166   -0.0032547195962990857
-0.05764768329514588   -0.14215037150446722   -0.002506592163504177
-0.03231417326824564   -0.14232150565834836   -0.0018383568906723104
-0.03198189558647822   -0.14275154419870023   -0.0020075452393503485
-0.030184977346977462   -0.1892063044468166   -0.0032547195962990857
-0.05764768329514588   -0.14215037150446722   -0.002506592163504177
-0.03198189558647822   -0.14275154419870023   -0.0020075452393503485
-0.05409936195613127   -0.18926592815507187   -0.004090767616218365
-0.030184977346977462   -0.1892063044468166   -0.0032547195962990857
-0.03231417326824564   -0.14232150565834836   -0.0018383568906723104
-0.05434284367842938   -0.18894585643344872   -0.0038444315783358394
-0.030473329455600853   -0.1888652236465619   -0.0030946998026087406
-0.03231417326824564   -0.14232150565834836   -0.0018383568906723104
-0.05764768329514588   -0.14215037150446722   -0.002506592163504177
-0.05434284367842938   -0.18894585643344872   -0.0038444315783358394
-0.057950349821959846   -0.14182633398495023   -0.0022672135803236005
-0.030473329455600853   -0.1888652236465619   -0.0030946998026087406
-0.054588604518870876   -0.18868749308042956   -0.003569779703377866
-0.057950349821959846   -0.14182633398495023   -0.0022672135803236005
-0.05434284367842938   -0.18894585643344872   -0.0038444315783358394
-0.030473329455600853   -0.1888652236465619   -0.0030946998026087406
-0.057950349821959846   -0.14182633398495023   -0.0022672135803236005
-0.03266735079821583   -0.14191997184673633   -0.001643997996925074
-0.03231417326824564   -0.14232150565834836   -0.0018383568906723104
-0.030473329455600853   -0.1888652236465619   -0.0030946998026087406
-0.057950349821959846   -0.14182633398495023   -0.0022672135803236005
-0.03231417326824564   -0.14232150565834836   -0.0018383568906723104
-0.05434284367842938   -0.18894585643344872   -0.0038444315783358394
-0.05383120807851463   -0.18964713774901143   -0.004307649093176372
-0.05702378302061128   -0.14287062932304237   -0.00291576961751966
-0.07848223193935852   -0.1890049960773361   -0.004980298616247324
-0.05409936195613127   -0.18926592815507187   -0.004090767616218365
-0.05702378302061128   -0.14287062932304237   -0.00291576961751966
-0.0828474967732405   -0.1424218691856611   -0.0035403531281264005
-0.07848223193935852   -0.1890049960773361   -0.004980298616247324
-0.0831563374008356   -0.14213452303337384   -0.0033000743656060646
-0.05409936195613127   -0.18926592815507187   -0.004090767616218365
-0.07873164044424277   -0.18871139496007958   -0.0046467769459663105
-0.0831563374008356   -0.14213452303337384   -0.0033000743656060646
-0.07848223193935852   -0.1890049960773361   -0.004980298616247324
-0.05409936195613127   -0.18926592815507187   -0.004090767616218365
-0.0831563374008356   -0.14213452303337384   -0.0033000743656060646
-0.05734609102422872   -0.14249880260129816   -0.0027231789568770964
-0.05702378302061128   -0.14287062932304237   -0.00291576961751966
-0.05409936195613127   -0.18926592815507187   -0.004090767616218365
-0.0831563374008356   -0.14213452303337384   -0.0033000743656060646
-0.05702378302061128   -0.14287062932304237   -0.00291576961751966
-0.07848223193935852   -0.1890049960773361   -0.004980298616247324
-0.05409936195613127   -0.18926592815507187   -0.004090767616218365
-0.05734609102422872   -0.14249880260129816   -0.0027231789568770964
-0.07873164044424277   -0.18871139496007958   -0.0046467769459663105
-0.05434284367842938   -0.18894585643344872   -0.0038444315783358394
-0.05734609102422872   -0.14249880260129816   -0.0027231789568770964
-0.0831563374008356   -0.14213452303337384   -0.0033000743656060646
-0.07873164044424277   -0.18871139496007958   -0.0046467769459663105
-0.08339159650890454   -0.14186111303516663   -0.0030398338796912786
-0.05434284367842938   -0.18894585643344872   -0.0038444315783358394
-0.07888434203214245   -0.18847079855998367   -0.00428781024470444
-0.08339159650890454   -0.14186111303516663   -0.0030398338796912786
-0.07873164044424277   -0.18871139496007958   -0.0046467769459663105
-0.05434284367842938   -0.18894585643344872   -0.0038444315783358394
-0.08339159650890454   -0.14186111303516663   -0.0030398338796912786
-0.05764768329514588   -0.14215037150446722   -0.002506592163504177
-0.05734609102422872   -0.14249880260129816   -0.0027231789568770964
-0.05434284367842938   -0.18894585643344872   -0.0038444315783358394
-0.08339159650890454   -0.14186111303516663   -0.0030398338796912786
-0.05734609102422872   -0.14249880260129816   -0.0027231789568770964
-0.07873164044424277   -0.18871139496007958   -0.0046467769459663105
-0.05434284367842938   -0.18894585643344872   -0.0038444315783358394
-0.05764768329514588   -0.14215037150446722   -0.002506592163504177
-0.07888434203214245   -0.18847079855998367   -0.00428781024470444
-0.054588604518870876   -0.18868749308042956   -0.003569779703377866
-0.05764768329514588   -0.14215037150446722   -0.002506592163504177
-0.08339159650890454   -0.14186111303516663   -0.0030398338796912786
-0.07888434203214245   -0.18847079855998367   -0.00428781024470444
-0.08362475609478293   -0.14161335492234228   -0.0027543584648820666
-0.054588604518870876   -0.18868749308042956   -0.003569779703377866
-0.07905121871201766   -0.1882971819262662   -0.00389812062970536
-0.08362475609478293   -0.14161335492234228   -0.0027543584648820666
-0.07888434203214245   -0.18847079855998367   -0.00428781024470444
-0.054588604518870876   -0.18868749308042956   -0.003569779703377866
-0.08362475609478293   -0.14161335492234228   -0.0027543584648820666
-0.057950349821959846   -0.14182633398495023   -0.0022672135803236005
-0.05764768329514588   -0.14215037150446722   -0.002506592163504177
-0.054588604518870876   -0.18868749308042956   -0.003569779703377866
-0.08362475609478293   -0.14161335492234228   -0.0027543584648820666
-0.05764768329514588   -0.14215037150446722   -0.002506592163504177
-0.07888434203214245   -0.18847079855998367   -0.00428781024470444
-0.07848223193935852   -0.1890049960773361   -0.004980298616247324
-0.0828474967732405   -0.1424218691856611   -0.0035403531281264005
-0.10493129416229001   -0.18821784817835496   -0.005516567551174671
-0.07873164044424277   -0.18871139496007958   -0.0046467769459663105
-0.0828474967732405   -0.1424218691856611   -0.0035403531281264005
-0.11020606736727795   -0.1418941645302671   -0.00400700717604666
-0.10493129416229001   -0.18821784817835496   -0.005516567551174671
-0.1102597672539276   -0.14166307170569536   -0.003743604673654911
-0.07873164044424277   -0.18871139496007958   -0.0046467769459663105
-0.10475804850109899   -0.1879694493037159   -0.005073975898937773
-0.1102597672539276   -0.14166307170569536   -0.003743604673654911
-0.10493129416229001   -0.18821784817835496   -0.005516567551174671
-0.07873164044424277   -0.18871139496007958   -0.0046467769459663105
-0.1102597672539276   -0.14166307170569536   -0.003743604673654911
-0.0831563374008356   -0.14213452303337384   -0.0033000743656060646
-0.0828474967732405   -0.1424218691856611   -0.0035403531281264005
-0.07873164044424277   -0.18871139496007958   -0.0046467769459663105
-0.1102597672539276   -0.14166307170569536   -0.003743604673654911
-0.0828474967732405   -0.1424218691856611   -0.0035403531281264005
-0.10493129416229001   -0.18821784817835496   -0.005516567551174671
-0.07873164044424277   -0.18871139496007958   -0.0046467769459663105
-0.0831563374008356   -0.14213452303337384   -0.0033000743656060646
-0.10475804850109899   -0.1879694493037159   -0.005073975898937773
-0.07888434203214245   -0.18847079855998367   -0.00428781024470444
-0.0831563374008356   -0.14213452303337384   -0.0033000743656060646
-0.1102597672539276   -0.14166307170569536   -0.003743604673654911
-0.10475804850109899   -0.1879694493037159   -0.005073975898937773
-0.11031387044891235   -0.1414281655538871   -0.0034399263997123442
-0.07888434203214245   -0.18847079855998367   -0.00428781024470444
-0.10461698795336975   -0.18776625969113223   -0.004584700039162191
-0.11031387044891235   -0.1414281655538871   -0.0034399263997123442
-0.10475804850109899   -0.1879694493037159   -0.005073975898937773
-0.07888434203214245   -0.18847079855998367   -0.00428781024470444
-0.11031387044891235   -0.1414281655538871   -0.0034399263997123442
-0.08339159650890454   -0.14186111303516663   -0.0030398338796912786
-0.0831563374008356   -0.14213452303337384   -0.0033000743656060646
-0.07888434203214245   -0.18847079855998367   -0.00428781024470444
-0.11031387044891235   -0.1414281655538871   -0.0034399263997123442
-0.0831563374008356   -0.14213452303337384   -0.0033000743656060646
-0.10475804850109899   -0.1879694493037159   -0.005073975898937773
-0.07888434203214245   -0.18847079855998367   -0.00428781024470444
-0.08339159650890454   -0.14186111303516663   -0.0030398338796912786
-0.10461698795336975   -0.18776625969113223   -0.004584700039162191
-0.07905121871201766   -0.1882971819262662   -0.00389812062970536
-0.08339159650890454   -0.14186111303516663   -0.0030398338796912786
-0.11031387044891235   -0.1414281655538871   -0.0034399263997123442
-0.10461698795336975   -0.18776625969113223   -0.004584700039162191
-0.11021589719425731   -0.14126818561485516   -0.00310079862339154
-0.07905121871201766   -0.1882971819262662   -0.00389812062970536
-0.10426979586116099   -0.18769379843080744   -0.004054075680279833
-0.11021589719425731   -0.14126818561485516   -0.00310079862339154
-0.10461698795336975   -0.18776625969113223   -0.004584700039162191
-0.07905121871201766   -0.1882971819262662   -0.00389812062970536
-0.11021589719425731   -0.14126818561485516   -0.00310079862339154
-0.08362475609478293   -0.14161335492234228   -0.0027543584648820666
-0.08339159650890454   -0.14186111303516663   -0.0030398338796912786
-0.07905121871201766   -0.1882971819262662   -0.00389812062970536
-0.11021589719425731   -0.14126818561485516   -0.00310079862339154
-0.08339159650890454   -0.14186111303516663   -0.0030398338796912786
-0.10461698795336975   -0.18776625969113223   -0.004584700039162191
0.02133706292010584   -0.14372716369576366   -0.0002003492893185901
0.01907522764476986   -0.09581079885139272   0.0005898657160038281
-0.005872773701577464   -0.14348317841512304   -0.0012551895560005523
0.02099278666663905   -0.1431116125975816   -0.00017593838576921222
0.01907522764476986   -0.09581079885139272   0.0005898657160038281
-0.008301574959340474   -0.09535484876893477   -0.00025309014274282584
-0.005872773701577464   -0.14348317841512304   -0.0012551895560005523
-0.008681736426825295   -0.094866199220556   -5.528933685662845e-05
0.02099278666663905   -0.1431116125975816   -0.00017593838576921222
-0.006192719650699127   -0.142944753893233   -0.0011589445913648597
-0.008681736426825295   -0.094866199220556   -5.528933685662845e-05
-0.005872773701577464   -0.14348317841512304   -0.0012551895560005523
0.02099278666663905   -0.1431116125975816   -0.00017593838576921222
-0.008681736426825295   -0.094866199220556   -5.528933685662845e-05
0.018473115566577644   -0.09522339197831592   0.0008389063934212167
0.01907522764476986   -0.09581079885139272   0.0005898657160038281
0.02099278666663905   -0.1431116125975816   -0.00017593838576921222
-0.008681736426825295   -0.094866199220556   -5.528933685662845e-05
0.01907522764476986   -0.09581079885139272   0.0005898657160038281
-0.005872773701577464   -0.14348317841512304   -0.0012551895560005523
0.02099278666663905   -0.1431116125975816   -0.00017593838576921222
0.018473115566577644   -0.09522339197831592   0.0008389063934212167
-0.006192719650699127   -0.142944753893233   -0.0011589445913648597
0.020573888801320175   -0.14255872292831914   -9.801785203019967e-05
0.018473115566577644   -0.09522339197831592   0.0008389063934212167
-0.008681736426825295   -0.094866199220556   -5.528933685662845e-05
-0.006192719650699127   -0.142944753893233   -0.0011589445913648597
-0.009125899422953521   -0.09434974932718672   0.00017725913466366686
0.020573888801320175   -0.14255872292831914   -9.801785203019967e-05
-0.006558642461695736   -0.14243468951479307   -0.0010365528052393204
-0.009125899422953521   -0.09434974932718672   0.00017725913466366686
-0.006192719650699127   -0.142944753893233   -0.0011589445913648597
0.020573888801320175   -0.14255872292831914   -9.801785203019967e-05
-0.009125899422953521   -0.09434974932718672   0.00017725913466366686
0.01780396774238297   -0.09463828706627786   0.0011940317614490457
0.018473115566577644   -0.09522339197831592   0.0008389063934212167
0.020573888801320175   -0.14255872292831914   -9.801785203019967e-05
-0.009125899422953521   -0.09434974932718672   0.00017725913466366686
0.018473115566577644   -0.09522339197831592   0.0008389063934212167
-0.006192719650699127   -0.142944753893233   -0.0011589445913648597
0.020573888801320175   -0.14255872292831914   -9.801785203019967e-05
0.01780396774238297   -0.09463828706627786   0.0011940317614490457
-0.006558642461695736   -0.14243468951479307   -0.0010365528052393204
0.02002267561889207   -0.14197894589521576   3.0964736435786454e-05
0.01780396774238297   -0.09463828706627786   0.0011940317614490457
-0.009125899422953521   -0.09434974932718672   0.00017725913466366686
-0.006558642461695736   -0.14243468951479307   -0.0010365528052393204
-0.009584672845944902   -0.0938007365809177   0.0004440020688944846
0.02002267561889207   -0.14197894589521576   3.0964736435786454e-05
-0.006968434620957087   -0.14194610127215151   -0.0008814433285235404
-0.009584672845944902   -0.0938007365809177   0.0004440020688944846
-0.006558642461695736   -0.14243468951479307   -0.0010365528052393204
0.02002267561889207   -0.14197894589521576   3.0964736435786454e-05
-0.009584672845944902   -0.0938007365809177   0.0004440020688944846
0.01698663547201219   -0.09392019844836218   0.0015843521559124741
0.01780396774238297   -0.09463828706627786   0.0011940317614490457
0.02002267561889207   -0.14197894589521576   3.0964736435786454e-05
-0.009584672845944902   -0.0938007365809177   0.0004440020688944846
0.01780396774238297   -0.09463828706627786   0.0011940317614490457
-0.006558642461695736   -0.14243468951479307   -0.0010365528052393204
-0.005872773701577464   -0.14348317841512304   -0.0012551895560005523
-0.008301574959340474   -0.09535484876893477   -0.00025309014274282584
-0.03165675057646431   -0.14320363848910403   -0.0021518845986691474
-0.006192719650699127   -0.142944753893233   -0.0011589445913648597
-0.008301574959340474   -0.09535484876893477   -0.00025309014274282584
-0.034091314958116535   -0.09523707925164343   -0.0010676593992591029
-0.03165675057646431   -0.14320363848910403   -0.0021518845986691474
-0.034433865071045684   -0.0948090179517126   -0.0008850057809152405
-0.006192719650699127   -0.142944753893233   -0.0011589445913648597
-0.03198189558647822   -0.14275154419870023   -0.0020075452393503485
-0.034433865071045684   -0.0948090179517126   -0.0008850057809152405
-0.03165675057646431   -0.14320363848910403   -0.0021518845986691474
-0.006192719650699127   -0.142944753893233   -0.0011589445913648597
-0.034433865071045684   -0.0948090179517126   -0.0008850057809152405
-0.008681736426825295   -0.094866199220556   -5.528933685662845e-05
-0.008301574959340474   -0.09535484876893477   -0.00025309014274282584
-0.006192719650699127   -0.142944753893233   -0.0011589445913648597
-0.034433865071045684   -0.0948090179517126   -0.0008850057809152405
-0.008301574959340474   -0.09535484876893477   -0.00025309014274282584
-0.03165675057646431   -0.14320363848910403   -0.0021518845986691474
-0.006192719650699127   -0.142944753893233   -0.0011589445913648597
-0.008681736426825295   -0.094866199220556   -5.528933685662845e-05
-0.03198189558647822   -0.14275154419870023   -0.0020075452393503485
-0.006558642461695736   -0.14243468951479307   -0.0010365528052393204
-0.008681736426825295   -0.094866199220556   -5.528933685662845e-05
-0.034433865071045684   -0.0948090179517126   -0.0008850057809152405
-0.03198189558647822   -0.14275154419870023   -0.0020075452393503485
-0.034787944032800035   -0.09436347252893851   -0.0006844966692943331
-0.006558642461695736   -0.14243468951479307   -0.0010365528052393204
-0.03231417326824564   -0.14232150565834836   -0.0018383568906723104
-0.034787944032800035   -0.09436347252893851   -0.0006844966692943331
-0.03198189558647822   -0.14275154419870023   -0.0020075452393503485
-0.006558642461695736   -0.14243468951479307   -0.0010365528052393204
-0.034787944032800035   -0.09436347252893851   -0.0006844966692943331
-0.009125899422953521   -0.09434974932718672   0.00017725913466366686
-0.008681736426825295   -0.094866199220556   -5.528933685662845e-05
-0.006558642461695736   -0.14243468951479307   -0.0010365528052393204
-0.034787944032800035   -0.09436347252893851   -0.0006844966692943331
-0.008681736426825295   -0.094866199220556   -5.528933685662845e-05
-0.03198189558647822   -0.14275154419870023   -0.0020075452393503485
-0.006558642461695736   -0.14243468951479307   -0.0010365528052393204
-0.009125899422953521   -0.09434974932718672   0.00017725913466366686
-0.03231417326824564   -0.14232150565834836   -0.0018383568906723104
-0.006968434620957087   -0.14194610127215151   -0.0008814433285235404
-0.009125899422953521   -0.09434974932718672   0.00017725913466366686
-0.034787944032800035   -0.09436347252893851   -0.0006844966692943331
-0.03231417326824564   -0.14232150565834836   -0.0018383568906723104
-0.03515629544084459   -0.09390803296504484   -0.00046250273450727244
-0.006968434620957087   -0.14194610127215151   -0.0008814433285235404
-0.03266735079821583   -0.14191997184673633   -0.001643997996925074
-0.03515629544084459   -0.09390803296504484   -0.00046250273450727244
-0.03231417326824564   -0.14232150565834836   -0.0018383568906723104
-0.006968434620957087   -0.14194610127215151   -0.0008814433285235404
-0.03515629544084459   -0.09390803296504484   -0.00046250273450727244
-0.009584672845944902   -0.0938007365809177   0.0004440020688944846
-0.009125899422953521   -0.09434974932718672   0.00017725913466366686
-0.006968434620957087   -0.14194610127215151   -0.0008814433285235404
-0.03515629544084459   -0.09390803296504484   -0.00046250273450727244
-0.009125899422953521   -0.09434974932718672   0.00017725913466366686
-0.03231417326824564   -0.14232150565834836   -0.0018383568906723104
-0.03165675057646431   -0.14320363848910403   -0.0021518845986691474
-0.034091314958116535   -0.09523707925164343   -0.0010676593992591029
-0.05702378302061128   -0.14287062932304237   -0.00291576961751966
-0.03198189558647822   -0.14275154419870023   -0.0020075452393503485
-0.034091314958116535   -0.09523707925164343   -0.0010676593992591029
-0.05962353353960121   -0.09520466714966218   -0.00180522717543567
-0.05702378302061128   -0.14287062932304237   -0.00291576961751966
-0.05995047716144949   -0.0948281863741596   -0.0016321645652051047
-0.03198189558647822   -0.14275154419870023   -0.0020075452393503485
-0.05734609102422872   -0.14249880260129816   -0.0027231789568770964
-0.05995047716144949   -0.0948281863741596   -0.0016321645652051047
-0.05702378302061128   -0.14287062932304237   -0.00291576961751966
-0.03198189558647822   -0.14275154419870023   -0.0020075452393503485
-0.05995047716144949   -0.0948281863741596   -0.0016321645652051047
-0.034433865071045684   -0.0948090179517126   -0.0008850057809152405
-0.034091314958116535   -0.09523707925164343   -0.0010676593992591029
-0.03198189558647822   -0.14275154419870023   -0.0020075452393503485
-0.05995047716144949   -0.0948281863741596   -0.0016321645652051047
-0.034091314958116535   -0.09523707925164343   -0.0010676593992591029
-0.05702378302061128   -0.14287062932304237   -0.00291576961751966
-0.03198189558647822   -0.14275154419870023   -0.0020075452393503485
-0.034433865071045684   -0.0948090179517126   -0.0008850057809152405
-0.05734609102422872   -0.14249880260129816   -0.0027231789568770964
-0.03231417326824564   -0.14232150565834836   -0.0018383568906723104
-0.034433865071045684   -0.0948090179517126   -0.0008850057809152405
-0.05995047716144949   -0.0948281863741596   -0.0016321645652051047
-0.05734609102422872   -0.14249880260129816   -0.0027231789568770964
-0.06026189418961066   -0.09444443732726211   -0.0014435336236281308
-0.03231417326824564   -0.14232150565834836   -0.0018383568906723104
-0.05764768329514588   -0.14215037150446722   -0.002506592163504177
-0.06026189418961066   -0.09444443732726211   -0.0014435336236281308
-0.05734609102422872   -0.14249880260129816   -0.0027231789568770964
-0.03231417326824564   -0.14232150565834836   -0.0018383568906723104
-0.06026189418961066   -0.09444443732726211   -0.0014435336236281308
-0.034787944032800035   -0.09436347252893851   -0.0006844966692943331
-0.034433865071045684   -0.0948090179517126   -0.0008850057809152405
-0.03231417326824564   -0.14232150565834836   -0.0018383568906723104
-0.06026189418961066   -0.09444443732726211   -0.0014435336236281308
-0.034433865071045684   -0.0948090179517126   -0.0008850057809152405
-0.05734609102422872   -0.14249880260129816   -0.0027231789568770964
-0.03231417326824564   -0.14232150565834836   -0.0018383568906723104
-0.034787944032800035   -0.09436347252893851   -0.0006844966692943331
-0.05764768329514588   -0.14215037150446722   -0.002506592163504177
-0.03266735079821583   -0.14191997184673633   -0.001643997996925074
-0.034787944032800035   -0.09436347252893851   -0.0006844966692943331
-0.06026189418961066   -0.09444443732726211   -0.0014435336236281308
-0.05764768329514588   -0.14215037150446722   -0.002506592163504177
-0.0605701486883101   -0.09405130263215657   -0.0012402590305282224
-0.03266735079821583   -0.14191997184673633   -0.001643997996925074
-0.057950349821959846   -0.14182633398495023   -0.0022672135803236005
-0.0605701486883101   -0.09405130263215657   -0.0012402590305282224
-0.05764768329514588   -0.14215037150446722   -0.002506592163504177
-0.03266735079821583   -0.14191997184673633   -0.001643997996925074
-0.0605701486883101   -0.09405130263215657   -0.0012402590305282224
-0.03515629544084459   -0.09390803296504484   -0.00046250273450727244
-0.034787944032800035   -0.09436347252893851   -0.0006844966692943331
-0.03266735079821583   -0.14191997184673633   -0.001643997996925074
-0.0605701486883101   -0.09405130263215657   -0.0012402590305282224
-0.034787944032800035   -0.09436347252893851   -0.0006844966692943331
-0.05764768329514588   -0.14215037150446722   -0.002506592163504177
-0.05702378302061128   -0.14287062932304237   -0.00291576961751966
-0.05962353353960121   -0.09520466714966218   -0.00180522717543567
-0.0828474967732405   -0.1424218691856611   -0.0035403531281264005
-0.05734609102422872   -0.14249880260129816   -0.0027231789568770964
-0.05962353353960121   -0.09520466714966218   -0.00180522717543567
-0.08569559554064372   -0.09505799206986686   -0.0024273109899000055
-0.0828474967732405   -0.1424218691856611   -0.0035403531281264005
-0.08600729716568817   -0.09474933032468864   -0.0022645626082758784
-0.05734609102422872   -0.14249880260129816   -0.0027231789568770964
-0.0831563374008356   -0.14213452303337384   -0.0033000743656060646
-0.08600729716568817   -0.09474933032468864   -0.0022645626082758784
-0.0828474967732405   -0.1424218691856611   -0.0035403531281264005
-0.05734609102422872   -0.14249880260129816   -0.0027231789568770964
-0.08600729716568817   -0.09474933032468864   -0.0022645626082758784
-0.05995047716144949   -0.0948281863741596   -0.0016321645652051047
-0.05962353353960121   -0.09520466714966218   -0.00180522717543567
-0.05734609102422872   -0.14249880260129816   -0.0027231789568770964
-0.08600729716568817   -0.09474933032468864   -0.0022645626082758784
-0.05962353353960121   -0.09520466714966218   -0.00180522717543567
-0.0828474967732405   -0.1424218691856611   -0.0035403531281264005
-0.05734609102422872   -0.14249880260129816   -0.0027231789568770964
-0.05995047716144949   -0.0948281863741596   -0.0016321645652051047
-0.0831563374008356   -0.14213452303337384   -0.0033000743656060646
-0.05764768329514588   -0.14215037150446722   -0.002506592163504177
-0.05995047716144949   -0.0948281863741596   -0.0016321645652051047
-0.08600729716568817   -0.09474933032468864   -0.0022645626082758784
-0.0831563374008356   -0.14213452303337384   -0.0033000743656060646
-0.08627199672907494   -0.09442357576084084   -0.002090890662308225
-0.05764768329514588   -0.14215037150446722   -0.002506592163504177
-0.08339159650890454   -0.14186111303516663   -0.0030398338796912786
-0.08627199672907494   -0.09442357576084084   -0.002090890662308225
-0.0831563374008356   -0.14213452303337384   -0.0033000743656060646
-0.05764768329514588   -0.14215037150446722   -0.002506592163504177
-0.08627199672907494   -0.09442357576084084   -0.002090890662308225
-0.06026189418961066   -0.09444443732726211   -0.0014435336236281308
-0.05995047716144949   -0.0948281863741596   -0.0016321645652051047
-0.05764768329514588   -0.14215037150446722   -0.002506592163504177
-0.08627199672907494   -0.09442357576084084   -0.002090890662308225
-0.05995047716144949   -0.0948281863741596   -0.0016321645652051047
-0.0831563374008356   -0.14213452303337384   -0.0033000743656060646
-0.05764768329514588   -0.14215037150446722   -0.002506592163504177
-0.06026189418961066   -0.09444443732726211   -0.0014435336236281308
-0.08339159650890454   -0.14186111303516663   -0.0030398338796912786
-0.057950349821959846   -0.14182633398495023   -0.0022672135803236005
-0.06026189418961066   -0.09444443732726211   -0.0014435336236281308
-0.08627199672907494   -0.09442357576084084   -0.002090890662308225
-0.08339159650890454   -0.14186111303516663   -0.0030398338796912786
-0.0865222107224908   -0.0940888523319854   -0.0019014117088167219
-0.057950349821959846   -0.14182633398495023   -0.0022672135803236005
-0.08362475609478293   -0.14161335492234228   -0.0027543584648820666
-0.0865222107224908   -0.0940888523319854   -0.0019014117088167219
-0.08339159650890454   -0.14186111303516663   -0.0030398338796912786
-0.057950349821959846   -0.14182633398495023   -0.0022672135803236005
-0.0865222107224908   -0.0940888523319854   -0.0019014117088167219
-0.0605701486883101   -0.09405130263215657   -0.0012402590305282224
-0.06026189418961066   -0.09444443732726211   -0.0014435336236281308
-0.057950349821959846   -0.14182633398495023   -0.0022672135803236005
-0.0865222107224908   -0.0940888523319854   -0.0019014117088167219
-0.06026189418961066   -0.09444443732726211   -0.0014435336236281308
-0.08339159650890454   -0.14186111303516663   -0.0030398338796912786
-0.0828474967732405   -0.1424218691856611   -0.0035403531281264005
-0.08569559554064372   -0.09505799206986686   -0.0024273109899000055
-0.11020606736727795   -0.1418941645302671   -0.00400700717604666
-0.0831563374008356   -0.14213452303337384   -0.0033000743656060646
-0.08569559554064372   -0.09505799206986686   -0.0024273109899000055
-0.11299332657894384   -0.09481806064221361   -0.0028916823283907946
-0.11020606736727795   -0.1418941645302671   -0.00400700717604666
-0.11319022658445817   -0.09455716436244958   -0.00277151686346721
-0.0831563374008356   -0.14213452303337384   -0.0033000743656060646
-0.1102597672539276   -0.14166307170569536   -0.003743604673654911
-0.11319022658445817   -0.09455716436244958   -0.00277151686346721
-0.11020606736727795   -0.1418941645302671   -0.00400700717604666
-0.0831563374008356   -0.14213452303337384   -0.0033000743656060646
-0.11319022658445817   -0.09455716436244958   -0.00277151686346721
-0.08600729716568817   -0.09474933032468864   -0.0022645626082758784
-0.08569559554064372   -0.09505799206986686   -0.0024273109899000055
-0.0831563374008356   -0.14213452303337384   -0.0033000743656060646
-0.11319022658445817   -0.09455716436244958   -0.00277151686346721
-0.08569559554064372   -0.09505799206986686   -0.0024273109899000055
-0.11020606736727795   -0.1418941645302671   -0.00400700717604666
-0.0831563374008356   -0.14213452303337384   -0.0033000743656060646
-0.08600729716568817   -0.09474933032468864   -0.0022645626082758784
-0.1102597672539276   -0.14166307170569536   -0.003743604673654911
-0.08339159650890454   -0.14186111303516663   -0.0030398338796912786
-0.08600729716568817   -0.09474933032468864   -0.0022645626082758784
-0.11319022658445817   -0.09455716436244958   -0.00277151686346721
-0.1102597672539276   -0.14166307170569536   -0.003743604673654911
-0.11337026683555722   -0.09426270035264428   -0.002624284932370791
-0.08339159650890454   -0.14186111303516663   -0.0030398338796912786
-0.11031387044891235   -0.1414281655538871   -0.0034399263997123442
-0.11337026683555722   -0.09426270035264428   -0.002624284932370791
-0.1102597672539276   -0.14166307170569536   -0.003743604673654911
-0.08339159650890454   -0.14186111303516663   -0.0030398338796912786
-0.11337026683555722   -0.09426270035264428   -0.002624284932370791
-0.08627199672907494   -0.09442357576084084   -0.002090890662308225
-0.08600729716568817   -0.09474933032468864   -0.0022645626082758784
-0.08339159650890454   -0.14186111303516663   -0.0030398338796912786
-0.11337026683555722   -0.09426270035264428   -0.002624284932370791
-0.08600729716568817   -0.09474933032468864   -0.0022645626082758784
-0.1102597672539276   -0.14166307170569536   -0.003743604673654911
-0.08339159650890454   -0.14186111303516663   -0.0030398338796912786
-0.08627199672907494   -0.09442357576084084   -0.002090890662308225
-0.11031387044891235   -0.1414281655538871   -0.0034399263997123442
-0.08362475609478293   -0.14161335492234228   -0.0027543584648820666
-0.08627199672907494   -0.09442357576084084   -0.002090890662308225
-0.11337026683555722   -0.09426270035264428   -0.002624284932370791
-0.11031387044891235   -0.1414281655538871   -0.0034399263997123442
-0.11346108576933742   -0.09399024018836971   -0.0024569027685192777
-0.08362475609478293   -0.14161335492234228   -0.0027543584648820666
-0.11021589719425731   -0.14126818561485516   -0.00310079862339154
-0.11346108576933742   -0.09399024018836971   -0.0024569027685192777
-0.11031387044891235   -0.1414281655538871   -0.0034399263997123442
-0.08362475609478293   -0.14161335492234228   -0.0027543584648820666
-0.11346108576933742   -0.09399024018836971   -0.0024569027685192777
-0.0865222107224908   -0.0940888523319854   -0.0019014117088167219
-0.08627199672907494   -0.09442357576084084   -0.002090890662308225
-0.08362475609478293   -0.14161335492234228   -0.0027543584648820666
-0.11346108576933742   -0.09399024018836971   -0.0024569027685192777
-0.08627199672907494   -0.09442357576084084   -0.002090890662308225
-0.11031387044891235   -0.1414281655538871   -0.0034399263997123442
0.01907522764476986   -0.09581079885139272   0.0005898657160038281
0.013332250925526761   -0.04805237604752747   0.0006299147916899873
-0.008301574959340474   -0.09535484876893477   -0.00025309014274282584
0.018473115566577644   -0.09522339197831592   0.0008389063934212167
0.013332250925526761   -0.04805237604752747   0.0006299147916899873
-0.01215722785962625   -0.047419444544927   0.0003041302680147913
-0.008301574959340474   -0.09535484876893477   -0.00025309014274282584
-0.012534042528521099   -0.04716776995985703   0.0005768872352486046
0.018473115566577644   -0.09522339197831592   0.0008389063934212167
-0.008681736426825295   -0.094866199220556   -5.528933685662845e-05
-0.012534042528521099   -0.04716776995985703   0.0005768872352486046
-0.008301574959340474   -0.09535484876893477   -0.00025309014274282584
0.018473115566577644   -0.09522339197831592   0.0008389063934212167
-0.012534042528521099   -0.04716776995985703   0.0005768872352486046
0.01215928275725649   -0.04743067549158284   0.0013071088050228758
0.013332250925526761   -0.04805237604752747   0.0006299147916899873
0.018473115566577644   -0.09522339197831592   0.0008389063934212167
-0.012534042528521099   -0.04716776995985703   0.0005768872352486046
0.013332250925526761   -0.04805237604752747   0.0006299147916899873
-0.008301574959340474   -0.09535484876893477   -0.00025309014274282584
0.018473115566577644   -0.09522339197831592   0.0008389063934212167
0.01215928275725649   -0.04743067549158284   0.0013071088050228758
-0.008681736426825295   -0.094866199220556   -5.528933685662845e-05
0.01780396774238297   -0.09463828706627786   0.0011940317614490457
0.01215928275725649   -0.04743067549158284   0.0013071088050228758
-0.012534042528521099   -0.04716776995985703   0.0005768872352486046
-0.008681736426825295   -0.094866199220556   -5.528933685662845e-05
-0.013026938306591159   -0.04672745394075662   0.0009074199652237846
0.01780396774238297   -0.09463828706627786   0.0011940317614490457
-0.009125899422953521   -0.09434974932718672   0.00017725913466366686
-0.013026938306591159   -0.04672745394075662   0.0009074199652237846
-0.008681736426825295   -0.094866199220556   -5.528933685662845e-05
0.01780396774238297   -0.09463828706627786   0.0011940317614490457
-0.013026938306591159   -0.04672745394075662   0.0009074199652237846
0.011471375284600698   -0.04691841727191874   0.0018137743390621514
0.01215928275725649   -0.04743067549158284   0.0013071088050228758
0.01780396774238297   -0.09463828706627786   0.0011940317614490457
-0.013026938306591159   -0.04672745394075662   0.0009074199652237846
0.01215928275725649   -0.04743067549158284   0.0013071088050228758
-0.008681736426825295   -0.094866199220556   -5.528933685662845e-05
0.01780396774238297   -0.09463828706627786   0.0011940317614490457
0.011471375284600698   -0.04691841727191874   0.0018137743390621514
-0.009125899422953521   -0.09434974932718672   0.00017725913466366686
0.01698663547201219   -0.09392019844836218   0.0015843521559124741
0.011471375284600698   -0.04691841727191874   0.0018137743390621514
-0.013026938306591159   -0.04672745394075662   0.0009074199652237846
-0.009125899422953521   -0.09434974932718672   0.00017725913466366686
-0.013440307903844546   -0.04625259719517868   0.001198525075130322
0.01698663547201219   -0.09392019844836218   0.0015843521559124741
-0.009584672845944902   -0.0938007365809177   0.0004440020688944846
-0.013440307903844546   -0.04625259719517868   0.001198525075130322
-0.009125899422953521   -0.09434974932718672   0.00017725913466366686
0.01698663547201219   -0.09392019844836218   0.0015843521559124741
-0.013440307903844546   -0.04625259719517868   0.001198525075130322
0.010591478286354213   -0.04613898110598677   0.002393315747620559
0.011471375284600698   -0.04691841727191874   0.0018137743390621514
0.01698663547201219   -0.09392019844836218   0.0015843521559124741
-0.013440307903844546   -0.04625259719517868   0.001198525075130322
0.011471375284600698   -0.04691841727191874   0.0018137743390621514
-0.009125899422953521   -0.09434974932718672   0.00017725913466366686
-0.008301574959340474   -0.09535484876893477   -0.00025309014274282584
-0.01215722785962625   -0.047419444544927   0.0003041302680147913
-0.034091314958116535   -0.09523707925164343   -0.0010676593992591029
-0.008681736426825295   -0.094866199220556   -5.528933685662845e-05
-0.01215722785962625   -0.047419444544927   0.0003041302680147913
-0.036446763853252975   -0.04811325616757085   -0.0003492568870029247
-0.034091314958116535   -0.09523707925164343   -0.0010676593992591029
-0.036791657983630634   -0.0477339553721882   -0.0001568952927505826
-0.008681736426825295   -0.094866199220556   -5.528933685662845e-05
-0.034433865071045684   -0.0948090179517126   -0.0008850057809152405
-0.036791657983630634   -0.0477339553721882   -0.0001568952927505826
-0.034091314958116535   -0.09523707925164343   -0.0010676593992591029
-0.008681736426825295   -0.094866199220556   -5.528933685662845e-05
-0.036791657983630634   -0.0477339553721882   -0.0001568952927505826
-0.012534042528521099   -0.04716776995985703   0.0005768872352486046
-0.01215722785962625   -0.047419444544927   0.0003041302680147913
-0.008681736426825295   -0.094866199220556   -5.528933685662845e-05
-0.036791657983630634   -0.0477339553721882   -0.0001568952927505826
-0.01215722785962625   -0.047419444544927   0.0003041302680147913
-0.034091314958116535   -0.09523707925164343   -0.0010676593992591029
-0.008681736426825295   -0.094866199220556   -5.528933685662845e-05
-0.012534042528521099   -0.04716776995985703   0.0005768872352486046
-0.034433865071045684   -0.0948090179517126   -0.0008850057809152405
-0.009125899422953521   -0.09434974932718672   0.00017725913466366686
-0.012534042528521099   -0.04716776995985703   0.0005768872352486046
-0.036791657983630634   -0.0477339553721882   -0.0001568952927505826
-0.034433865071045684   -0.0948090179517126   -0.0008850057809152405
-0.037151544649741734   -0.04730712458940144   4.611901506520008e-05
-0.009125899422953521   -0.09434974932718672   0.00017725913466366686
-0.034787944032800035   -0.09436347252893851   -0.0006844966692943331
-0.037151544649741734   -0.04730712458940144   4.611901506520008e-05
-0.034433865071045684   -0.0948090179517126   -0.0008850057809152405
-0.009125899422953521   -0.09434974932718672   0.00017725913466366686
-0.037151544649741734   -0.04730712458940144   4.611901506520008e-05
-0.013026938306591159   -0.04672745394075662   0.0009074199652237846
-0.012534042528521099   -0.04716776995985703   0.0005768872352486046
-0.009125899422953521   -0.09434974932718672   0.00017725913466366686
-0.037151544649741734   -0.04730712458940144   4.611901506520008e-05
-0.012534042528521099   -0.04716776995985703   0.0005768872352486046
-0.034433865071045684   -0.0948090179517126   -0.0008850057809152405
-0.009125899422953521   -0.09434974932718672   0.00017725913466366686
-0.013026938306591159   -0.04672745394075662   0.0009074199652237846
-0.034787944032800035   -0.09436347252893851   -0.0006844966692943331
-0.009584672845944902   -0.0938007365809177   0.0004440020688944846
-0.013026938306591159   -0.04672745394075662   0.0009074199652237846
-0.037151544649741734   -0.04730712458940144   4.611901506520008e-05
-0.034787944032800035   -0.09436347252893851   -0.0006844966692943331
-0.03749268107646647   -0.04683933524209946   0.00026967595768207794
-0.009584672845944902   -0.0938007365809177   0.0004440020688944846
-0.03515629544084459   -0.09390803296504484   -0.00046250273450727244
-0.03749268107646647   -0.04683933524209946   0.00026967595768207794
-0.034787944032800035   -0.09436347252893851   -0.0006844966692943331
-0.009584672845944902   -0.0938007365809177   0.0004440020688944846
-0.03749268107646647   -0.04683933524209946   0.00026967595768207794
-0.013440307903844546   -0.04625259719517868   0.001198525075130322
-0.013026938306591159   -0.04672745394075662   0.0009074199652237846
-0.009584672845944902   -0.0938007365809177   0.0004440020688944846
-0.03749268107646647   -0.04683933524209946   0.00026967595768207794
-0.013026938306591159   -0.04672745394075662   0.0009074199652237846
-0.034787944032800035   -0.09436347252893851   -0.0006844966692943331
-0.034091314958116535   -0.09523707925164343   -0.0010676593992591029
-0.036446763853252975   -0.04811325616757085   -0.0003492568870029247
-0.05962353353960121   -0.09520466714966218   -0.00180522717543567
-0.034433865071045684   -0.0948090179517126   -0.0008850057809152405
-0.036446763853252975   -0.04811325616757085   -0.0003492568870029247
-0.06134478473772309   -0.048655047208302694   -0.0010698115048702122
-0.05962353353960121   -0.09520466714966218   -0.00180522717543567
-0.06165363996143281   -0.048266048474825886   -0.0009214558831865448
-0.034433865071045684   -0.0948090179517126   -0.0008850057809152405
-0.05995047716144949   -0.0948281863741596   -0.0016321645652051047
-0.06165363996143281   -0.048266048474825886   -0.0009214558831865448
-0.05962353353960121   -0.09520466714966218   -0.00180522717543567
-0.034433865071045684   -0.0948090179517126   -0.0008850057809152405
-0.06165363996143281   -0.048266048474825886   -0.0009214558831865448
-0.036791657983630634   -0.0477339553721882   -0.0001568952927505826
-0.036446763853252975   -0.04811325616757085   -0.0003492568870029247
-0.034433865071045684   -0.0948090179517126   -0.0008850057809152405
-0.06165363996143281   -0.048266048474825886   -0.0009214558831865448
-0.036446763853252975   -0.04811325616757085   -0.0003492568870029247
-0.05962353353960121   -0.09520466714966218   -0.00180522717543567
-0.034433865071045684   -0.0948090179517126   -0.0008850057809152405
-0.036791657983630634   -0.0477339553721882   -0.0001568952927505826
-0.05995047716144949   -0.0948281863741596   -0.0016321645652051047
-0.034787944032800035   -0.09436347252893851   -0.0006844966692943331
-0.036791657983630634   -0.0477339553721882   -0.0001568952927505826
-0.06165363996143281   -0.048266048474825886   -0.0009214558831865448
-0.05995047716144949   -0.0948281863741596   -0.0016321645652051047
-0.06194862805335558   -0.047855836914658556   -0.0007739903734908541
-0.034787944032800035   -0.09436347252893851   -0.0006844966692943331
-0.06026189418961066   -0.09444443732726211   -0.0014435336236281308
-0.06194862805335558   -0.047855836914658556   -0.0007739903734908541
-0.05995047716144949   -0.0948281863741596   -0.0016321645652051047
-0.034787944032800035   -0.09436347252893851   -0.0006844966692943331
-0.06194862805335558   -0.047855836914658556   -0.0007739903734908541
-0.037151544649741734   -0.04730712458940144   4.611901506520008e-05
-0.036791657983630634   -0.0477339553721882   -0.0001568952927505826
-0.034787944032800035   -0.09436347252893851   -0.0006844966692943331
-0.06194862805335558   -0.047855836914658556   -0.0007739903734908541
-0.036791657983630634   -0.0477339553721882   -0.0001568952927505826
-0.05995047716144949   -0.0948281863741596   -0.0016321645652051047
-0.034787944032800035   -0.09436347252893851   -0.0006844966692943331
-0.037151544649741734   -0.04730712458940144   4.611901506520008e-05
-0.06026189418961066   -0.09444443732726211   -0.0014435336236281308
-0.03515629544084459   -0.09390803296504484   -0.00046250273450727244
-0.037151544649741734   -0.04730712458940144   4.611901506520008e-05
-0.06194862805335558   -0.047855836914658556   -0.0007739903734908541
-0.06026189418961066   -0.09444443732726211   -0.0014435336236281308
-0.0622200059660407   -0.04741219946555439   -0.0006138771251991939
-0.03515629544084459   -0.09390803296504484   -0.00046250273450727244
-0.0605701486883101   -0.09405130263215657   -0.0012402590305282224
-0.0622200059660407   -0.04741219946555439   -0.0006138771251991939
-0.06026189418961066   -0.09444443732726211   -0.0014435336236281308
-0.03515629544084459   -0.09390803296504484   -0.00046250273450727244
-0.0622200059660407   -0.04741219946555439   -0.0006138771251991939
-0.03749268107646647   -0.04683933524209946   0.00026967595768207794
-0.037151544649741734   -0.04730712458940144   4.611901506520008e-05
-0.03515629544084459   -0.09390803296504484   -0.00046250273450727244
-0.0622200059660407   -0.04741219946555439   -0.0006138771251991939
-0.037151544649741734   -0.04730712458940144   4.611901506520008e-05
-0.06026189418961066   -0.09444443732726211   -0.0014435336236281308
-0.05962353353960121   -0.09520466714966218   -0.00180522717543567
-0.06134478473772309   -0.048655047208302694   -0.0010698115048702122
-0.08569559554064372   -0.09505799206986686   -0.0024273109899000055
-0.05995047716144949   -0.0948281863741596   -0.0016321645652051047
-0.06134478473772309   -0.048655047208302694   -0.0010698115048702122
-0.08711698955023782   -0.04887665754401328   -0.0017358763348583604
-0.08569559554064372   -0.09505799206986686   -0.0024273109899000055
-0.08739504221271546   -0.04852612428043737   -0.0016283228471142216
-0.05995047716144949   -0.0948281863741596   -0.0016321645652051047
-0.08600729716568817   -0.09474933032468864   -0.0022645626082758784
-0.08739504221271546   -0.04852612428043737   -0.0016283228471142216
-0.08569559554064372   -0.09505799206986686   -0.0024273109899000055
-0.05995047716144949   -0.0948281863741596   -0.0016321645652051047
-0.08739504221271546   -0.04852612428043737   -0.0016283228471142216
-0.06165363996143281   -0.048266048474825886   -0.0009214558831865448
-0.06134478473772309   -0.048655047208302694   -0.0010698115048702122
-0.05995047716144949   -0.0948281863741596   -0.0016321645652051047
-0.08739504221271546   -0.04852612428043737   -0.0016283228471142216
-0.06134478473772309   -0.048655047208302694   -0.0010698115048702122
-0.08569559554064372   -0.09505799206986686   -0.0024273109899000055
-0.05995047716144949   -0.0948281863741596   -0.0016321645652051047
-0.06165363996143281   -0.048266048474825886   -0.0009214558831865448
-0.08600729716568817   -0.09474933032468864   -0.0022645626082758784
-0.06026189418961066   -0.09444443732726211   -0.0014435336236281308
-0.06165363996143281   -0.048266048474825886   -0.0009214558831865448
-0.08739504221271546   -0.04852612428043737   -0.0016283228471142216
-0.08600729716568817   -0.09474933032468864   -0.0022645626082758784
-0.08764277666956316   -0.048145214613061184   -0.0015242131094368933
-0.06026189418961066   -0.09444443732726211   -0.0014435336236281308
-0.08627199672907494   -0.09442357576084084   -0.002090890662308225
-0.08764277666956316   -0.048145214613061184   -0.0015242131094368933
-0.08600729716568817   -0.09474933032468864   -0.0022645626082758784
-0.06026189418961066   -0.09444443732726211   -0.0014435336236281308
-0.08764277666956316   -0.048145214613061184   -0.0015242131094368933
-0.06194862805335558   -0.047855836914658556   -0.0007739903734908541
-0.06165363996143281   -0.048266048474825886   -0.0009214558831865448
-0.06026189418961066   -0.09444443732726211   -0.0014435336236281308
-0.08764277666956316   -0.048145214613061184   -0.0015242131094368933
-0.06165363996143281   -0.048266048474825886   -0.0009214558831865448
-0.08600729716568817   -0.09474933032468864   -0.0022645626082758784
-0.06026189418961066   -0.09444443732726211   -0.0014435336236281308
-0.06194862805335558   -0.047855836914658556   -0.0007739903734908541
-0.08627199672907494   -0.09442357576084084   -0.002090890662308225
-0.0605701486883101   -0.09405130263215657   -0.0012402590305282224
-0.06194862805335558   -0.047855836914658556   -0.0007739903734908541
-0.08764277666956316   -0.048145214613061184   -0.0015242131094368933
-0.08627199672907494   -0.09442357576084084   -0.002090890662308225
-0.08786694714920174   -0.04774017257435531   -0.0014174533662068911
-0.0605701486883101   -0.09405130263215657   -0.0012402590305282224
-0.0865222107224908   -0.0940888523319854   -0.0019014117088167219
-0.08786694714920174   -0.04774017257435531   -0.0014174533662068911
-0.08627199672907494   -0.09442357576084084   -0.002090890662308225
-0.0605701486883101   -0.09405130263215657   -0.0012402590305282224
-0.08786694714920174   -0.04774017257435531   -0.0014174533662068911
-0.0622200059660407   -0.04741219946555439   -0.0006138771251991939
-0.06194862805335558   -0.047855836914658556   -0.0007739903734908541
-0.0605701486883101   -0.09405130263215657   -0.0012402590305282224
-0.08786694714920174   -0.04774017257435531   -0.0014174533662068911
-0.06194862805335558   -0.047855836914658556   -0.0007739903734908541
-0.08627199672907494   -0.09442357576084084   -0.002090890662308225
-0.08569559554064372   -0.09505799206986686   -0.0024273109899000055
-0.08711698955023782   -0.04887665754401328   -0.0017358763348583604
-0.11299332657894384   -0.09481806064221361   -0.0028916823283907946
-0.08600729716568817   -0.09474933032468864   -0.0022645626082758784
-0.08711698955023782   -0.04887665754401328   -0.0017358763348583604
-0.11379418516034864   -0.04890260297042352   -0.0022917621536483797
-0.11299332657894384   -0.09481806064221361   -0.0028916823283907946
-0.11403412439769342   -0.048561818459245044   -0.002246740903086572
-0.08600729716568817   -0.09474933032468864   -0.0022645626082758784
-0.11319022658445817   -0.09455716436244958   -0.00277151686346721
-0.11403412439769342   -0.048561818459245044   -0.002246740903086572
-0.11299332657894384   -0.09481806064221361   -0.0028916823283907946
-0.08600729716568817   -0.09474933032468864   -0.0022645626082758784
-0.11403412439769342   -0.048561818459245044   -0.002246740903086572
-0.08739504221271546   -0.04852612428043737   -0.0016283228471142216
-0.08711698955023782   -0.04887665754401328   -0.0017358763348583604
-0.08600729716568817   -0.09474933032468864   -0.0022645626082758784
-0.11403412439769342   -0.048561818459245044   -0.002246740903086572
-0.08711698955023782   -0.04887665754401328   -0.0017358763348583604
-0.11299332657894384   -0.09481806064221361   -0.0028916823283907946
-0.08600729716568817   -0.09474933032468864   -0.0022645626082758784
-0.08739504221271546   -0.04852612428043737   -0.0016283228471142216
-0.11319022658445817   -0.09455716436244958   -0.00277151686346721
-0.08627199672907494   -0.09442357576084084   -0.002090890662308225
-0.08739504221271546   -0.04852612428043737   -0.0016283228471142216
-0.11403412439769342   -0.048561818459245044   -0.002246740903086572
-0.11319022658445817   -0.09455716436244958   -0.00277151686346721
-0.11424908763917635   -0.0481942655460266   -0.0021942999951551777
-0.08627199672907494   -0.09442357576084084   -0.002090890662308225
-0.11337026683555722   -0.09426270035264428   -0.002624284932370791
-0.11424908763917635   -0.0481942655460266   -0.0021942999951551777
-0.11319022658445817   -0.09455716436244958   -0.00277151686346721
-0.08627199672907494   -0.09442357576084084   -0.002090890662308225
-0.11424908763917635   -0.0481942655460266   -0.0021942999951551777
-0.08764277666956316   -0.048145214613061184   -0.0015242131094368933
-0.08739504221271546   -0.04852612428043737   -0.0016283228471142216
-0.08627199672907494   -0.09442357576084084   -0.002090890662308225
-0.11424908763917635   -0.0481942655460266   -0.0021942999951551777
-0.08739504221271546   -0.04852612428043737   -0.0016283228471142216
-0.11319022658445817   -0.09455716436244958   -0.00277151686346721
-0.08627199672907494   -0.09442357576084084   -0.002090890662308225
-0.08764277666956316   -0.048145214613061184   -0.0015242131094368933
-0.11337026683555722   -0.09426270035264428   -0.002624284932370791
-0.0865222107224908   -0.0940888523319854   -0.0019014117088167219
-0.08764277666956316   -0.048145214613061184   -0.0015242131094368933
-0.11424908763917635   -0.0481942655460266   -0.0021942999951551777
-0.11337026683555722   -0.09426270035264428   -0.002624284932370791
-0.11443118989498245   -0.04780489060042185   -0.002146262225948404
-0.0865222107224908   -0.0940888523319854   -0.0019014117088167219
-0.11346108576933742   -0.09399024018836971   -0.0024569027685192777
-0.11443118989498245   -0.04780489060042185   -0.002146262225948404
-0.11337026683555722   -0.09426270035264428   -0.002624284932370791
-0.0865222107224908   -0.0940888523319854   -0.0019014117088167219
-0.11443118989498245   -0.04780489060042185   -0.002146262225948404
-0.08786694714920174   -0.04774017257435531   -0.0014174533662068911
-0.08764277666956316   -0.048145214613061184   -0.0015242131094368933
-0.0865222107224908   -0.0940888523319854   -0.0019014117088167219
-0.11443118989498245   -0.04780489060042185   -0.002146262225948404
-0.08764277666956316   -0.048145214613061184   -0.0015242131094368933
-0.11337026683555722   -0.09426270035264428   -0.002624284932370791
0.013332250925526761   -0.04805237604752747   0.0006299147916899873
0.0   0.0   0.0
-0.01215722785962625   -0.047419444544927   0.0003041302680147913
0.01215928275725649   -0.04743067549158284   0.0013071088050228758
0.0   0.0   0.0
-0.015308007902674592   -0.0038034614815443653   -0.00014741653774353466
-0.01215722785962625   -0.047419444544927   0.0003041302680147913
-0.01622095800732786   -0.0029403113039687657   0.00037198743633574515
0.01215928275725649   -0.04743067549158284   0.0013071088050228758
-0.012534042528521099   -0.04716776995985703   0.0005768872352486046
-0.01622095800732786   -0.0029403113039687657   0.00037198743633574515
-0.01215722785962625   -0.047419444544927   0.0003041302680147913
0.01215928275725649   -0.04743067549158284   0.0013071088050228758
-0.01622095800732786   -0.0029403113039687657   0.00037198743633574515
0.0   0.0   0.0
0.0   0.0   0.0
0.01215928275725649   -0.04743067549158284   0.0013071088050228758
-0.01622095800732786   -0.0029403113039687657   0.00037198743633574515
0.0   0.0   0.0
-0.01215722785962625   -0.047419444544927   0.0003041302680147913
0.01215928275725649   -0.04743067549158284   0.0013071088050228758
0.0   0.0   0.0
-0.012534042528521099   -0.04716776995985703   0.0005768872352486046
0.011471375284600698   -0.04691841727191874   0.0018137743390621514
0.0   0.0   0.0
-0.01622095800732786   -0.0029403113039687657   0.00037198743633574515
-0.012534042528521099   -0.04716776995985703   0.0005768872352486046
-0.01679157608358055   -0.0025222732223545126   0.0006692131657739705
0.011471375284600698   -0.04691841727191874   0.0018137743390621514
-0.013026938306591159   -0.04672745394075662   0.0009074199652237846
-0.01679157608358055   -0.0025222732223545126   0.0006692131657739705
-0.012534042528521099   -0.04716776995985703   0.0005768872352486046
0.011471375284600698   -0.04691841727191874   0.0018137743390621514
-0.01679157608358055   -0.0025222732223545126   0.0006692131657739705
0.0   0.0   0.0
0.0   0.0   0.0
0.011471375284600698   -0.04691841727191874   0.0018137743390621514
-0.01679157608358055   -0.0025222732223545126   0.0006692131657739705
0.0   0.0   0.0
-0.012534042528521099   -0.04716776995985703   0.0005768872352486046
0.011471375284600698   -0.04691841727191874   0.0018137743390621514
0.0   0.0   0.0
-0.013026938306591159   -0.04672745394075662   0.0009074199652237846
0.010591478286354213   -0.04613898110598677   0.002393315747620559
0.0   0.0   0.0
-0.01679157608358055   -0.0025222732223545126   0.0006692131657739705
-0.013026938306591159   -0.04672745394075662   0.0009074199652237846
-0.017552528299391554   -0.0019684839382297036   0.001009880074245634
0.010591478286354213   -0.04613898110598677   0.002393315747620559
-0.013440307903844546   -0.04625259719517868   0.001198525075130322
-0.017552528299391554   -0.0019684839382297036   0.001009880074245634
-0.013026938306591159   -0.04672745394075662   0.0009074199652237846
0.010591478286354213   -0.04613898110598677   0.002393315747620559
-0.017552528299391554   -0.0019684839382297036   0.001009880074245634
0.0   0.0   0.0
0.0   0.0   0.0
0.010591478286354213   -0.04613898110598677   0.002393315747620559
-0.017552528299391554   -0.0019684839382297036   0.001009880074245634
0.0   0.0   0.0
-0.013026938306591159   -0.04672745394075662   0.0009074199652237846
-0.01215722785962625   -0.047419444544927   0.0003041302680147913
-0.015308007902674592   -0.0038034614815443653   -0.00014741653774353466
-0.036446763853252975   -0.04811325616757085   -0.0003492568870029247
-0.012534042528521099   -0.04716776995985703   0.0005768872352486046
-0.015308007902674592   -0.0038034614815443653   -0.00014741653774353466
-0.03754914064308591   -0.004953398683850127   -0.00016602886691224544
-0.036446763853252975   -0.04811325616757085   -0.0003492568870029247
-0.03801648518648291   -0.004477102931040745   -3.6524451574095105e-05
-0.012534042528521099   -0.04716776995985703   0.0005768872352486046
-0.036791657983630634   -0.0477339553721882   -0.0001568952927505826
-0.03801648518648291   -0.004477102931040745   -3.6524451574095105e-05
-0.036446763853252975   -0.04811325616757085   -0.0003492568870029247
-0.012534042528521099   -0.04716776995985703   0.0005768872352486046
-0.03801648518648291   -0.004477102931040745   -3.6524451574095105e-05
-0.01622095800732786   -0.0029403113039687657   0.00037198743633574515
-0.015308007902674592   -0.0038034614815443653   -0.00014741653774353466
-0.012534042528521099   -0.04716776995985703   0.0005768872352486046
-0.03801648518648291   -0.004477102931040745   -3.6524451574095105e-05
-0.015308007902674592   -0.0038034614815443653   -0.00014741653774353466
-0.036446763853252975   -0.04811325616757085   -0.0003492568870029247
-0.012534042528521099   -0.04716776995985703   0.0005768872352486046
-0.01622095800732786   -0.0029403113039687657   0.00037198743633574515
-0.036791657983630634   -0.0477339553721882   -0.0001568952927505826
-0.013026938306591159   -0.04672745394075662   0.0009074199652237846
-0.01622095800732786   -0.0029403113039687657   0.00037198743633574515
-0.03801648518648291   -0.004477102931040745   -3.6524451574095105e-05
-0.036791657983630634   -0.0477339553721882   -0.0001568952927505826
-0.03848077141501731   -0.003921032899106602   0.00019821351010656407
-0.013026938306591159   -0.04672745394075662   0.0009074199652237846
-0.037151544649741734   -0.04730712458940144   4.611901506520008e-05
-0.03848077141501731   -0.003921032899106602   0.00019821351010656407
-0.036791657983630634   -0.0477339553721882   -0.0001568952927505826
-0.013026938306591159   -0.04672745394075662   0.0009074199652237846
-0.03848077141501731   -0.003921032899106602   0.00019821351010656407
-0.01679157608358055   -0.0025222732223545126   0.0006692131657739705
-0.01622095800732786   -0.0029403113039687657   0.00037198743633574515
-0.013026938306591159   -0.04672745394075662   0.0009074199652237846
-0.03848077141501731   -0.003921032899106602   0.00019821351010656407
-0.01622095800732786   -0.0029403113039687657   0.00037198743633574515
-0.036791657983630634   -0.0477339553721882   -0.0001568952927505826
-0.013026938306591159   -0.04672745394075662   0.0009074199652237846
-0.01679157608358055   -0.0025222732223545126   0.0006692131657739705
-0.037151544649741734   -0.04730712458940144   4.611901506520008e-05
-0.013440307903844546   -0.04625259719517868   0.001198525075130322
-0.01679157608358055   -0.0025222732223545126   0.0006692131657739705
-0.03848077141501731   -0.003921032899106602   0.00019821351010656407
-0.037151544649741734   -0.04730712458940144   4.611901506520008e-05
-0.03899062070765388   -0.003280898514427051   0.000421249287003711
-0.013440307903844546   -0.04625259719517868   0.001198525075130322
-0.03749268107646647   -0.04683933524209946   0.00026967595768207794
-0.03899062070765388   -0.003280898514427051   0.000421249287003711
-0.037151544649741734   -0.04730712458940144   4.611901506520008e-05
-0.013440307903844546   -0.04625259719517868   0.001198525075130322
-0.03899062070765388   -0.003280898514427051   0.000421249287003711
-0.017552528299391554   -0.0019684839382297036   0.001009880074245634
-0.01679157608358055   -0.0025222732223545126   0.0006692131657739705
-0.013440307903844546   -0.04625259719517868   0.001198525075130322
-0.03899062070765388   -0.003280898514427051   0.000421249287003711
-0.01679157608358055   -0.0025222732223545126   0.0006692131657739705
-0.037151544649741734   -0.04730712458940144   4.611901506520008e-05
-0.036446763853252975   -0.04811325616757085   -0.0003492568870029247
-0.03754914064308591   -0.004953398683850127   -0.00016602886691224544
-0.06134478473772309   -0.048655047208302694   -0.0010698115048702122
-0.036791657983630634   -0.0477339553721882   -0.0001568952927505826
-0.03754914064308591   -0.004953398683850127   -0.00016602886691224544
-0.06195684015949975   -0.005258198192262568   -0.0006322241389941246
-0.06134478473772309   -0.048655047208302694   -0.0010698115048702122
-0.062238508409509945   -0.004881482487249596   -0.0005981790152565975
-0.036791657983630634   -0.0477339553721882   -0.0001568952927505826
-0.06165363996143281   -0.048266048474825886   -0.0009214558831865448
-0.062238508409509945   -0.004881482487249596   -0.0005981790152565975
-0.06134478473772309   -0.048655047208302694   -0.0010698115048702122
-0.036791657983630634   -0.0477339553721882   -0.0001568952927505826
-0.062238508409509945   -0.004881482487249596   -0.0005981790152565975
-0.03801648518648291   -0.004477102931040745   -3.6524451574095105e-05
-0.03754914064308591   -0.004953398683850127   -0.00016602886691224544
-0.036791657983630634   -0.0477339553721882   -0.0001568952927505826
-0.062238508409509945   -0.004881482487249596   -0.0005981790152565975
-0.03754914064308591   -0.004953398683850127   -0.00016602886691224544
-0.06134478473772309   -0.048655047208302694   -0.0010698115048702122
-0.036791657983630634   -0.0477339553721882   -0.0001568952927505826
-0.03801648518648291   -0.004477102931040745   -3.6524451574095105e-05
-0.06165363996143281   -0.048266048474825886   -0.0009214558831865448
-0.037151544649741734   -0.04730712458940144   4.611901506520008e-05
-0.03801648518648291   -0.004477102931040745   -3.6524451574095105e-05
-0.062238508409509945   -0.004881482487249596   -0.0005981790152565975
-0.06165363996143281   -0.048266048474825886   -0.0009214558831865448
-0.06253105063722803   -0.004446890237104609   -0.0005373831402628455
-0.037151544649741734   -0.04730712458940144   4.611901506520008e-05
-0.06194862805335558   -0.047855836914658556   -0.0007739903734908541
-0.06253105063722803   -0.004446890237104609   -0.0005373831402628455
-0.06165363996143281   -0.048266048474825886   -0.0009214558831865448
-0.037151544649741734   -0.04730712458940144   4.611901506520008e-05
-0.06253105063722803   -0.004446890237104609   -0.0005373831402628455
-0.03848077141501731   -0.003921032899106602   0.00019821351010656407
-0.03801648518648291   -0.004477102931040745   -3.6524451574095105e-05
-0.037151544649741734   -0.04730712458940144   4.611901506520008e-05
-0.06253105063722803   -0.004446890237104609   -0.0005373831402628455
-0.03801648518648291   -0.004477102931040745   -3.6524451574095105e-05
-0.06165363996143281   -0.048266048474825886   -0.0009214558831865448
-0.037151544649741734   -0.04730712458940144   4.611901506520008e-05
-0.03848077141501731   -0.003921032899106602   0.00019821351010656407
-0.06194862805335558   -0.047855836914658556   -0.0007739903734908541
-0.03749268107646647   -0.04683933524209946   0.00026967595768207794
-0.03848077141501731   -0.003921032899106602   0.00019821351010656407
-0.06253105063722803   -0.004446890237104609   -0.0005373831402628455
-0.06194862805335558   -0.047855836914658556   -0.0007739903734908541
-0.06280508759884744   -0.003922514960341422   -0.0004569547294752633
-0.03749268107646647   -0.04683933524209946   0.00026967595768207794
-0.0622200059660407   -0.04741219946555439   -0.0006138771251991939
-0.06280508759884744   -0.003922514960341422   -0.0004569547294752633
-0.06194862805335558   -0.047855836914658556   -0.0007739903734908541
-0.03749268107646647   -0.04683933524209946   0.00026967595768207794
-0.06280508759884744   -0.003922514960341422   -0.0004569547294752633
-0.03899062070765388   -0.003280898514427051   0.000421249287003711
-0.03848077141501731   -0.003921032899106602   0.00019821351010656407
-0.03749268107646647   -0.04683933524209946   0.00026967595768207794
-0.06280508759884744   -0.003922514960341422   -0.0004569547294752633
-0.03848077141501731   -0.003921032899106602   0.00019821351010656407
-0.06194862805335558   -0.047855836914658556   -0.0007739903734908541
-0.06134478473772309   -0.048655047208302694   -0.0010698115048702122
-0.06195684015949975   -0.005258198192262568   -0.0006322241389941246
-0.08711698955023782   -0.04887665754401328   -0.0017358763348583604
-0.06165363996143281   -0.048266048474825886   -0.0009214558831865448
-0.06195684015949975   -0.005258198192262568   -0.0006322241389941246
-0.08756495851669648   -0.005186941084218357   -0.0012891183529069327
-0.08711698955023782   -0.04887665754401328   -0.0017358763348583604
-0.08775471219974307   -0.0048444582872587   -0.0012748185240658099
-0.06165363996143281   -0.048266048474825886   -0.0009214558831865448
-0.08739504221271546   -0.04852612428043737   -0.0016283228471142216
-0.08775471219974307   -0.0048444582872587   -0.0012748185240658099
-0.08711698955023782   -0.04887665754401328   -0.0017358763348583604
-0.06165363996143281   -0.048266048474825886   -0.0009214558831865448
-0.08775471219974307   -0.0048444582872587   -0.0012748185240658099
-0.062238508409509945   -0.004881482487249596   -0.0005981790152565975
-0.06195684015949975   -0.005258198192262568   -0.0006322241389941246
-0.06165363996143281   -0.048266048474825886   -0.0009214558831865448
-0.08775471219974307   -0.0048444582872587   -0.0012748185240658099
-0.06195684015949975   -0.005258198192262568   -0.0006322241389941246
-0.08711698955023782   -0.04887665754401328   -0.0017358763348583604
-0.06165363996143281   -0.048266048474825886   -0.0009214558831865448
-0.062238508409509945   -0.004881482487249596   -0.0005981790152565975
-0.08739504221271546   -0.04852612428043737   -0.0016283228471142216
-0.06194862805335558   -0.047855836914658556   -0.0007739903734908541
-0.062238508409509945   -0.004881482487249596   -0.0005981790152565975
-0.08775471219974307   -0.0048444582872587   -0.0012748185240658099
-0.08739504221271546   -0.04852612428043737   -0.0016283228471142216
-0.08795279591779186   -0.0044658040514765785   -0.0012664130325374446
-0.06194862805335558   -0.047855836914658556   -0.0007739903734908541
-0.08764277666956316   -0.048145214613061184   -0.0015242131094368933
-0.08795279591779186   -0.0044658040514765785   -0.0012664130325374446
-0.08739504221271546   -0.04852612428043737   -0.0016283228471142216
-0.06194862805335558   -0.047855836914658556   -0.0007739903734908541
-0.08795279591779186   -0.0044658040514765785   -0.0012664130325374446
-0.06253105063722803   -0.004446890237104609   -0.0005373831402628455
-0.062238508409509945   -0.004881482487249596   -0.0005981790152565975
-0.06194862805335558   -0.047855836914658556   -0.0007739903734908541
-0.08795279591779186   -0.0044658040514765785   -0.0012664130325374446
-0.062238508409509945   -0.004881482487249596   -0.0005981790152565975
-0.08739504221271546   -0.04852612428043737   -0.0016283228471142216
-0.06194862805335558   -0.047855836914658556   -0.0007739903734908541
-0.06253105063722803   -0.004446890237104609   -0.0005373831402628455
-0.08764277666956316   -0.048145214613061184   -0.0015242131094368933
-0.0622200059660407   -0.04741219946555439   -0.0006138771251991939
-0.06253105063722803   -0.004446890237104609   -0.0005373831402628455
-0.08795279591779186   -0.0044658040514765785   -0.0012664130325374446
-0.08764277666956316   -0.048145214613061184   -0.0015242131094368933
-0.08810063516320259   -0.004058409476135902   -0.0012648908876155952
-0.0622200059660407   -0.04741219946555439   -0.0006138771251991939
-0.08786694714920174   -0.04774017257435531   -0.0014174533662068911
-0.08810063516320259   -0.004058409476135902   -0.0012648908876155952
-0.08764277666956316   -0.048145214613061184   -0.0015242131094368933
-0.0622200059660407   -0.04741219946555439   -0.0006138771251991939
-0.08810063516320259   -0.004058409476135902   -0.0012648908876155952
-0.06280508759884744   -0.003922514960341422   -0.0004569547294752633
-0.06253105063722803   -0.004446890237104609   -0.0005373831402628455
-0.0622200059660407   -0.04741219946555439   -0.0006138771251991939
-0.08810063516320259   -0.004058409476135902   -0.0012648908876155952
-0.06253105063722803   -0.004446890237104609   -0.0005373831402628455
-0.08764277666956316   -0.048145214613061184   -0.0015242131094368933
-0.08711698955023782   -0.04887665754401328   -0.0017358763348583604
-0.08756495851669648   -0.005186941084218357   -0.0012891183529069327
-0.11379418516034864   -0.04890260297042352   -0.0022917621536483797
-0.08739504221271546   -0.04852612428043737   -0.0016283228471142216
-0.08756495851669648   -0.005186941084218357   -0.0012891183529069327
-0.11387059643333357   -0.005146786296122879   -0.001934533595579504
-0.11379418516034864   -0.04890260297042352   -0.0022917621536483797
-0.1140235734923702   -0.004774329796938793   -0.001935086386801893
-0.08739504221271546   -0.04852612428043737   -0.0016283228471142216
-0.11403412439769342   -0.048561818459245044   -0.002246740903086572
-0.1140235734923702   -0.004774329796938793   -0.001935086386801893
-0.11379418516034864   -0.04890260297042352   -0.0022917621536483797
-0.08739504221271546   -0.04852612428043737   -0.0016283228471142216
-0.1140235734923702   -0.004774329796938793   -0.001935086386801893
-0.08775471219974307   -0.0048444582872587   -0.0012748185240658099
-0.08756495851669648   -0.005186941084218357   -0.0012891183529069327
-0.08739504221271546   -0.04852612428043737   -0.0016283228471142216
-0.1140235734923702   -0.004774329796938793   -0.001935086386801893
-0.08756495851669648   -0.005186941084218357   -0.0012891183529069327
-0.11379418516034864   -0.04890260297042352   -0.0022917621536483797
-0.08739504221271546   -0.04852612428043737   -0.0016283228471142216
-0.08775471219974307   -0.0048444582872587   -0.0012748185240658099
-0.11403412439769342   -0.048561818459245044   -0.002246740903086572
-0.08764277666956316   -0.048145214613061184   -0.0015242131094368933
-0.08775471219974307   -0.0048444582872587   -0.0012748185240658099
-0.1140235734923702   -0.004774329796938793   -0.001935086386801893
-0.11403412439769342   -0.048561818459245044   -0.002246740903086572
-0.1141917301998655   -0.004403963639094274   -0.001964610768092496
-0.08764277666956316   -0.048145214613061184   -0.0015242131094368933
-0.11424908763917635   -0.0481942655460266   -0.0021942999951551777
-0.1141917301998655   -0.004403963639094274   -0.001964610768092496
-0.11403412439769342   -0.048561818459245044   -0.002246740903086572
-0.08764277666956316   -0.048145214613061184   -0.0015242131094368933
-0.1141917301998655   -0.004403963639094274   -0.001964610768092496
-0.08795279591779186   -0.0044658040514765785   -0.0012664130325374446
-0.08775471219974307   -0.0048444582872587   -0.0012748185240658099
-0.08764277666956316   -0.048145214613061184   -0.0015242131094368933
-0.1141917301998655   -0.004403963639094274   -0.001964610768092496
-0.08775471219974307   -0.0048444582872587   -0.0012748185240658099
-0.11403412439769342   -0.048561818459245044   -0.002246740903086572
-0.08764277666956316   -0.048145214613061184   -0.0015242131094368933
-0.08795279591779186   -0.0044658040514765785   -0.0012664130325374446
-0.11424908763917635   -0.0481942655460266   -0.0021942999951551777
-0.08786694714920174   -0.04774017257435531   -0.0014174533662068911
-0.08795279591779186   -0.0044658040514765785   -0.0012664130325374446
-0.1141917301998655   -0.004403963639094274   -0.001964610768092496
-0.11424908763917635   -0.0481942655460266   -0.0021942999951551777
-0.11431476094491737   -0.0040019441343519735   -0.001996407916316692
-0.08786694714920174   -0.04774017257435531   -0.0014174533662068911
-0.11443118989498245   -0.04780489060042185   -0.002146262225948404
-0.11431476094491737   -0.0040019441343519735   -0.001996407916316692
-0.11424908763917635   -0.0481942655460266   -0.0021942999951551777
-0.08786694714920174   -0.04774017257435531   -0.0014174533662068911
-0.11431476094491737   -0.0040019441343519735   -0.001996407916316692
-0.08810063516320259   -0.004058409476135902   -0.0012648908876155952
-0.08795279591779186   -0.0044658040514765785   -0.0012664130325374446
-0.08786694714920174   -0.04774017257435531   -0.0014174533662068911
-0.11431476094491737   -0.0040019441343519735   -0.001996407916316692
-0.08795279591779186   -0.0044658040514765785   -0.0012664130325374446
-0.11424908763917635   -0.0481942655460266   -0.0021942999951551777
              </DataArray>   
          </PointData>  
       </Piece>  
   </UnstructuredGrid> 
</VTKFile> 
