<?xml version="1.0"?> 
<VTKFile type="UnstructuredGrid"> 
   <UnstructuredGrid> 
      <Piece NumberOfPoints="6000"  NumberOfCells="1500">  
          <Points>  
             <DataArray type="Float64" NumberOfComponents="3" format="ascii">   
-500.0   0.0   0.0
-450.0   0.0   0.0
-500.0   30.0   0.0
-500.0   0.0   16.666666666666668
-450.0   0.0   0.0
-450.0   30.0   0.0
-500.0   30.0   0.0
-450.0   30.0   16.666666666666668
-500.0   0.0   16.666666666666668
-500.0   30.0   16.666666666666668
-450.0   30.0   16.666666666666668
-500.0   30.0   0.0
-500.0   0.0   16.666666666666668
-450.0   30.0   16.666666666666668
-450.0   0.0   16.666666666666668
-450.0   0.0   0.0
-500.0   0.0   16.666666666666668
-450.0   30.0   16.666666666666668
-450.0   0.0   0.0
-500.0   30.0   0.0
-500.0   0.0   16.666666666666668
-450.0   0.0   16.666666666666668
-500.0   30.0   16.666666666666668
-500.0   0.0   33.333333333333336
-450.0   0.0   16.666666666666668
-450.0   30.0   16.666666666666668
-500.0   30.0   16.666666666666668
-450.0   30.0   33.333333333333336
-500.0   0.0   33.333333333333336
-500.0   30.0   33.333333333333336
-450.0   30.0   33.333333333333336
-500.0   30.0   16.666666666666668
-500.0   0.0   33.333333333333336
-450.0   30.0   33.333333333333336
-450.0   0.0   33.333333333333336
-450.0   0.0   16.666666666666668
-500.0   0.0   33.333333333333336
-450.0   30.0   33.333333333333336
-450.0   0.0   16.666666666666668
-500.0   30.0   16.666666666666668
-500.0   0.0   33.333333333333336
-450.0   0.0   33.333333333333336
-500.0   30.0   33.333333333333336
-500.0   0.0   50.0
-450.0   0.0   33.333333333333336
-450.0   30.0   33.333333333333336
-500.0   30.0   33.333333333333336
-450.0   30.0   50.0
-500.0   0.0   50.0
-500.0   30.0   50.0
-450.0   30.0   50.0
-500.0   30.0   33.333333333333336
-500.0   0.0   50.0
-450.0   30.0   50.0
-450.0   0.0   50.0
-450.0   0.0   33.333333333333336
-500.0   0.0   50.0
-450.0   30.0   50.0
-450.0   0.0   33.333333333333336
-500.0   30.0   33.333333333333336
-500.0   30.0   0.0
-450.0   30.0   0.0
-500.0   60.0   0.0
-500.0   30.0   16.666666666666668
-450.0   30.0   0.0
-450.0   60.0   0.0
-500.0   60.0   0.0
-450.0   60.0   16.666666666666668
-500.0   30.0   16.666666666666668
-500.0   60.0   16.666666666666668
-450.0   60.0   16.666666666666668
-500.0   60.0   0.0
-500.0   30.0   16.666666666666668
-450.0   60.0   16.666666666666668
-450.0   30.0   16.666666666666668
-450.0   30.0   0.0
-500.0   30.0   16.666666666666668
-450.0   60.0   16.666666666666668
-450.0   30.0   0.0
-500.0   60.0   0.0
-500.0   30.0   16.666666666666668
-450.0   30.0   16.666666666666668
-500.0   60.0   16.666666666666668
-500.0   30.0   33.333333333333336
-450.0   30.0   16.666666666666668
-450.0   60.0   16.666666666666668
-500.0   60.0   16.666666666666668
-450.0   60.0   33.333333333333336
-500.0   30.0   33.333333333333336
-500.0   60.0   33.333333333333336
-450.0   60.0   33.333333333333336
-500.0   60.0   16.666666666666668
-500.0   30.0   33.333333333333336
-450.0   60.0   33.333333333333336
-450.0   30.0   33.333333333333336
-450.0   30.0   16.666666666666668
-500.0   30.0   33.333333333333336
-450.0   60.0   33.333333333333336
-450.0   30.0   16.666666666666668
-500.0   60.0   16.666666666666668
-500.0   30.0   33.333333333333336
-450.0   30.0   33.333333333333336
-500.0   60.0   33.333333333333336
-500.0   30.0   50.0
-450.0   30.0   33.333333333333336
-450.0   60.0   33.333333333333336
-500.0   60.0   33.333333333333336
-450.0   60.0   50.0
-500.0   30.0   50.0
-500.0   60.0   50.0
-450.0   60.0   50.0
-500.0   60.0   33.333333333333336
-500.0   30.0   50.0
-450.0   60.0   50.0
-450.0   30.0   50.0
-450.0   30.0   33.333333333333336
-500.0   30.0   50.0
-450.0   60.0   50.0
-450.0   30.0   33.333333333333336
-500.0   60.0   33.333333333333336
-500.0   60.0   0.0
-450.0   60.0   0.0
-500.0   90.0   0.0
-500.0   60.0   16.666666666666668
-450.0   60.0   0.0
-450.0   90.0   0.0
-500.0   90.0   0.0
-450.0   90.0   16.666666666666668
-500.0   60.0   16.666666666666668
-500.0   90.0   16.666666666666668
-450.0   90.0   16.666666666666668
-500.0   90.0   0.0
-500.0   60.0   16.666666666666668
-450.0   90.0   16.666666666666668
-450.0   60.0   16.666666666666668
-450.0   60.0   0.0
-500.0   60.0   16.666666666666668
-450.0   90.0   16.666666666666668
-450.0   60.0   0.0
-500.0   90.0   0.0
-500.0   60.0   16.666666666666668
-450.0   60.0   16.666666666666668
-500.0   90.0   16.666666666666668
-500.0   60.0   33.333333333333336
-450.0   60.0   16.666666666666668
-450.0   90.0   16.666666666666668
-500.0   90.0   16.666666666666668
-450.0   90.0   33.333333333333336
-500.0   60.0   33.333333333333336
-500.0   90.0   33.333333333333336
-450.0   90.0   33.333333333333336
-500.0   90.0   16.666666666666668
-500.0   60.0   33.333333333333336
-450.0   90.0   33.333333333333336
-450.0   60.0   33.333333333333336
-450.0   60.0   16.666666666666668
-500.0   60.0   33.333333333333336
-450.0   90.0   33.333333333333336
-450.0   60.0   16.666666666666668
-500.0   90.0   16.666666666666668
-500.0   60.0   33.333333333333336
-450.0   60.0   33.333333333333336
-500.0   90.0   33.333333333333336
-500.0   60.0   50.0
-450.0   60.0   33.333333333333336
-450.0   90.0   33.333333333333336
-500.0   90.0   33.333333333333336
-450.0   90.0   50.0
-500.0   60.0   50.0
-500.0   90.0   50.0
-450.0   90.0   50.0
-500.0   90.0   33.333333333333336
-500.0   60.0   50.0
-450.0   90.0   50.0
-450.0   60.0   50.0
-450.0   60.0   33.333333333333336
-500.0   60.0   50.0
-450.0   90.0   50.0
-450.0   60.0   33.333333333333336
-500.0   90.0   33.333333333333336
-500.0   90.0   0.0
-450.0   90.0   0.0
-500.0   120.0   0.0
-500.0   90.0   16.666666666666668
-450.0   90.0   0.0
-450.0   120.0   0.0
-500.0   120.0   0.0
-450.0   120.0   16.666666666666668
-500.0   90.0   16.666666666666668
-500.0   120.0   16.666666666666668
-450.0   120.0   16.666666666666668
-500.0   120.0   0.0
-500.0   90.0   16.666666666666668
-450.0   120.0   16.666666666666668
-450.0   90.0   16.666666666666668
-450.0   90.0   0.0
-500.0   90.0   16.666666666666668
-450.0   120.0   16.666666666666668
-450.0   90.0   0.0
-500.0   120.0   0.0
-500.0   90.0   16.666666666666668
-450.0   90.0   16.666666666666668
-500.0   120.0   16.666666666666668
-500.0   90.0   33.333333333333336
-450.0   90.0   16.666666666666668
-450.0   120.0   16.666666666666668
-500.0   120.0   16.666666666666668
-450.0   120.0   33.333333333333336
-500.0   90.0   33.333333333333336
-500.0   120.0   33.333333333333336
-450.0   120.0   33.333333333333336
-500.0   120.0   16.666666666666668
-500.0   90.0   33.333333333333336
-450.0   120.0   33.333333333333336
-450.0   90.0   33.333333333333336
-450.0   90.0   16.666666666666668
-500.0   90.0   33.333333333333336
-450.0   120.0   33.333333333333336
-450.0   90.0   16.666666666666668
-500.0   120.0   16.666666666666668
-500.0   90.0   33.333333333333336
-450.0   90.0   33.333333333333336
-500.0   120.0   33.333333333333336
-500.0   90.0   50.0
-450.0   90.0   33.333333333333336
-450.0   120.0   33.333333333333336
-500.0   120.0   33.333333333333336
-450.0   120.0   50.0
-500.0   90.0   50.0
-500.0   120.0   50.0
-450.0   120.0   50.0
-500.0   120.0   33.333333333333336
-500.0   90.0   50.0
-450.0   120.0   50.0
-450.0   90.0   50.0
-450.0   90.0   33.333333333333336
-500.0   90.0   50.0
-450.0   120.0   50.0
-450.0   90.0   33.333333333333336
-500.0   120.0   33.333333333333336
-500.0   120.0   0.0
-450.0   120.0   0.0
-500.0   150.0   0.0
-500.0   120.0   16.666666666666668
-450.0   120.0   0.0
-450.0   150.0   0.0
-500.0   150.0   0.0
-450.0   150.0   16.666666666666668
-500.0   120.0   16.666666666666668
-500.0   150.0   16.666666666666668
-450.0   150.0   16.666666666666668
-500.0   150.0   0.0
-500.0   120.0   16.666666666666668
-450.0   150.0   16.666666666666668
-450.0   120.0   16.666666666666668
-450.0   120.0   0.0
-500.0   120.0   16.666666666666668
-450.0   150.0   16.666666666666668
-450.0   120.0   0.0
-500.0   150.0   0.0
-500.0   120.0   16.666666666666668
-450.0   120.0   16.666666666666668
-500.0   150.0   16.666666666666668
-500.0   120.0   33.333333333333336
-450.0   120.0   16.666666666666668
-450.0   150.0   16.666666666666668
-500.0   150.0   16.666666666666668
-450.0   150.0   33.333333333333336
-500.0   120.0   33.333333333333336
-500.0   150.0   33.333333333333336
-450.0   150.0   33.333333333333336
-500.0   150.0   16.666666666666668
-500.0   120.0   33.333333333333336
-450.0   150.0   33.333333333333336
-450.0   120.0   33.333333333333336
-450.0   120.0   16.666666666666668
-500.0   120.0   33.333333333333336
-450.0   150.0   33.333333333333336
-450.0   120.0   16.666666666666668
-500.0   150.0   16.666666666666668
-500.0   120.0   33.333333333333336
-450.0   120.0   33.333333333333336
-500.0   150.0   33.333333333333336
-500.0   120.0   50.0
-450.0   120.0   33.333333333333336
-450.0   150.0   33.333333333333336
-500.0   150.0   33.333333333333336
-450.0   150.0   50.0
-500.0   120.0   50.0
-500.0   150.0   50.0
-450.0   150.0   50.0
-500.0   150.0   33.333333333333336
-500.0   120.0   50.0
-450.0   150.0   50.0
-450.0   120.0   50.0
-450.0   120.0   33.333333333333336
-500.0   120.0   50.0
-450.0   150.0   50.0
-450.0   120.0   33.333333333333336
-500.0   150.0   33.333333333333336
-450.0   0.0   0.0
-400.0   0.0   0.0
-450.0   30.0   0.0
-450.0   0.0   16.666666666666668
-400.0   0.0   0.0
-400.0   30.0   0.0
-450.0   30.0   0.0
-400.0   30.0   16.666666666666668
-450.0   0.0   16.666666666666668
-450.0   30.0   16.666666666666668
-400.0   30.0   16.666666666666668
-450.0   30.0   0.0
-450.0   0.0   16.666666666666668
-400.0   30.0   16.666666666666668
-400.0   0.0   16.666666666666668
-400.0   0.0   0.0
-450.0   0.0   16.666666666666668
-400.0   30.0   16.666666666666668
-400.0   0.0   0.0
-450.0   30.0   0.0
-450.0   0.0   16.666666666666668
-400.0   0.0   16.666666666666668
-450.0   30.0   16.666666666666668
-450.0   0.0   33.333333333333336
-400.0   0.0   16.666666666666668
-400.0   30.0   16.666666666666668
-450.0   30.0   16.666666666666668
-400.0   30.0   33.333333333333336
-450.0   0.0   33.333333333333336
-450.0   30.0   33.333333333333336
-400.0   30.0   33.333333333333336
-450.0   30.0   16.666666666666668
-450.0   0.0   33.333333333333336
-400.0   30.0   33.333333333333336
-400.0   0.0   33.333333333333336
-400.0   0.0   16.666666666666668
-450.0   0.0   33.333333333333336
-400.0   30.0   33.333333333333336
-400.0   0.0   16.666666666666668
-450.0   30.0   16.666666666666668
-450.0   0.0   33.333333333333336
-400.0   0.0   33.333333333333336
-450.0   30.0   33.333333333333336
-450.0   0.0   50.0
-400.0   0.0   33.333333333333336
-400.0   30.0   33.333333333333336
-450.0   30.0   33.333333333333336
-400.0   30.0   50.0
-450.0   0.0   50.0
-450.0   30.0   50.0
-400.0   30.0   50.0
-450.0   30.0   33.333333333333336
-450.0   0.0   50.0
-400.0   30.0   50.0
-400.0   0.0   50.0
-400.0   0.0   33.333333333333336
-450.0   0.0   50.0
-400.0   30.0   50.0
-400.0   0.0   33.333333333333336
-450.0   30.0   33.333333333333336
-450.0   30.0   0.0
-400.0   30.0   0.0
-450.0   60.0   0.0
-450.0   30.0   16.666666666666668
-400.0   30.0   0.0
-400.0   60.0   0.0
-450.0   60.0   0.0
-400.0   60.0   16.666666666666668
-450.0   30.0   16.666666666666668
-450.0   60.0   16.666666666666668
-400.0   60.0   16.666666666666668
-450.0   60.0   0.0
-450.0   30.0   16.666666666666668
-400.0   60.0   16.666666666666668
-400.0   30.0   16.666666666666668
-400.0   30.0   0.0
-450.0   30.0   16.666666666666668
-400.0   60.0   16.666666666666668
-400.0   30.0   0.0
-450.0   60.0   0.0
-450.0   30.0   16.666666666666668
-400.0   30.0   16.666666666666668
-450.0   60.0   16.666666666666668
-450.0   30.0   33.333333333333336
-400.0   30.0   16.666666666666668
-400.0   60.0   16.666666666666668
-450.0   60.0   16.666666666666668
-400.0   60.0   33.333333333333336
-450.0   30.0   33.333333333333336
-450.0   60.0   33.333333333333336
-400.0   60.0   33.333333333333336
-450.0   60.0   16.666666666666668
-450.0   30.0   33.333333333333336
-400.0   60.0   33.333333333333336
-400.0   30.0   33.333333333333336
-400.0   30.0   16.666666666666668
-450.0   30.0   33.333333333333336
-400.0   60.0   33.333333333333336
-400.0   30.0   16.666666666666668
-450.0   60.0   16.666666666666668
-450.0   30.0   33.333333333333336
-400.0   30.0   33.333333333333336
-450.0   60.0   33.333333333333336
-450.0   30.0   50.0
-400.0   30.0   33.333333333333336
-400.0   60.0   33.333333333333336
-450.0   60.0   33.333333333333336
-400.0   60.0   50.0
-450.0   30.0   50.0
-450.0   60.0   50.0
-400.0   60.0   50.0
-450.0   60.0   33.333333333333336
-450.0   30.0   50.0
-400.0   60.0   50.0
-400.0   30.0   50.0
-400.0   30.0   33.333333333333336
-450.0   30.0   50.0
-400.0   60.0   50.0
-400.0   30.0   33.333333333333336
-450.0   60.0   33.333333333333336
-450.0   60.0   0.0
-400.0   60.0   0.0
-450.0   90.0   0.0
-450.0   60.0   16.666666666666668
-400.0   60.0   0.0
-400.0   90.0   0.0
-450.0   90.0   0.0
-400.0   90.0   16.666666666666668
-450.0   60.0   16.666666666666668
-450.0   90.0   16.666666666666668
-400.0   90.0   16.666666666666668
-450.0   90.0   0.0
-450.0   60.0   16.666666666666668
-400.0   90.0   16.666666666666668
-400.0   60.0   16.666666666666668
-400.0   60.0   0.0
-450.0   60.0   16.666666666666668
-400.0   90.0   16.666666666666668
-400.0   60.0   0.0
-450.0   90.0   0.0
-450.0   60.0   16.666666666666668
-400.0   60.0   16.666666666666668
-450.0   90.0   16.666666666666668
-450.0   60.0   33.333333333333336
-400.0   60.0   16.666666666666668
-400.0   90.0   16.666666666666668
-450.0   90.0   16.666666666666668
-400.0   90.0   33.333333333333336
-450.0   60.0   33.333333333333336
-450.0   90.0   33.333333333333336
-400.0   90.0   33.333333333333336
-450.0   90.0   16.666666666666668
-450.0   60.0   33.333333333333336
-400.0   90.0   33.333333333333336
-400.0   60.0   33.333333333333336
-400.0   60.0   16.666666666666668
-450.0   60.0   33.333333333333336
-400.0   90.0   33.333333333333336
-400.0   60.0   16.666666666666668
-450.0   90.0   16.666666666666668
-450.0   60.0   33.333333333333336
-400.0   60.0   33.333333333333336
-450.0   90.0   33.333333333333336
-450.0   60.0   50.0
-400.0   60.0   33.333333333333336
-400.0   90.0   33.333333333333336
-450.0   90.0   33.333333333333336
-400.0   90.0   50.0
-450.0   60.0   50.0
-450.0   90.0   50.0
-400.0   90.0   50.0
-450.0   90.0   33.333333333333336
-450.0   60.0   50.0
-400.0   90.0   50.0
-400.0   60.0   50.0
-400.0   60.0   33.333333333333336
-450.0   60.0   50.0
-400.0   90.0   50.0
-400.0   60.0   33.333333333333336
-450.0   90.0   33.333333333333336
-450.0   90.0   0.0
-400.0   90.0   0.0
-450.0   120.0   0.0
-450.0   90.0   16.666666666666668
-400.0   90.0   0.0
-400.0   120.0   0.0
-450.0   120.0   0.0
-400.0   120.0   16.666666666666668
-450.0   90.0   16.666666666666668
-450.0   120.0   16.666666666666668
-400.0   120.0   16.666666666666668
-450.0   120.0   0.0
-450.0   90.0   16.666666666666668
-400.0   120.0   16.666666666666668
-400.0   90.0   16.666666666666668
-400.0   90.0   0.0
-450.0   90.0   16.666666666666668
-400.0   120.0   16.666666666666668
-400.0   90.0   0.0
-450.0   120.0   0.0
-450.0   90.0   16.666666666666668
-400.0   90.0   16.666666666666668
-450.0   120.0   16.666666666666668
-450.0   90.0   33.333333333333336
-400.0   90.0   16.666666666666668
-400.0   120.0   16.666666666666668
-450.0   120.0   16.666666666666668
-400.0   120.0   33.333333333333336
-450.0   90.0   33.333333333333336
-450.0   120.0   33.333333333333336
-400.0   120.0   33.333333333333336
-450.0   120.0   16.666666666666668
-450.0   90.0   33.333333333333336
-400.0   120.0   33.333333333333336
-400.0   90.0   33.333333333333336
-400.0   90.0   16.666666666666668
-450.0   90.0   33.333333333333336
-400.0   120.0   33.333333333333336
-400.0   90.0   16.666666666666668
-450.0   120.0   16.666666666666668
-450.0   90.0   33.333333333333336
-400.0   90.0   33.333333333333336
-450.0   120.0   33.333333333333336
-450.0   90.0   50.0
-400.0   90.0   33.333333333333336
-400.0   120.0   33.333333333333336
-450.0   120.0   33.333333333333336
-400.0   120.0   50.0
-450.0   90.0   50.0
-450.0   120.0   50.0
-400.0   120.0   50.0
-450.0   120.0   33.333333333333336
-450.0   90.0   50.0
-400.0   120.0   50.0
-400.0   90.0   50.0
-400.0   90.0   33.333333333333336
-450.0   90.0   50.0
-400.0   120.0   50.0
-400.0   90.0   33.333333333333336
-450.0   120.0   33.333333333333336
-450.0   120.0   0.0
-400.0   120.0   0.0
-450.0   150.0   0.0
-450.0   120.0   16.666666666666668
-400.0   120.0   0.0
-400.0   150.0   0.0
-450.0   150.0   0.0
-400.0   150.0   16.666666666666668
-450.0   120.0   16.666666666666668
-450.0   150.0   16.666666666666668
-400.0   150.0   16.666666666666668
-450.0   150.0   0.0
-450.0   120.0   16.666666666666668
-400.0   150.0   16.666666666666668
-400.0   120.0   16.666666666666668
-400.0   120.0   0.0
-450.0   120.0   16.666666666666668
-400.0   150.0   16.666666666666668
-400.0   120.0   0.0
-450.0   150.0   0.0
-450.0   120.0   16.666666666666668
-400.0   120.0   16.666666666666668
-450.0   150.0   16.666666666666668
-450.0   120.0   33.333333333333336
-400.0   120.0   16.666666666666668
-400.0   150.0   16.666666666666668
-450.0   150.0   16.666666666666668
-400.0   150.0   33.333333333333336
-450.0   120.0   33.333333333333336
-450.0   150.0   33.333333333333336
-400.0   150.0   33.333333333333336
-450.0   150.0   16.666666666666668
-450.0   120.0   33.333333333333336
-400.0   150.0   33.333333333333336
-400.0   120.0   33.333333333333336
-400.0   120.0   16.666666666666668
-450.0   120.0   33.333333333333336
-400.0   150.0   33.333333333333336
-400.0   120.0   16.666666666666668
-450.0   150.0   16.666666666666668
-450.0   120.0   33.333333333333336
-400.0   120.0   33.333333333333336
-450.0   150.0   33.333333333333336
-450.0   120.0   50.0
-400.0   120.0   33.333333333333336
-400.0   150.0   33.333333333333336
-450.0   150.0   33.333333333333336
-400.0   150.0   50.0
-450.0   120.0   50.0
-450.0   150.0   50.0
-400.0   150.0   50.0
-450.0   150.0   33.333333333333336
-450.0   120.0   50.0
-400.0   150.0   50.0
-400.0   120.0   50.0
-400.0   120.0   33.333333333333336
-450.0   120.0   50.0
-400.0   150.0   50.0
-400.0   120.0   33.333333333333336
-450.0   150.0   33.333333333333336
-400.0   0.0   0.0
-350.0   0.0   0.0
-400.0   30.0   0.0
-400.0   0.0   16.666666666666668
-350.0   0.0   0.0
-350.0   30.0   0.0
-400.0   30.0   0.0
-350.0   30.0   16.666666666666668
-400.0   0.0   16.666666666666668
-400.0   30.0   16.666666666666668
-350.0   30.0   16.666666666666668
-400.0   30.0   0.0
-400.0   0.0   16.666666666666668
-350.0   30.0   16.666666666666668
-350.0   0.0   16.666666666666668
-350.0   0.0   0.0
-400.0   0.0   16.666666666666668
-350.0   30.0   16.666666666666668
-350.0   0.0   0.0
-400.0   30.0   0.0
-400.0   0.0   16.666666666666668
-350.0   0.0   16.666666666666668
-400.0   30.0   16.666666666666668
-400.0   0.0   33.333333333333336
-350.0   0.0   16.666666666666668
-350.0   30.0   16.666666666666668
-400.0   30.0   16.666666666666668
-350.0   30.0   33.333333333333336
-400.0   0.0   33.333333333333336
-400.0   30.0   33.333333333333336
-350.0   30.0   33.333333333333336
-400.0   30.0   16.666666666666668
-400.0   0.0   33.333333333333336
-350.0   30.0   33.333333333333336
-350.0   0.0   33.333333333333336
-350.0   0.0   16.666666666666668
-400.0   0.0   33.333333333333336
-350.0   30.0   33.333333333333336
-350.0   0.0   16.666666666666668
-400.0   30.0   16.666666666666668
-400.0   0.0   33.333333333333336
-350.0   0.0   33.333333333333336
-400.0   30.0   33.333333333333336
-400.0   0.0   50.0
-350.0   0.0   33.333333333333336
-350.0   30.0   33.333333333333336
-400.0   30.0   33.333333333333336
-350.0   30.0   50.0
-400.0   0.0   50.0
-400.0   30.0   50.0
-350.0   30.0   50.0
-400.0   30.0   33.333333333333336
-400.0   0.0   50.0
-350.0   30.0   50.0
-350.0   0.0   50.0
-350.0   0.0   33.333333333333336
-400.0   0.0   50.0
-350.0   30.0   50.0
-350.0   0.0   33.333333333333336
-400.0   30.0   33.333333333333336
-400.0   30.0   0.0
-350.0   30.0   0.0
-400.0   60.0   0.0
-400.0   30.0   16.666666666666668
-350.0   30.0   0.0
-350.0   60.0   0.0
-400.0   60.0   0.0
-350.0   60.0   16.666666666666668
-400.0   30.0   16.666666666666668
-400.0   60.0   16.666666666666668
-350.0   60.0   16.666666666666668
-400.0   60.0   0.0
-400.0   30.0   16.666666666666668
-350.0   60.0   16.666666666666668
-350.0   30.0   16.666666666666668
-350.0   30.0   0.0
-400.0   30.0   16.666666666666668
-350.0   60.0   16.666666666666668
-350.0   30.0   0.0
-400.0   60.0   0.0
-400.0   30.0   16.666666666666668
-350.0   30.0   16.666666666666668
-400.0   60.0   16.666666666666668
-400.0   30.0   33.333333333333336
-350.0   30.0   16.666666666666668
-350.0   60.0   16.666666666666668
-400.0   60.0   16.666666666666668
-350.0   60.0   33.333333333333336
-400.0   30.0   33.333333333333336
-400.0   60.0   33.333333333333336
-350.0   60.0   33.333333333333336
-400.0   60.0   16.666666666666668
-400.0   30.0   33.333333333333336
-350.0   60.0   33.333333333333336
-350.0   30.0   33.333333333333336
-350.0   30.0   16.666666666666668
-400.0   30.0   33.333333333333336
-350.0   60.0   33.333333333333336
-350.0   30.0   16.666666666666668
-400.0   60.0   16.666666666666668
-400.0   30.0   33.333333333333336
-350.0   30.0   33.333333333333336
-400.0   60.0   33.333333333333336
-400.0   30.0   50.0
-350.0   30.0   33.333333333333336
-350.0   60.0   33.333333333333336
-400.0   60.0   33.333333333333336
-350.0   60.0   50.0
-400.0   30.0   50.0
-400.0   60.0   50.0
-350.0   60.0   50.0
-400.0   60.0   33.333333333333336
-400.0   30.0   50.0
-350.0   60.0   50.0
-350.0   30.0   50.0
-350.0   30.0   33.333333333333336
-400.0   30.0   50.0
-350.0   60.0   50.0
-350.0   30.0   33.333333333333336
-400.0   60.0   33.333333333333336
-400.0   60.0   0.0
-350.0   60.0   0.0
-400.0   90.0   0.0
-400.0   60.0   16.666666666666668
-350.0   60.0   0.0
-350.0   90.0   0.0
-400.0   90.0   0.0
-350.0   90.0   16.666666666666668
-400.0   60.0   16.666666666666668
-400.0   90.0   16.666666666666668
-350.0   90.0   16.666666666666668
-400.0   90.0   0.0
-400.0   60.0   16.666666666666668
-350.0   90.0   16.666666666666668
-350.0   60.0   16.666666666666668
-350.0   60.0   0.0
-400.0   60.0   16.666666666666668
-350.0   90.0   16.666666666666668
-350.0   60.0   0.0
-400.0   90.0   0.0
-400.0   60.0   16.666666666666668
-350.0   60.0   16.666666666666668
-400.0   90.0   16.666666666666668
-400.0   60.0   33.333333333333336
-350.0   60.0   16.666666666666668
-350.0   90.0   16.666666666666668
-400.0   90.0   16.666666666666668
-350.0   90.0   33.333333333333336
-400.0   60.0   33.333333333333336
-400.0   90.0   33.333333333333336
-350.0   90.0   33.333333333333336
-400.0   90.0   16.666666666666668
-400.0   60.0   33.333333333333336
-350.0   90.0   33.333333333333336
-350.0   60.0   33.333333333333336
-350.0   60.0   16.666666666666668
-400.0   60.0   33.333333333333336
-350.0   90.0   33.333333333333336
-350.0   60.0   16.666666666666668
-400.0   90.0   16.666666666666668
-400.0   60.0   33.333333333333336
-350.0   60.0   33.333333333333336
-400.0   90.0   33.333333333333336
-400.0   60.0   50.0
-350.0   60.0   33.333333333333336
-350.0   90.0   33.333333333333336
-400.0   90.0   33.333333333333336
-350.0   90.0   50.0
-400.0   60.0   50.0
-400.0   90.0   50.0
-350.0   90.0   50.0
-400.0   90.0   33.333333333333336
-400.0   60.0   50.0
-350.0   90.0   50.0
-350.0   60.0   50.0
-350.0   60.0   33.333333333333336
-400.0   60.0   50.0
-350.0   90.0   50.0
-350.0   60.0   33.333333333333336
-400.0   90.0   33.333333333333336
-400.0   90.0   0.0
-350.0   90.0   0.0
-400.0   120.0   0.0
-400.0   90.0   16.666666666666668
-350.0   90.0   0.0
-350.0   120.0   0.0
-400.0   120.0   0.0
-350.0   120.0   16.666666666666668
-400.0   90.0   16.666666666666668
-400.0   120.0   16.666666666666668
-350.0   120.0   16.666666666666668
-400.0   120.0   0.0
-400.0   90.0   16.666666666666668
-350.0   120.0   16.666666666666668
-350.0   90.0   16.666666666666668
-350.0   90.0   0.0
-400.0   90.0   16.666666666666668
-350.0   120.0   16.666666666666668
-350.0   90.0   0.0
-400.0   120.0   0.0
-400.0   90.0   16.666666666666668
-350.0   90.0   16.666666666666668
-400.0   120.0   16.666666666666668
-400.0   90.0   33.333333333333336
-350.0   90.0   16.666666666666668
-350.0   120.0   16.666666666666668
-400.0   120.0   16.666666666666668
-350.0   120.0   33.333333333333336
-400.0   90.0   33.333333333333336
-400.0   120.0   33.333333333333336
-350.0   120.0   33.333333333333336
-400.0   120.0   16.666666666666668
-400.0   90.0   33.333333333333336
-350.0   120.0   33.333333333333336
-350.0   90.0   33.333333333333336
-350.0   90.0   16.666666666666668
-400.0   90.0   33.333333333333336
-350.0   120.0   33.333333333333336
-350.0   90.0   16.666666666666668
-400.0   120.0   16.666666666666668
-400.0   90.0   33.333333333333336
-350.0   90.0   33.333333333333336
-400.0   120.0   33.333333333333336
-400.0   90.0   50.0
-350.0   90.0   33.333333333333336
-350.0   120.0   33.333333333333336
-400.0   120.0   33.333333333333336
-350.0   120.0   50.0
-400.0   90.0   50.0
-400.0   120.0   50.0
-350.0   120.0   50.0
-400.0   120.0   33.333333333333336
-400.0   90.0   50.0
-350.0   120.0   50.0
-350.0   90.0   50.0
-350.0   90.0   33.333333333333336
-400.0   90.0   50.0
-350.0   120.0   50.0
-350.0   90.0   33.333333333333336
-400.0   120.0   33.333333333333336
-400.0   120.0   0.0
-350.0   120.0   0.0
-400.0   150.0   0.0
-400.0   120.0   16.666666666666668
-350.0   120.0   0.0
-350.0   150.0   0.0
-400.0   150.0   0.0
-350.0   150.0   16.666666666666668
-400.0   120.0   16.666666666666668
-400.0   150.0   16.666666666666668
-350.0   150.0   16.666666666666668
-400.0   150.0   0.0
-400.0   120.0   16.666666666666668
-350.0   150.0   16.666666666666668
-350.0   120.0   16.666666666666668
-350.0   120.0   0.0
-400.0   120.0   16.666666666666668
-350.0   150.0   16.666666666666668
-350.0   120.0   0.0
-400.0   150.0   0.0
-400.0   120.0   16.666666666666668
-350.0   120.0   16.666666666666668
-400.0   150.0   16.666666666666668
-400.0   120.0   33.333333333333336
-350.0   120.0   16.666666666666668
-350.0   150.0   16.666666666666668
-400.0   150.0   16.666666666666668
-350.0   150.0   33.333333333333336
-400.0   120.0   33.333333333333336
-400.0   150.0   33.333333333333336
-350.0   150.0   33.333333333333336
-400.0   150.0   16.666666666666668
-400.0   120.0   33.333333333333336
-350.0   150.0   33.333333333333336
-350.0   120.0   33.333333333333336
-350.0   120.0   16.666666666666668
-400.0   120.0   33.333333333333336
-350.0   150.0   33.333333333333336
-350.0   120.0   16.666666666666668
-400.0   150.0   16.666666666666668
-400.0   120.0   33.333333333333336
-350.0   120.0   33.333333333333336
-400.0   150.0   33.333333333333336
-400.0   120.0   50.0
-350.0   120.0   33.333333333333336
-350.0   150.0   33.333333333333336
-400.0   150.0   33.333333333333336
-350.0   150.0   50.0
-400.0   120.0   50.0
-400.0   150.0   50.0
-350.0   150.0   50.0
-400.0   150.0   33.333333333333336
-400.0   120.0   50.0
-350.0   150.0   50.0
-350.0   120.0   50.0
-350.0   120.0   33.333333333333336
-400.0   120.0   50.0
-350.0   150.0   50.0
-350.0   120.0   33.333333333333336
-400.0   150.0   33.333333333333336
-350.0   0.0   0.0
-300.0   0.0   0.0
-350.0   30.0   0.0
-350.0   0.0   16.666666666666668
-300.0   0.0   0.0
-300.0   30.0   0.0
-350.0   30.0   0.0
-300.0   30.0   16.666666666666668
-350.0   0.0   16.666666666666668
-350.0   30.0   16.666666666666668
-300.0   30.0   16.666666666666668
-350.0   30.0   0.0
-350.0   0.0   16.666666666666668
-300.0   30.0   16.666666666666668
-300.0   0.0   16.666666666666668
-300.0   0.0   0.0
-350.0   0.0   16.666666666666668
-300.0   30.0   16.666666666666668
-300.0   0.0   0.0
-350.0   30.0   0.0
-350.0   0.0   16.666666666666668
-300.0   0.0   16.666666666666668
-350.0   30.0   16.666666666666668
-350.0   0.0   33.333333333333336
-300.0   0.0   16.666666666666668
-300.0   30.0   16.666666666666668
-350.0   30.0   16.666666666666668
-300.0   30.0   33.333333333333336
-350.0   0.0   33.333333333333336
-350.0   30.0   33.333333333333336
-300.0   30.0   33.333333333333336
-350.0   30.0   16.666666666666668
-350.0   0.0   33.333333333333336
-300.0   30.0   33.333333333333336
-300.0   0.0   33.333333333333336
-300.0   0.0   16.666666666666668
-350.0   0.0   33.333333333333336
-300.0   30.0   33.333333333333336
-300.0   0.0   16.666666666666668
-350.0   30.0   16.666666666666668
-350.0   0.0   33.333333333333336
-300.0   0.0   33.333333333333336
-350.0   30.0   33.333333333333336
-350.0   0.0   50.0
-300.0   0.0   33.333333333333336
-300.0   30.0   33.333333333333336
-350.0   30.0   33.333333333333336
-300.0   30.0   50.0
-350.0   0.0   50.0
-350.0   30.0   50.0
-300.0   30.0   50.0
-350.0   30.0   33.333333333333336
-350.0   0.0   50.0
-300.0   30.0   50.0
-300.0   0.0   50.0
-300.0   0.0   33.333333333333336
-350.0   0.0   50.0
-300.0   30.0   50.0
-300.0   0.0   33.333333333333336
-350.0   30.0   33.333333333333336
-350.0   30.0   0.0
-300.0   30.0   0.0
-350.0   60.0   0.0
-350.0   30.0   16.666666666666668
-300.0   30.0   0.0
-300.0   60.0   0.0
-350.0   60.0   0.0
-300.0   60.0   16.666666666666668
-350.0   30.0   16.666666666666668
-350.0   60.0   16.666666666666668
-300.0   60.0   16.666666666666668
-350.0   60.0   0.0
-350.0   30.0   16.666666666666668
-300.0   60.0   16.666666666666668
-300.0   30.0   16.666666666666668
-300.0   30.0   0.0
-350.0   30.0   16.666666666666668
-300.0   60.0   16.666666666666668
-300.0   30.0   0.0
-350.0   60.0   0.0
-350.0   30.0   16.666666666666668
-300.0   30.0   16.666666666666668
-350.0   60.0   16.666666666666668
-350.0   30.0   33.333333333333336
-300.0   30.0   16.666666666666668
-300.0   60.0   16.666666666666668
-350.0   60.0   16.666666666666668
-300.0   60.0   33.333333333333336
-350.0   30.0   33.333333333333336
-350.0   60.0   33.333333333333336
-300.0   60.0   33.333333333333336
-350.0   60.0   16.666666666666668
-350.0   30.0   33.333333333333336
-300.0   60.0   33.333333333333336
-300.0   30.0   33.333333333333336
-300.0   30.0   16.666666666666668
-350.0   30.0   33.333333333333336
-300.0   60.0   33.333333333333336
-300.0   30.0   16.666666666666668
-350.0   60.0   16.666666666666668
-350.0   30.0   33.333333333333336
-300.0   30.0   33.333333333333336
-350.0   60.0   33.333333333333336
-350.0   30.0   50.0
-300.0   30.0   33.333333333333336
-300.0   60.0   33.333333333333336
-350.0   60.0   33.333333333333336
-300.0   60.0   50.0
-350.0   30.0   50.0
-350.0   60.0   50.0
-300.0   60.0   50.0
-350.0   60.0   33.333333333333336
-350.0   30.0   50.0
-300.0   60.0   50.0
-300.0   30.0   50.0
-300.0   30.0   33.333333333333336
-350.0   30.0   50.0
-300.0   60.0   50.0
-300.0   30.0   33.333333333333336
-350.0   60.0   33.333333333333336
-350.0   60.0   0.0
-300.0   60.0   0.0
-350.0   90.0   0.0
-350.0   60.0   16.666666666666668
-300.0   60.0   0.0
-300.0   90.0   0.0
-350.0   90.0   0.0
-300.0   90.0   16.666666666666668
-350.0   60.0   16.666666666666668
-350.0   90.0   16.666666666666668
-300.0   90.0   16.666666666666668
-350.0   90.0   0.0
-350.0   60.0   16.666666666666668
-300.0   90.0   16.666666666666668
-300.0   60.0   16.666666666666668
-300.0   60.0   0.0
-350.0   60.0   16.666666666666668
-300.0   90.0   16.666666666666668
-300.0   60.0   0.0
-350.0   90.0   0.0
-350.0   60.0   16.666666666666668
-300.0   60.0   16.666666666666668
-350.0   90.0   16.666666666666668
-350.0   60.0   33.333333333333336
-300.0   60.0   16.666666666666668
-300.0   90.0   16.666666666666668
-350.0   90.0   16.666666666666668
-300.0   90.0   33.333333333333336
-350.0   60.0   33.333333333333336
-350.0   90.0   33.333333333333336
-300.0   90.0   33.333333333333336
-350.0   90.0   16.666666666666668
-350.0   60.0   33.333333333333336
-300.0   90.0   33.333333333333336
-300.0   60.0   33.333333333333336
-300.0   60.0   16.666666666666668
-350.0   60.0   33.333333333333336
-300.0   90.0   33.333333333333336
-300.0   60.0   16.666666666666668
-350.0   90.0   16.666666666666668
-350.0   60.0   33.333333333333336
-300.0   60.0   33.333333333333336
-350.0   90.0   33.333333333333336
-350.0   60.0   50.0
-300.0   60.0   33.333333333333336
-300.0   90.0   33.333333333333336
-350.0   90.0   33.333333333333336
-300.0   90.0   50.0
-350.0   60.0   50.0
-350.0   90.0   50.0
-300.0   90.0   50.0
-350.0   90.0   33.333333333333336
-350.0   60.0   50.0
-300.0   90.0   50.0
-300.0   60.0   50.0
-300.0   60.0   33.333333333333336
-350.0   60.0   50.0
-300.0   90.0   50.0
-300.0   60.0   33.333333333333336
-350.0   90.0   33.333333333333336
-350.0   90.0   0.0
-300.0   90.0   0.0
-350.0   120.0   0.0
-350.0   90.0   16.666666666666668
-300.0   90.0   0.0
-300.0   120.0   0.0
-350.0   120.0   0.0
-300.0   120.0   16.666666666666668
-350.0   90.0   16.666666666666668
-350.0   120.0   16.666666666666668
-300.0   120.0   16.666666666666668
-350.0   120.0   0.0
-350.0   90.0   16.666666666666668
-300.0   120.0   16.666666666666668
-300.0   90.0   16.666666666666668
-300.0   90.0   0.0
-350.0   90.0   16.666666666666668
-300.0   120.0   16.666666666666668
-300.0   90.0   0.0
-350.0   120.0   0.0
-350.0   90.0   16.666666666666668
-300.0   90.0   16.666666666666668
-350.0   120.0   16.666666666666668
-350.0   90.0   33.333333333333336
-300.0   90.0   16.666666666666668
-300.0   120.0   16.666666666666668
-350.0   120.0   16.666666666666668
-300.0   120.0   33.333333333333336
-350.0   90.0   33.333333333333336
-350.0   120.0   33.333333333333336
-300.0   120.0   33.333333333333336
-350.0   120.0   16.666666666666668
-350.0   90.0   33.333333333333336
-300.0   120.0   33.333333333333336
-300.0   90.0   33.333333333333336
-300.0   90.0   16.666666666666668
-350.0   90.0   33.333333333333336
-300.0   120.0   33.333333333333336
-300.0   90.0   16.666666666666668
-350.0   120.0   16.666666666666668
-350.0   90.0   33.333333333333336
-300.0   90.0   33.333333333333336
-350.0   120.0   33.333333333333336
-350.0   90.0   50.0
-300.0   90.0   33.333333333333336
-300.0   120.0   33.333333333333336
-350.0   120.0   33.333333333333336
-300.0   120.0   50.0
-350.0   90.0   50.0
-350.0   120.0   50.0
-300.0   120.0   50.0
-350.0   120.0   33.333333333333336
-350.0   90.0   50.0
-300.0   120.0   50.0
-300.0   90.0   50.0
-300.0   90.0   33.333333333333336
-350.0   90.0   50.0
-300.0   120.0   50.0
-300.0   90.0   33.333333333333336
-350.0   120.0   33.333333333333336
-350.0   120.0   0.0
-300.0   120.0   0.0
-350.0   150.0   0.0
-350.0   120.0   16.666666666666668
-300.0   120.0   0.0
-300.0   150.0   0.0
-350.0   150.0   0.0
-300.0   150.0   16.666666666666668
-350.0   120.0   16.666666666666668
-350.0   150.0   16.666666666666668
-300.0   150.0   16.666666666666668
-350.0   150.0   0.0
-350.0   120.0   16.666666666666668
-300.0   150.0   16.666666666666668
-300.0   120.0   16.666666666666668
-300.0   120.0   0.0
-350.0   120.0   16.666666666666668
-300.0   150.0   16.666666666666668
-300.0   120.0   0.0
-350.0   150.0   0.0
-350.0   120.0   16.666666666666668
-300.0   120.0   16.666666666666668
-350.0   150.0   16.666666666666668
-350.0   120.0   33.333333333333336
-300.0   120.0   16.666666666666668
-300.0   150.0   16.666666666666668
-350.0   150.0   16.666666666666668
-300.0   150.0   33.333333333333336
-350.0   120.0   33.333333333333336
-350.0   150.0   33.333333333333336
-300.0   150.0   33.333333333333336
-350.0   150.0   16.666666666666668
-350.0   120.0   33.333333333333336
-300.0   150.0   33.333333333333336
-300.0   120.0   33.333333333333336
-300.0   120.0   16.666666666666668
-350.0   120.0   33.333333333333336
-300.0   150.0   33.333333333333336
-300.0   120.0   16.666666666666668
-350.0   150.0   16.666666666666668
-350.0   120.0   33.333333333333336
-300.0   120.0   33.333333333333336
-350.0   150.0   33.333333333333336
-350.0   120.0   50.0
-300.0   120.0   33.333333333333336
-300.0   150.0   33.333333333333336
-350.0   150.0   33.333333333333336
-300.0   150.0   50.0
-350.0   120.0   50.0
-350.0   150.0   50.0
-300.0   150.0   50.0
-350.0   150.0   33.333333333333336
-350.0   120.0   50.0
-300.0   150.0   50.0
-300.0   120.0   50.0
-300.0   120.0   33.333333333333336
-350.0   120.0   50.0
-300.0   150.0   50.0
-300.0   120.0   33.333333333333336
-350.0   150.0   33.333333333333336
-300.0   0.0   0.0
-250.0   0.0   0.0
-300.0   30.0   0.0
-300.0   0.0   16.666666666666668
-250.0   0.0   0.0
-250.0   30.0   0.0
-300.0   30.0   0.0
-250.0   30.0   16.666666666666668
-300.0   0.0   16.666666666666668
-300.0   30.0   16.666666666666668
-250.0   30.0   16.666666666666668
-300.0   30.0   0.0
-300.0   0.0   16.666666666666668
-250.0   30.0   16.666666666666668
-250.0   0.0   16.666666666666668
-250.0   0.0   0.0
-300.0   0.0   16.666666666666668
-250.0   30.0   16.666666666666668
-250.0   0.0   0.0
-300.0   30.0   0.0
-300.0   0.0   16.666666666666668
-250.0   0.0   16.666666666666668
-300.0   30.0   16.666666666666668
-300.0   0.0   33.333333333333336
-250.0   0.0   16.666666666666668
-250.0   30.0   16.666666666666668
-300.0   30.0   16.666666666666668
-250.0   30.0   33.333333333333336
-300.0   0.0   33.333333333333336
-300.0   30.0   33.333333333333336
-250.0   30.0   33.333333333333336
-300.0   30.0   16.666666666666668
-300.0   0.0   33.333333333333336
-250.0   30.0   33.333333333333336
-250.0   0.0   33.333333333333336
-250.0   0.0   16.666666666666668
-300.0   0.0   33.333333333333336
-250.0   30.0   33.333333333333336
-250.0   0.0   16.666666666666668
-300.0   30.0   16.666666666666668
-300.0   0.0   33.333333333333336
-250.0   0.0   33.333333333333336
-300.0   30.0   33.333333333333336
-300.0   0.0   50.0
-250.0   0.0   33.333333333333336
-250.0   30.0   33.333333333333336
-300.0   30.0   33.333333333333336
-250.0   30.0   50.0
-300.0   0.0   50.0
-300.0   30.0   50.0
-250.0   30.0   50.0
-300.0   30.0   33.333333333333336
-300.0   0.0   50.0
-250.0   30.0   50.0
-250.0   0.0   50.0
-250.0   0.0   33.333333333333336
-300.0   0.0   50.0
-250.0   30.0   50.0
-250.0   0.0   33.333333333333336
-300.0   30.0   33.333333333333336
-300.0   30.0   0.0
-250.0   30.0   0.0
-300.0   60.0   0.0
-300.0   30.0   16.666666666666668
-250.0   30.0   0.0
-250.0   60.0   0.0
-300.0   60.0   0.0
-250.0   60.0   16.666666666666668
-300.0   30.0   16.666666666666668
-300.0   60.0   16.666666666666668
-250.0   60.0   16.666666666666668
-300.0   60.0   0.0
-300.0   30.0   16.666666666666668
-250.0   60.0   16.666666666666668
-250.0   30.0   16.666666666666668
-250.0   30.0   0.0
-300.0   30.0   16.666666666666668
-250.0   60.0   16.666666666666668
-250.0   30.0   0.0
-300.0   60.0   0.0
-300.0   30.0   16.666666666666668
-250.0   30.0   16.666666666666668
-300.0   60.0   16.666666666666668
-300.0   30.0   33.333333333333336
-250.0   30.0   16.666666666666668
-250.0   60.0   16.666666666666668
-300.0   60.0   16.666666666666668
-250.0   60.0   33.333333333333336
-300.0   30.0   33.333333333333336
-300.0   60.0   33.333333333333336
-250.0   60.0   33.333333333333336
-300.0   60.0   16.666666666666668
-300.0   30.0   33.333333333333336
-250.0   60.0   33.333333333333336
-250.0   30.0   33.333333333333336
-250.0   30.0   16.666666666666668
-300.0   30.0   33.333333333333336
-250.0   60.0   33.333333333333336
-250.0   30.0   16.666666666666668
-300.0   60.0   16.666666666666668
-300.0   30.0   33.333333333333336
-250.0   30.0   33.333333333333336
-300.0   60.0   33.333333333333336
-300.0   30.0   50.0
-250.0   30.0   33.333333333333336
-250.0   60.0   33.333333333333336
-300.0   60.0   33.333333333333336
-250.0   60.0   50.0
-300.0   30.0   50.0
-300.0   60.0   50.0
-250.0   60.0   50.0
-300.0   60.0   33.333333333333336
-300.0   30.0   50.0
-250.0   60.0   50.0
-250.0   30.0   50.0
-250.0   30.0   33.333333333333336
-300.0   30.0   50.0
-250.0   60.0   50.0
-250.0   30.0   33.333333333333336
-300.0   60.0   33.333333333333336
-300.0   60.0   0.0
-250.0   60.0   0.0
-300.0   90.0   0.0
-300.0   60.0   16.666666666666668
-250.0   60.0   0.0
-250.0   90.0   0.0
-300.0   90.0   0.0
-250.0   90.0   16.666666666666668
-300.0   60.0   16.666666666666668
-300.0   90.0   16.666666666666668
-250.0   90.0   16.666666666666668
-300.0   90.0   0.0
-300.0   60.0   16.666666666666668
-250.0   90.0   16.666666666666668
-250.0   60.0   16.666666666666668
-250.0   60.0   0.0
-300.0   60.0   16.666666666666668
-250.0   90.0   16.666666666666668
-250.0   60.0   0.0
-300.0   90.0   0.0
-300.0   60.0   16.666666666666668
-250.0   60.0   16.666666666666668
-300.0   90.0   16.666666666666668
-300.0   60.0   33.333333333333336
-250.0   60.0   16.666666666666668
-250.0   90.0   16.666666666666668
-300.0   90.0   16.666666666666668
-250.0   90.0   33.333333333333336
-300.0   60.0   33.333333333333336
-300.0   90.0   33.333333333333336
-250.0   90.0   33.333333333333336
-300.0   90.0   16.666666666666668
-300.0   60.0   33.333333333333336
-250.0   90.0   33.333333333333336
-250.0   60.0   33.333333333333336
-250.0   60.0   16.666666666666668
-300.0   60.0   33.333333333333336
-250.0   90.0   33.333333333333336
-250.0   60.0   16.666666666666668
-300.0   90.0   16.666666666666668
-300.0   60.0   33.333333333333336
-250.0   60.0   33.333333333333336
-300.0   90.0   33.333333333333336
-300.0   60.0   50.0
-250.0   60.0   33.333333333333336
-250.0   90.0   33.333333333333336
-300.0   90.0   33.333333333333336
-250.0   90.0   50.0
-300.0   60.0   50.0
-300.0   90.0   50.0
-250.0   90.0   50.0
-300.0   90.0   33.333333333333336
-300.0   60.0   50.0
-250.0   90.0   50.0
-250.0   60.0   50.0
-250.0   60.0   33.333333333333336
-300.0   60.0   50.0
-250.0   90.0   50.0
-250.0   60.0   33.333333333333336
-300.0   90.0   33.333333333333336
-300.0   90.0   0.0
-250.0   90.0   0.0
-300.0   120.0   0.0
-300.0   90.0   16.666666666666668
-250.0   90.0   0.0
-250.0   120.0   0.0
-300.0   120.0   0.0
-250.0   120.0   16.666666666666668
-300.0   90.0   16.666666666666668
-300.0   120.0   16.666666666666668
-250.0   120.0   16.666666666666668
-300.0   120.0   0.0
-300.0   90.0   16.666666666666668
-250.0   120.0   16.666666666666668
-250.0   90.0   16.666666666666668
-250.0   90.0   0.0
-300.0   90.0   16.666666666666668
-250.0   120.0   16.666666666666668
-250.0   90.0   0.0
-300.0   120.0   0.0
-300.0   90.0   16.666666666666668
-250.0   90.0   16.666666666666668
-300.0   120.0   16.666666666666668
-300.0   90.0   33.333333333333336
-250.0   90.0   16.666666666666668
-250.0   120.0   16.666666666666668
-300.0   120.0   16.666666666666668
-250.0   120.0   33.333333333333336
-300.0   90.0   33.333333333333336
-300.0   120.0   33.333333333333336
-250.0   120.0   33.333333333333336
-300.0   120.0   16.666666666666668
-300.0   90.0   33.333333333333336
-250.0   120.0   33.333333333333336
-250.0   90.0   33.333333333333336
-250.0   90.0   16.666666666666668
-300.0   90.0   33.333333333333336
-250.0   120.0   33.333333333333336
-250.0   90.0   16.666666666666668
-300.0   120.0   16.666666666666668
-300.0   90.0   33.333333333333336
-250.0   90.0   33.333333333333336
-300.0   120.0   33.333333333333336
-300.0   90.0   50.0
-250.0   90.0   33.333333333333336
-250.0   120.0   33.333333333333336
-300.0   120.0   33.333333333333336
-250.0   120.0   50.0
-300.0   90.0   50.0
-300.0   120.0   50.0
-250.0   120.0   50.0
-300.0   120.0   33.333333333333336
-300.0   90.0   50.0
-250.0   120.0   50.0
-250.0   90.0   50.0
-250.0   90.0   33.333333333333336
-300.0   90.0   50.0
-250.0   120.0   50.0
-250.0   90.0   33.333333333333336
-300.0   120.0   33.333333333333336
-300.0   120.0   0.0
-250.0   120.0   0.0
-300.0   150.0   0.0
-300.0   120.0   16.666666666666668
-250.0   120.0   0.0
-250.0   150.0   0.0
-300.0   150.0   0.0
-250.0   150.0   16.666666666666668
-300.0   120.0   16.666666666666668
-300.0   150.0   16.666666666666668
-250.0   150.0   16.666666666666668
-300.0   150.0   0.0
-300.0   120.0   16.666666666666668
-250.0   150.0   16.666666666666668
-250.0   120.0   16.666666666666668
-250.0   120.0   0.0
-300.0   120.0   16.666666666666668
-250.0   150.0   16.666666666666668
-250.0   120.0   0.0
-300.0   150.0   0.0
-300.0   120.0   16.666666666666668
-250.0   120.0   16.666666666666668
-300.0   150.0   16.666666666666668
-300.0   120.0   33.333333333333336
-250.0   120.0   16.666666666666668
-250.0   150.0   16.666666666666668
-300.0   150.0   16.666666666666668
-250.0   150.0   33.333333333333336
-300.0   120.0   33.333333333333336
-300.0   150.0   33.333333333333336
-250.0   150.0   33.333333333333336
-300.0   150.0   16.666666666666668
-300.0   120.0   33.333333333333336
-250.0   150.0   33.333333333333336
-250.0   120.0   33.333333333333336
-250.0   120.0   16.666666666666668
-300.0   120.0   33.333333333333336
-250.0   150.0   33.333333333333336
-250.0   120.0   16.666666666666668
-300.0   150.0   16.666666666666668
-300.0   120.0   33.333333333333336
-250.0   120.0   33.333333333333336
-300.0   150.0   33.333333333333336
-300.0   120.0   50.0
-250.0   120.0   33.333333333333336
-250.0   150.0   33.333333333333336
-300.0   150.0   33.333333333333336
-250.0   150.0   50.0
-300.0   120.0   50.0
-300.0   150.0   50.0
-250.0   150.0   50.0
-300.0   150.0   33.333333333333336
-300.0   120.0   50.0
-250.0   150.0   50.0
-250.0   120.0   50.0
-250.0   120.0   33.333333333333336
-300.0   120.0   50.0
-250.0   150.0   50.0
-250.0   120.0   33.333333333333336
-300.0   150.0   33.333333333333336
-250.0   0.0   0.0
-200.0   0.0   0.0
-250.0   30.0   0.0
-250.0   0.0   16.666666666666668
-200.0   0.0   0.0
-200.0   30.0   0.0
-250.0   30.0   0.0
-200.0   30.0   16.666666666666668
-250.0   0.0   16.666666666666668
-250.0   30.0   16.666666666666668
-200.0   30.0   16.666666666666668
-250.0   30.0   0.0
-250.0   0.0   16.666666666666668
-200.0   30.0   16.666666666666668
-200.0   0.0   16.666666666666668
-200.0   0.0   0.0
-250.0   0.0   16.666666666666668
-200.0   30.0   16.666666666666668
-200.0   0.0   0.0
-250.0   30.0   0.0
-250.0   0.0   16.666666666666668
-200.0   0.0   16.666666666666668
-250.0   30.0   16.666666666666668
-250.0   0.0   33.333333333333336
-200.0   0.0   16.666666666666668
-200.0   30.0   16.666666666666668
-250.0   30.0   16.666666666666668
-200.0   30.0   33.333333333333336
-250.0   0.0   33.333333333333336
-250.0   30.0   33.333333333333336
-200.0   30.0   33.333333333333336
-250.0   30.0   16.666666666666668
-250.0   0.0   33.333333333333336
-200.0   30.0   33.333333333333336
-200.0   0.0   33.333333333333336
-200.0   0.0   16.666666666666668
-250.0   0.0   33.333333333333336
-200.0   30.0   33.333333333333336
-200.0   0.0   16.666666666666668
-250.0   30.0   16.666666666666668
-250.0   0.0   33.333333333333336
-200.0   0.0   33.333333333333336
-250.0   30.0   33.333333333333336
-250.0   0.0   50.0
-200.0   0.0   33.333333333333336
-200.0   30.0   33.333333333333336
-250.0   30.0   33.333333333333336
-200.0   30.0   50.0
-250.0   0.0   50.0
-250.0   30.0   50.0
-200.0   30.0   50.0
-250.0   30.0   33.333333333333336
-250.0   0.0   50.0
-200.0   30.0   50.0
-200.0   0.0   50.0
-200.0   0.0   33.333333333333336
-250.0   0.0   50.0
-200.0   30.0   50.0
-200.0   0.0   33.333333333333336
-250.0   30.0   33.333333333333336
-250.0   30.0   0.0
-200.0   30.0   0.0
-250.0   60.0   0.0
-250.0   30.0   16.666666666666668
-200.0   30.0   0.0
-200.0   60.0   0.0
-250.0   60.0   0.0
-200.0   60.0   16.666666666666668
-250.0   30.0   16.666666666666668
-250.0   60.0   16.666666666666668
-200.0   60.0   16.666666666666668
-250.0   60.0   0.0
-250.0   30.0   16.666666666666668
-200.0   60.0   16.666666666666668
-200.0   30.0   16.666666666666668
-200.0   30.0   0.0
-250.0   30.0   16.666666666666668
-200.0   60.0   16.666666666666668
-200.0   30.0   0.0
-250.0   60.0   0.0
-250.0   30.0   16.666666666666668
-200.0   30.0   16.666666666666668
-250.0   60.0   16.666666666666668
-250.0   30.0   33.333333333333336
-200.0   30.0   16.666666666666668
-200.0   60.0   16.666666666666668
-250.0   60.0   16.666666666666668
-200.0   60.0   33.333333333333336
-250.0   30.0   33.333333333333336
-250.0   60.0   33.333333333333336
-200.0   60.0   33.333333333333336
-250.0   60.0   16.666666666666668
-250.0   30.0   33.333333333333336
-200.0   60.0   33.333333333333336
-200.0   30.0   33.333333333333336
-200.0   30.0   16.666666666666668
-250.0   30.0   33.333333333333336
-200.0   60.0   33.333333333333336
-200.0   30.0   16.666666666666668
-250.0   60.0   16.666666666666668
-250.0   30.0   33.333333333333336
-200.0   30.0   33.333333333333336
-250.0   60.0   33.333333333333336
-250.0   30.0   50.0
-200.0   30.0   33.333333333333336
-200.0   60.0   33.333333333333336
-250.0   60.0   33.333333333333336
-200.0   60.0   50.0
-250.0   30.0   50.0
-250.0   60.0   50.0
-200.0   60.0   50.0
-250.0   60.0   33.333333333333336
-250.0   30.0   50.0
-200.0   60.0   50.0
-200.0   30.0   50.0
-200.0   30.0   33.333333333333336
-250.0   30.0   50.0
-200.0   60.0   50.0
-200.0   30.0   33.333333333333336
-250.0   60.0   33.333333333333336
-250.0   60.0   0.0
-200.0   60.0   0.0
-250.0   90.0   0.0
-250.0   60.0   16.666666666666668
-200.0   60.0   0.0
-200.0   90.0   0.0
-250.0   90.0   0.0
-200.0   90.0   16.666666666666668
-250.0   60.0   16.666666666666668
-250.0   90.0   16.666666666666668
-200.0   90.0   16.666666666666668
-250.0   90.0   0.0
-250.0   60.0   16.666666666666668
-200.0   90.0   16.666666666666668
-200.0   60.0   16.666666666666668
-200.0   60.0   0.0
-250.0   60.0   16.666666666666668
-200.0   90.0   16.666666666666668
-200.0   60.0   0.0
-250.0   90.0   0.0
-250.0   60.0   16.666666666666668
-200.0   60.0   16.666666666666668
-250.0   90.0   16.666666666666668
-250.0   60.0   33.333333333333336
-200.0   60.0   16.666666666666668
-200.0   90.0   16.666666666666668
-250.0   90.0   16.666666666666668
-200.0   90.0   33.333333333333336
-250.0   60.0   33.333333333333336
-250.0   90.0   33.333333333333336
-200.0   90.0   33.333333333333336
-250.0   90.0   16.666666666666668
-250.0   60.0   33.333333333333336
-200.0   90.0   33.333333333333336
-200.0   60.0   33.333333333333336
-200.0   60.0   16.666666666666668
-250.0   60.0   33.333333333333336
-200.0   90.0   33.333333333333336
-200.0   60.0   16.666666666666668
-250.0   90.0   16.666666666666668
-250.0   60.0   33.333333333333336
-200.0   60.0   33.333333333333336
-250.0   90.0   33.333333333333336
-250.0   60.0   50.0
-200.0   60.0   33.333333333333336
-200.0   90.0   33.333333333333336
-250.0   90.0   33.333333333333336
-200.0   90.0   50.0
-250.0   60.0   50.0
-250.0   90.0   50.0
-200.0   90.0   50.0
-250.0   90.0   33.333333333333336
-250.0   60.0   50.0
-200.0   90.0   50.0
-200.0   60.0   50.0
-200.0   60.0   33.333333333333336
-250.0   60.0   50.0
-200.0   90.0   50.0
-200.0   60.0   33.333333333333336
-250.0   90.0   33.333333333333336
-250.0   90.0   0.0
-200.0   90.0   0.0
-250.0   120.0   0.0
-250.0   90.0   16.666666666666668
-200.0   90.0   0.0
-200.0   120.0   0.0
-250.0   120.0   0.0
-200.0   120.0   16.666666666666668
-250.0   90.0   16.666666666666668
-250.0   120.0   16.666666666666668
-200.0   120.0   16.666666666666668
-250.0   120.0   0.0
-250.0   90.0   16.666666666666668
-200.0   120.0   16.666666666666668
-200.0   90.0   16.666666666666668
-200.0   90.0   0.0
-250.0   90.0   16.666666666666668
-200.0   120.0   16.666666666666668
-200.0   90.0   0.0
-250.0   120.0   0.0
-250.0   90.0   16.666666666666668
-200.0   90.0   16.666666666666668
-250.0   120.0   16.666666666666668
-250.0   90.0   33.333333333333336
-200.0   90.0   16.666666666666668
-200.0   120.0   16.666666666666668
-250.0   120.0   16.666666666666668
-200.0   120.0   33.333333333333336
-250.0   90.0   33.333333333333336
-250.0   120.0   33.333333333333336
-200.0   120.0   33.333333333333336
-250.0   120.0   16.666666666666668
-250.0   90.0   33.333333333333336
-200.0   120.0   33.333333333333336
-200.0   90.0   33.333333333333336
-200.0   90.0   16.666666666666668
-250.0   90.0   33.333333333333336
-200.0   120.0   33.333333333333336
-200.0   90.0   16.666666666666668
-250.0   120.0   16.666666666666668
-250.0   90.0   33.333333333333336
-200.0   90.0   33.333333333333336
-250.0   120.0   33.333333333333336
-250.0   90.0   50.0
-200.0   90.0   33.333333333333336
-200.0   120.0   33.333333333333336
-250.0   120.0   33.333333333333336
-200.0   120.0   50.0
-250.0   90.0   50.0
-250.0   120.0   50.0
-200.0   120.0   50.0
-250.0   120.0   33.333333333333336
-250.0   90.0   50.0
-200.0   120.0   50.0
-200.0   90.0   50.0
-200.0   90.0   33.333333333333336
-250.0   90.0   50.0
-200.0   120.0   50.0
-200.0   90.0   33.333333333333336
-250.0   120.0   33.333333333333336
-250.0   120.0   0.0
-200.0   120.0   0.0
-250.0   150.0   0.0
-250.0   120.0   16.666666666666668
-200.0   120.0   0.0
-200.0   150.0   0.0
-250.0   150.0   0.0
-200.0   150.0   16.666666666666668
-250.0   120.0   16.666666666666668
-250.0   150.0   16.666666666666668
-200.0   150.0   16.666666666666668
-250.0   150.0   0.0
-250.0   120.0   16.666666666666668
-200.0   150.0   16.666666666666668
-200.0   120.0   16.666666666666668
-200.0   120.0   0.0
-250.0   120.0   16.666666666666668
-200.0   150.0   16.666666666666668
-200.0   120.0   0.0
-250.0   150.0   0.0
-250.0   120.0   16.666666666666668
-200.0   120.0   16.666666666666668
-250.0   150.0   16.666666666666668
-250.0   120.0   33.333333333333336
-200.0   120.0   16.666666666666668
-200.0   150.0   16.666666666666668
-250.0   150.0   16.666666666666668
-200.0   150.0   33.333333333333336
-250.0   120.0   33.333333333333336
-250.0   150.0   33.333333333333336
-200.0   150.0   33.333333333333336
-250.0   150.0   16.666666666666668
-250.0   120.0   33.333333333333336
-200.0   150.0   33.333333333333336
-200.0   120.0   33.333333333333336
-200.0   120.0   16.666666666666668
-250.0   120.0   33.333333333333336
-200.0   150.0   33.333333333333336
-200.0   120.0   16.666666666666668
-250.0   150.0   16.666666666666668
-250.0   120.0   33.333333333333336
-200.0   120.0   33.333333333333336
-250.0   150.0   33.333333333333336
-250.0   120.0   50.0
-200.0   120.0   33.333333333333336
-200.0   150.0   33.333333333333336
-250.0   150.0   33.333333333333336
-200.0   150.0   50.0
-250.0   120.0   50.0
-250.0   150.0   50.0
-200.0   150.0   50.0
-250.0   150.0   33.333333333333336
-250.0   120.0   50.0
-200.0   150.0   50.0
-200.0   120.0   50.0
-200.0   120.0   33.333333333333336
-250.0   120.0   50.0
-200.0   150.0   50.0
-200.0   120.0   33.333333333333336
-250.0   150.0   33.333333333333336
-200.0   0.0   0.0
-150.0   0.0   0.0
-200.0   30.0   0.0
-200.0   0.0   16.666666666666668
-150.0   0.0   0.0
-150.0   30.0   0.0
-200.0   30.0   0.0
-150.0   30.0   16.666666666666668
-200.0   0.0   16.666666666666668
-200.0   30.0   16.666666666666668
-150.0   30.0   16.666666666666668
-200.0   30.0   0.0
-200.0   0.0   16.666666666666668
-150.0   30.0   16.666666666666668
-150.0   0.0   16.666666666666668
-150.0   0.0   0.0
-200.0   0.0   16.666666666666668
-150.0   30.0   16.666666666666668
-150.0   0.0   0.0
-200.0   30.0   0.0
-200.0   0.0   16.666666666666668
-150.0   0.0   16.666666666666668
-200.0   30.0   16.666666666666668
-200.0   0.0   33.333333333333336
-150.0   0.0   16.666666666666668
-150.0   30.0   16.666666666666668
-200.0   30.0   16.666666666666668
-150.0   30.0   33.333333333333336
-200.0   0.0   33.333333333333336
-200.0   30.0   33.333333333333336
-150.0   30.0   33.333333333333336
-200.0   30.0   16.666666666666668
-200.0   0.0   33.333333333333336
-150.0   30.0   33.333333333333336
-150.0   0.0   33.333333333333336
-150.0   0.0   16.666666666666668
-200.0   0.0   33.333333333333336
-150.0   30.0   33.333333333333336
-150.0   0.0   16.666666666666668
-200.0   30.0   16.666666666666668
-200.0   0.0   33.333333333333336
-150.0   0.0   33.333333333333336
-200.0   30.0   33.333333333333336
-200.0   0.0   50.0
-150.0   0.0   33.333333333333336
-150.0   30.0   33.333333333333336
-200.0   30.0   33.333333333333336
-150.0   30.0   50.0
-200.0   0.0   50.0
-200.0   30.0   50.0
-150.0   30.0   50.0
-200.0   30.0   33.333333333333336
-200.0   0.0   50.0
-150.0   30.0   50.0
-150.0   0.0   50.0
-150.0   0.0   33.333333333333336
-200.0   0.0   50.0
-150.0   30.0   50.0
-150.0   0.0   33.333333333333336
-200.0   30.0   33.333333333333336
-200.0   30.0   0.0
-150.0   30.0   0.0
-200.0   60.0   0.0
-200.0   30.0   16.666666666666668
-150.0   30.0   0.0
-150.0   60.0   0.0
-200.0   60.0   0.0
-150.0   60.0   16.666666666666668
-200.0   30.0   16.666666666666668
-200.0   60.0   16.666666666666668
-150.0   60.0   16.666666666666668
-200.0   60.0   0.0
-200.0   30.0   16.666666666666668
-150.0   60.0   16.666666666666668
-150.0   30.0   16.666666666666668
-150.0   30.0   0.0
-200.0   30.0   16.666666666666668
-150.0   60.0   16.666666666666668
-150.0   30.0   0.0
-200.0   60.0   0.0
-200.0   30.0   16.666666666666668
-150.0   30.0   16.666666666666668
-200.0   60.0   16.666666666666668
-200.0   30.0   33.333333333333336
-150.0   30.0   16.666666666666668
-150.0   60.0   16.666666666666668
-200.0   60.0   16.666666666666668
-150.0   60.0   33.333333333333336
-200.0   30.0   33.333333333333336
-200.0   60.0   33.333333333333336
-150.0   60.0   33.333333333333336
-200.0   60.0   16.666666666666668
-200.0   30.0   33.333333333333336
-150.0   60.0   33.333333333333336
-150.0   30.0   33.333333333333336
-150.0   30.0   16.666666666666668
-200.0   30.0   33.333333333333336
-150.0   60.0   33.333333333333336
-150.0   30.0   16.666666666666668
-200.0   60.0   16.666666666666668
-200.0   30.0   33.333333333333336
-150.0   30.0   33.333333333333336
-200.0   60.0   33.333333333333336
-200.0   30.0   50.0
-150.0   30.0   33.333333333333336
-150.0   60.0   33.333333333333336
-200.0   60.0   33.333333333333336
-150.0   60.0   50.0
-200.0   30.0   50.0
-200.0   60.0   50.0
-150.0   60.0   50.0
-200.0   60.0   33.333333333333336
-200.0   30.0   50.0
-150.0   60.0   50.0
-150.0   30.0   50.0
-150.0   30.0   33.333333333333336
-200.0   30.0   50.0
-150.0   60.0   50.0
-150.0   30.0   33.333333333333336
-200.0   60.0   33.333333333333336
-200.0   60.0   0.0
-150.0   60.0   0.0
-200.0   90.0   0.0
-200.0   60.0   16.666666666666668
-150.0   60.0   0.0
-150.0   90.0   0.0
-200.0   90.0   0.0
-150.0   90.0   16.666666666666668
-200.0   60.0   16.666666666666668
-200.0   90.0   16.666666666666668
-150.0   90.0   16.666666666666668
-200.0   90.0   0.0
-200.0   60.0   16.666666666666668
-150.0   90.0   16.666666666666668
-150.0   60.0   16.666666666666668
-150.0   60.0   0.0
-200.0   60.0   16.666666666666668
-150.0   90.0   16.666666666666668
-150.0   60.0   0.0
-200.0   90.0   0.0
-200.0   60.0   16.666666666666668
-150.0   60.0   16.666666666666668
-200.0   90.0   16.666666666666668
-200.0   60.0   33.333333333333336
-150.0   60.0   16.666666666666668
-150.0   90.0   16.666666666666668
-200.0   90.0   16.666666666666668
-150.0   90.0   33.333333333333336
-200.0   60.0   33.333333333333336
-200.0   90.0   33.333333333333336
-150.0   90.0   33.333333333333336
-200.0   90.0   16.666666666666668
-200.0   60.0   33.333333333333336
-150.0   90.0   33.333333333333336
-150.0   60.0   33.333333333333336
-150.0   60.0   16.666666666666668
-200.0   60.0   33.333333333333336
-150.0   90.0   33.333333333333336
-150.0   60.0   16.666666666666668
-200.0   90.0   16.666666666666668
-200.0   60.0   33.333333333333336
-150.0   60.0   33.333333333333336
-200.0   90.0   33.333333333333336
-200.0   60.0   50.0
-150.0   60.0   33.333333333333336
-150.0   90.0   33.333333333333336
-200.0   90.0   33.333333333333336
-150.0   90.0   50.0
-200.0   60.0   50.0
-200.0   90.0   50.0
-150.0   90.0   50.0
-200.0   90.0   33.333333333333336
-200.0   60.0   50.0
-150.0   90.0   50.0
-150.0   60.0   50.0
-150.0   60.0   33.333333333333336
-200.0   60.0   50.0
-150.0   90.0   50.0
-150.0   60.0   33.333333333333336
-200.0   90.0   33.333333333333336
-200.0   90.0   0.0
-150.0   90.0   0.0
-200.0   120.0   0.0
-200.0   90.0   16.666666666666668
-150.0   90.0   0.0
-150.0   120.0   0.0
-200.0   120.0   0.0
-150.0   120.0   16.666666666666668
-200.0   90.0   16.666666666666668
-200.0   120.0   16.666666666666668
-150.0   120.0   16.666666666666668
-200.0   120.0   0.0
-200.0   90.0   16.666666666666668
-150.0   120.0   16.666666666666668
-150.0   90.0   16.666666666666668
-150.0   90.0   0.0
-200.0   90.0   16.666666666666668
-150.0   120.0   16.666666666666668
-150.0   90.0   0.0
-200.0   120.0   0.0
-200.0   90.0   16.666666666666668
-150.0   90.0   16.666666666666668
-200.0   120.0   16.666666666666668
-200.0   90.0   33.333333333333336
-150.0   90.0   16.666666666666668
-150.0   120.0   16.666666666666668
-200.0   120.0   16.666666666666668
-150.0   120.0   33.333333333333336
-200.0   90.0   33.333333333333336
-200.0   120.0   33.333333333333336
-150.0   120.0   33.333333333333336
-200.0   120.0   16.666666666666668
-200.0   90.0   33.333333333333336
-150.0   120.0   33.333333333333336
-150.0   90.0   33.333333333333336
-150.0   90.0   16.666666666666668
-200.0   90.0   33.333333333333336
-150.0   120.0   33.333333333333336
-150.0   90.0   16.666666666666668
-200.0   120.0   16.666666666666668
-200.0   90.0   33.333333333333336
-150.0   90.0   33.333333333333336
-200.0   120.0   33.333333333333336
-200.0   90.0   50.0
-150.0   90.0   33.333333333333336
-150.0   120.0   33.333333333333336
-200.0   120.0   33.333333333333336
-150.0   120.0   50.0
-200.0   90.0   50.0
-200.0   120.0   50.0
-150.0   120.0   50.0
-200.0   120.0   33.333333333333336
-200.0   90.0   50.0
-150.0   120.0   50.0
-150.0   90.0   50.0
-150.0   90.0   33.333333333333336
-200.0   90.0   50.0
-150.0   120.0   50.0
-150.0   90.0   33.333333333333336
-200.0   120.0   33.333333333333336
-200.0   120.0   0.0
-150.0   120.0   0.0
-200.0   150.0   0.0
-200.0   120.0   16.666666666666668
-150.0   120.0   0.0
-150.0   150.0   0.0
-200.0   150.0   0.0
-150.0   150.0   16.666666666666668
-200.0   120.0   16.666666666666668
-200.0   150.0   16.666666666666668
-150.0   150.0   16.666666666666668
-200.0   150.0   0.0
-200.0   120.0   16.666666666666668
-150.0   150.0   16.666666666666668
-150.0   120.0   16.666666666666668
-150.0   120.0   0.0
-200.0   120.0   16.666666666666668
-150.0   150.0   16.666666666666668
-150.0   120.0   0.0
-200.0   150.0   0.0
-200.0   120.0   16.666666666666668
-150.0   120.0   16.666666666666668
-200.0   150.0   16.666666666666668
-200.0   120.0   33.333333333333336
-150.0   120.0   16.666666666666668
-150.0   150.0   16.666666666666668
-200.0   150.0   16.666666666666668
-150.0   150.0   33.333333333333336
-200.0   120.0   33.333333333333336
-200.0   150.0   33.333333333333336
-150.0   150.0   33.333333333333336
-200.0   150.0   16.666666666666668
-200.0   120.0   33.333333333333336
-150.0   150.0   33.333333333333336
-150.0   120.0   33.333333333333336
-150.0   120.0   16.666666666666668
-200.0   120.0   33.333333333333336
-150.0   150.0   33.333333333333336
-150.0   120.0   16.666666666666668
-200.0   150.0   16.666666666666668
-200.0   120.0   33.333333333333336
-150.0   120.0   33.333333333333336
-200.0   150.0   33.333333333333336
-200.0   120.0   50.0
-150.0   120.0   33.333333333333336
-150.0   150.0   33.333333333333336
-200.0   150.0   33.333333333333336
-150.0   150.0   50.0
-200.0   120.0   50.0
-200.0   150.0   50.0
-150.0   150.0   50.0
-200.0   150.0   33.333333333333336
-200.0   120.0   50.0
-150.0   150.0   50.0
-150.0   120.0   50.0
-150.0   120.0   33.333333333333336
-200.0   120.0   50.0
-150.0   150.0   50.0
-150.0   120.0   33.333333333333336
-200.0   150.0   33.333333333333336
-150.0   0.0   0.0
-100.0   0.0   0.0
-150.0   30.0   0.0
-150.0   0.0   16.666666666666668
-100.0   0.0   0.0
-100.0   30.0   0.0
-150.0   30.0   0.0
-100.0   30.0   16.666666666666668
-150.0   0.0   16.666666666666668
-150.0   30.0   16.666666666666668
-100.0   30.0   16.666666666666668
-150.0   30.0   0.0
-150.0   0.0   16.666666666666668
-100.0   30.0   16.666666666666668
-100.0   0.0   16.666666666666668
-100.0   0.0   0.0
-150.0   0.0   16.666666666666668
-100.0   30.0   16.666666666666668
-100.0   0.0   0.0
-150.0   30.0   0.0
-150.0   0.0   16.666666666666668
-100.0   0.0   16.666666666666668
-150.0   30.0   16.666666666666668
-150.0   0.0   33.333333333333336
-100.0   0.0   16.666666666666668
-100.0   30.0   16.666666666666668
-150.0   30.0   16.666666666666668
-100.0   30.0   33.333333333333336
-150.0   0.0   33.333333333333336
-150.0   30.0   33.333333333333336
-100.0   30.0   33.333333333333336
-150.0   30.0   16.666666666666668
-150.0   0.0   33.333333333333336
-100.0   30.0   33.333333333333336
-100.0   0.0   33.333333333333336
-100.0   0.0   16.666666666666668
-150.0   0.0   33.333333333333336
-100.0   30.0   33.333333333333336
-100.0   0.0   16.666666666666668
-150.0   30.0   16.666666666666668
-150.0   0.0   33.333333333333336
-100.0   0.0   33.333333333333336
-150.0   30.0   33.333333333333336
-150.0   0.0   50.0
-100.0   0.0   33.333333333333336
-100.0   30.0   33.333333333333336
-150.0   30.0   33.333333333333336
-100.0   30.0   50.0
-150.0   0.0   50.0
-150.0   30.0   50.0
-100.0   30.0   50.0
-150.0   30.0   33.333333333333336
-150.0   0.0   50.0
-100.0   30.0   50.0
-100.0   0.0   50.0
-100.0   0.0   33.333333333333336
-150.0   0.0   50.0
-100.0   30.0   50.0
-100.0   0.0   33.333333333333336
-150.0   30.0   33.333333333333336
-150.0   30.0   0.0
-100.0   30.0   0.0
-150.0   60.0   0.0
-150.0   30.0   16.666666666666668
-100.0   30.0   0.0
-100.0   60.0   0.0
-150.0   60.0   0.0
-100.0   60.0   16.666666666666668
-150.0   30.0   16.666666666666668
-150.0   60.0   16.666666666666668
-100.0   60.0   16.666666666666668
-150.0   60.0   0.0
-150.0   30.0   16.666666666666668
-100.0   60.0   16.666666666666668
-100.0   30.0   16.666666666666668
-100.0   30.0   0.0
-150.0   30.0   16.666666666666668
-100.0   60.0   16.666666666666668
-100.0   30.0   0.0
-150.0   60.0   0.0
-150.0   30.0   16.666666666666668
-100.0   30.0   16.666666666666668
-150.0   60.0   16.666666666666668
-150.0   30.0   33.333333333333336
-100.0   30.0   16.666666666666668
-100.0   60.0   16.666666666666668
-150.0   60.0   16.666666666666668
-100.0   60.0   33.333333333333336
-150.0   30.0   33.333333333333336
-150.0   60.0   33.333333333333336
-100.0   60.0   33.333333333333336
-150.0   60.0   16.666666666666668
-150.0   30.0   33.333333333333336
-100.0   60.0   33.333333333333336
-100.0   30.0   33.333333333333336
-100.0   30.0   16.666666666666668
-150.0   30.0   33.333333333333336
-100.0   60.0   33.333333333333336
-100.0   30.0   16.666666666666668
-150.0   60.0   16.666666666666668
-150.0   30.0   33.333333333333336
-100.0   30.0   33.333333333333336
-150.0   60.0   33.333333333333336
-150.0   30.0   50.0
-100.0   30.0   33.333333333333336
-100.0   60.0   33.333333333333336
-150.0   60.0   33.333333333333336
-100.0   60.0   50.0
-150.0   30.0   50.0
-150.0   60.0   50.0
-100.0   60.0   50.0
-150.0   60.0   33.333333333333336
-150.0   30.0   50.0
-100.0   60.0   50.0
-100.0   30.0   50.0
-100.0   30.0   33.333333333333336
-150.0   30.0   50.0
-100.0   60.0   50.0
-100.0   30.0   33.333333333333336
-150.0   60.0   33.333333333333336
-150.0   60.0   0.0
-100.0   60.0   0.0
-150.0   90.0   0.0
-150.0   60.0   16.666666666666668
-100.0   60.0   0.0
-100.0   90.0   0.0
-150.0   90.0   0.0
-100.0   90.0   16.666666666666668
-150.0   60.0   16.666666666666668
-150.0   90.0   16.666666666666668
-100.0   90.0   16.666666666666668
-150.0   90.0   0.0
-150.0   60.0   16.666666666666668
-100.0   90.0   16.666666666666668
-100.0   60.0   16.666666666666668
-100.0   60.0   0.0
-150.0   60.0   16.666666666666668
-100.0   90.0   16.666666666666668
-100.0   60.0   0.0
-150.0   90.0   0.0
-150.0   60.0   16.666666666666668
-100.0   60.0   16.666666666666668
-150.0   90.0   16.666666666666668
-150.0   60.0   33.333333333333336
-100.0   60.0   16.666666666666668
-100.0   90.0   16.666666666666668
-150.0   90.0   16.666666666666668
-100.0   90.0   33.333333333333336
-150.0   60.0   33.333333333333336
-150.0   90.0   33.333333333333336
-100.0   90.0   33.333333333333336
-150.0   90.0   16.666666666666668
-150.0   60.0   33.333333333333336
-100.0   90.0   33.333333333333336
-100.0   60.0   33.333333333333336
-100.0   60.0   16.666666666666668
-150.0   60.0   33.333333333333336
-100.0   90.0   33.333333333333336
-100.0   60.0   16.666666666666668
-150.0   90.0   16.666666666666668
-150.0   60.0   33.333333333333336
-100.0   60.0   33.333333333333336
-150.0   90.0   33.333333333333336
-150.0   60.0   50.0
-100.0   60.0   33.333333333333336
-100.0   90.0   33.333333333333336
-150.0   90.0   33.333333333333336
-100.0   90.0   50.0
-150.0   60.0   50.0
-150.0   90.0   50.0
-100.0   90.0   50.0
-150.0   90.0   33.333333333333336
-150.0   60.0   50.0
-100.0   90.0   50.0
-100.0   60.0   50.0
-100.0   60.0   33.333333333333336
-150.0   60.0   50.0
-100.0   90.0   50.0
-100.0   60.0   33.333333333333336
-150.0   90.0   33.333333333333336
-150.0   90.0   0.0
-100.0   90.0   0.0
-150.0   120.0   0.0
-150.0   90.0   16.666666666666668
-100.0   90.0   0.0
-100.0   120.0   0.0
-150.0   120.0   0.0
-100.0   120.0   16.666666666666668
-150.0   90.0   16.666666666666668
-150.0   120.0   16.666666666666668
-100.0   120.0   16.666666666666668
-150.0   120.0   0.0
-150.0   90.0   16.666666666666668
-100.0   120.0   16.666666666666668
-100.0   90.0   16.666666666666668
-100.0   90.0   0.0
-150.0   90.0   16.666666666666668
-100.0   120.0   16.666666666666668
-100.0   90.0   0.0
-150.0   120.0   0.0
-150.0   90.0   16.666666666666668
-100.0   90.0   16.666666666666668
-150.0   120.0   16.666666666666668
-150.0   90.0   33.333333333333336
-100.0   90.0   16.666666666666668
-100.0   120.0   16.666666666666668
-150.0   120.0   16.666666666666668
-100.0   120.0   33.333333333333336
-150.0   90.0   33.333333333333336
-150.0   120.0   33.333333333333336
-100.0   120.0   33.333333333333336
-150.0   120.0   16.666666666666668
-150.0   90.0   33.333333333333336
-100.0   120.0   33.333333333333336
-100.0   90.0   33.333333333333336
-100.0   90.0   16.666666666666668
-150.0   90.0   33.333333333333336
-100.0   120.0   33.333333333333336
-100.0   90.0   16.666666666666668
-150.0   120.0   16.666666666666668
-150.0   90.0   33.333333333333336
-100.0   90.0   33.333333333333336
-150.0   120.0   33.333333333333336
-150.0   90.0   50.0
-100.0   90.0   33.333333333333336
-100.0   120.0   33.333333333333336
-150.0   120.0   33.333333333333336
-100.0   120.0   50.0
-150.0   90.0   50.0
-150.0   120.0   50.0
-100.0   120.0   50.0
-150.0   120.0   33.333333333333336
-150.0   90.0   50.0
-100.0   120.0   50.0
-100.0   90.0   50.0
-100.0   90.0   33.333333333333336
-150.0   90.0   50.0
-100.0   120.0   50.0
-100.0   90.0   33.333333333333336
-150.0   120.0   33.333333333333336
-150.0   120.0   0.0
-100.0   120.0   0.0
-150.0   150.0   0.0
-150.0   120.0   16.666666666666668
-100.0   120.0   0.0
-100.0   150.0   0.0
-150.0   150.0   0.0
-100.0   150.0   16.666666666666668
-150.0   120.0   16.666666666666668
-150.0   150.0   16.666666666666668
-100.0   150.0   16.666666666666668
-150.0   150.0   0.0
-150.0   120.0   16.666666666666668
-100.0   150.0   16.666666666666668
-100.0   120.0   16.666666666666668
-100.0   120.0   0.0
-150.0   120.0   16.666666666666668
-100.0   150.0   16.666666666666668
-100.0   120.0   0.0
-150.0   150.0   0.0
-150.0   120.0   16.666666666666668
-100.0   120.0   16.666666666666668
-150.0   150.0   16.666666666666668
-150.0   120.0   33.333333333333336
-100.0   120.0   16.666666666666668
-100.0   150.0   16.666666666666668
-150.0   150.0   16.666666666666668
-100.0   150.0   33.333333333333336
-150.0   120.0   33.333333333333336
-150.0   150.0   33.333333333333336
-100.0   150.0   33.333333333333336
-150.0   150.0   16.666666666666668
-150.0   120.0   33.333333333333336
-100.0   150.0   33.333333333333336
-100.0   120.0   33.333333333333336
-100.0   120.0   16.666666666666668
-150.0   120.0   33.333333333333336
-100.0   150.0   33.333333333333336
-100.0   120.0   16.666666666666668
-150.0   150.0   16.666666666666668
-150.0   120.0   33.333333333333336
-100.0   120.0   33.333333333333336
-150.0   150.0   33.333333333333336
-150.0   120.0   50.0
-100.0   120.0   33.333333333333336
-100.0   150.0   33.333333333333336
-150.0   150.0   33.333333333333336
-100.0   150.0   50.0
-150.0   120.0   50.0
-150.0   150.0   50.0
-100.0   150.0   50.0
-150.0   150.0   33.333333333333336
-150.0   120.0   50.0
-100.0   150.0   50.0
-100.0   120.0   50.0
-100.0   120.0   33.333333333333336
-150.0   120.0   50.0
-100.0   150.0   50.0
-100.0   120.0   33.333333333333336
-150.0   150.0   33.333333333333336
-100.0   0.0   0.0
-50.0   0.0   0.0
-100.0   30.0   0.0
-100.0   0.0   16.666666666666668
-50.0   0.0   0.0
-50.0   30.0   0.0
-100.0   30.0   0.0
-50.0   30.0   16.666666666666668
-100.0   0.0   16.666666666666668
-100.0   30.0   16.666666666666668
-50.0   30.0   16.666666666666668
-100.0   30.0   0.0
-100.0   0.0   16.666666666666668
-50.0   30.0   16.666666666666668
-50.0   0.0   16.666666666666668
-50.0   0.0   0.0
-100.0   0.0   16.666666666666668
-50.0   30.0   16.666666666666668
-50.0   0.0   0.0
-100.0   30.0   0.0
-100.0   0.0   16.666666666666668
-50.0   0.0   16.666666666666668
-100.0   30.0   16.666666666666668
-100.0   0.0   33.333333333333336
-50.0   0.0   16.666666666666668
-50.0   30.0   16.666666666666668
-100.0   30.0   16.666666666666668
-50.0   30.0   33.333333333333336
-100.0   0.0   33.333333333333336
-100.0   30.0   33.333333333333336
-50.0   30.0   33.333333333333336
-100.0   30.0   16.666666666666668
-100.0   0.0   33.333333333333336
-50.0   30.0   33.333333333333336
-50.0   0.0   33.333333333333336
-50.0   0.0   16.666666666666668
-100.0   0.0   33.333333333333336
-50.0   30.0   33.333333333333336
-50.0   0.0   16.666666666666668
-100.0   30.0   16.666666666666668
-100.0   0.0   33.333333333333336
-50.0   0.0   33.333333333333336
-100.0   30.0   33.333333333333336
-100.0   0.0   50.0
-50.0   0.0   33.333333333333336
-50.0   30.0   33.333333333333336
-100.0   30.0   33.333333333333336
-50.0   30.0   50.0
-100.0   0.0   50.0
-100.0   30.0   50.0
-50.0   30.0   50.0
-100.0   30.0   33.333333333333336
-100.0   0.0   50.0
-50.0   30.0   50.0
-50.0   0.0   50.0
-50.0   0.0   33.333333333333336
-100.0   0.0   50.0
-50.0   30.0   50.0
-50.0   0.0   33.333333333333336
-100.0   30.0   33.333333333333336
-100.0   30.0   0.0
-50.0   30.0   0.0
-100.0   60.0   0.0
-100.0   30.0   16.666666666666668
-50.0   30.0   0.0
-50.0   60.0   0.0
-100.0   60.0   0.0
-50.0   60.0   16.666666666666668
-100.0   30.0   16.666666666666668
-100.0   60.0   16.666666666666668
-50.0   60.0   16.666666666666668
-100.0   60.0   0.0
-100.0   30.0   16.666666666666668
-50.0   60.0   16.666666666666668
-50.0   30.0   16.666666666666668
-50.0   30.0   0.0
-100.0   30.0   16.666666666666668
-50.0   60.0   16.666666666666668
-50.0   30.0   0.0
-100.0   60.0   0.0
-100.0   30.0   16.666666666666668
-50.0   30.0   16.666666666666668
-100.0   60.0   16.666666666666668
-100.0   30.0   33.333333333333336
-50.0   30.0   16.666666666666668
-50.0   60.0   16.666666666666668
-100.0   60.0   16.666666666666668
-50.0   60.0   33.333333333333336
-100.0   30.0   33.333333333333336
-100.0   60.0   33.333333333333336
-50.0   60.0   33.333333333333336
-100.0   60.0   16.666666666666668
-100.0   30.0   33.333333333333336
-50.0   60.0   33.333333333333336
-50.0   30.0   33.333333333333336
-50.0   30.0   16.666666666666668
-100.0   30.0   33.333333333333336
-50.0   60.0   33.333333333333336
-50.0   30.0   16.666666666666668
-100.0   60.0   16.666666666666668
-100.0   30.0   33.333333333333336
-50.0   30.0   33.333333333333336
-100.0   60.0   33.333333333333336
-100.0   30.0   50.0
-50.0   30.0   33.333333333333336
-50.0   60.0   33.333333333333336
-100.0   60.0   33.333333333333336
-50.0   60.0   50.0
-100.0   30.0   50.0
-100.0   60.0   50.0
-50.0   60.0   50.0
-100.0   60.0   33.333333333333336
-100.0   30.0   50.0
-50.0   60.0   50.0
-50.0   30.0   50.0
-50.0   30.0   33.333333333333336
-100.0   30.0   50.0
-50.0   60.0   50.0
-50.0   30.0   33.333333333333336
-100.0   60.0   33.333333333333336
-100.0   60.0   0.0
-50.0   60.0   0.0
-100.0   90.0   0.0
-100.0   60.0   16.666666666666668
-50.0   60.0   0.0
-50.0   90.0   0.0
-100.0   90.0   0.0
-50.0   90.0   16.666666666666668
-100.0   60.0   16.666666666666668
-100.0   90.0   16.666666666666668
-50.0   90.0   16.666666666666668
-100.0   90.0   0.0
-100.0   60.0   16.666666666666668
-50.0   90.0   16.666666666666668
-50.0   60.0   16.666666666666668
-50.0   60.0   0.0
-100.0   60.0   16.666666666666668
-50.0   90.0   16.666666666666668
-50.0   60.0   0.0
-100.0   90.0   0.0
-100.0   60.0   16.666666666666668
-50.0   60.0   16.666666666666668
-100.0   90.0   16.666666666666668
-100.0   60.0   33.333333333333336
-50.0   60.0   16.666666666666668
-50.0   90.0   16.666666666666668
-100.0   90.0   16.666666666666668
-50.0   90.0   33.333333333333336
-100.0   60.0   33.333333333333336
-100.0   90.0   33.333333333333336
-50.0   90.0   33.333333333333336
-100.0   90.0   16.666666666666668
-100.0   60.0   33.333333333333336
-50.0   90.0   33.333333333333336
-50.0   60.0   33.333333333333336
-50.0   60.0   16.666666666666668
-100.0   60.0   33.333333333333336
-50.0   90.0   33.333333333333336
-50.0   60.0   16.666666666666668
-100.0   90.0   16.666666666666668
-100.0   60.0   33.333333333333336
-50.0   60.0   33.333333333333336
-100.0   90.0   33.333333333333336
-100.0   60.0   50.0
-50.0   60.0   33.333333333333336
-50.0   90.0   33.333333333333336
-100.0   90.0   33.333333333333336
-50.0   90.0   50.0
-100.0   60.0   50.0
-100.0   90.0   50.0
-50.0   90.0   50.0
-100.0   90.0   33.333333333333336
-100.0   60.0   50.0
-50.0   90.0   50.0
-50.0   60.0   50.0
-50.0   60.0   33.333333333333336
-100.0   60.0   50.0
-50.0   90.0   50.0
-50.0   60.0   33.333333333333336
-100.0   90.0   33.333333333333336
-100.0   90.0   0.0
-50.0   90.0   0.0
-100.0   120.0   0.0
-100.0   90.0   16.666666666666668
-50.0   90.0   0.0
-50.0   120.0   0.0
-100.0   120.0   0.0
-50.0   120.0   16.666666666666668
-100.0   90.0   16.666666666666668
-100.0   120.0   16.666666666666668
-50.0   120.0   16.666666666666668
-100.0   120.0   0.0
-100.0   90.0   16.666666666666668
-50.0   120.0   16.666666666666668
-50.0   90.0   16.666666666666668
-50.0   90.0   0.0
-100.0   90.0   16.666666666666668
-50.0   120.0   16.666666666666668
-50.0   90.0   0.0
-100.0   120.0   0.0
-100.0   90.0   16.666666666666668
-50.0   90.0   16.666666666666668
-100.0   120.0   16.666666666666668
-100.0   90.0   33.333333333333336
-50.0   90.0   16.666666666666668
-50.0   120.0   16.666666666666668
-100.0   120.0   16.666666666666668
-50.0   120.0   33.333333333333336
-100.0   90.0   33.333333333333336
-100.0   120.0   33.333333333333336
-50.0   120.0   33.333333333333336
-100.0   120.0   16.666666666666668
-100.0   90.0   33.333333333333336
-50.0   120.0   33.333333333333336
-50.0   90.0   33.333333333333336
-50.0   90.0   16.666666666666668
-100.0   90.0   33.333333333333336
-50.0   120.0   33.333333333333336
-50.0   90.0   16.666666666666668
-100.0   120.0   16.666666666666668
-100.0   90.0   33.333333333333336
-50.0   90.0   33.333333333333336
-100.0   120.0   33.333333333333336
-100.0   90.0   50.0
-50.0   90.0   33.333333333333336
-50.0   120.0   33.333333333333336
-100.0   120.0   33.333333333333336
-50.0   120.0   50.0
-100.0   90.0   50.0
-100.0   120.0   50.0
-50.0   120.0   50.0
-100.0   120.0   33.333333333333336
-100.0   90.0   50.0
-50.0   120.0   50.0
-50.0   90.0   50.0
-50.0   90.0   33.333333333333336
-100.0   90.0   50.0
-50.0   120.0   50.0
-50.0   90.0   33.333333333333336
-100.0   120.0   33.333333333333336
-100.0   120.0   0.0
-50.0   120.0   0.0
-100.0   150.0   0.0
-100.0   120.0   16.666666666666668
-50.0   120.0   0.0
-50.0   150.0   0.0
-100.0   150.0   0.0
-50.0   150.0   16.666666666666668
-100.0   120.0   16.666666666666668
-100.0   150.0   16.666666666666668
-50.0   150.0   16.666666666666668
-100.0   150.0   0.0
-100.0   120.0   16.666666666666668
-50.0   150.0   16.666666666666668
-50.0   120.0   16.666666666666668
-50.0   120.0   0.0
-100.0   120.0   16.666666666666668
-50.0   150.0   16.666666666666668
-50.0   120.0   0.0
-100.0   150.0   0.0
-100.0   120.0   16.666666666666668
-50.0   120.0   16.666666666666668
-100.0   150.0   16.666666666666668
-100.0   120.0   33.333333333333336
-50.0   120.0   16.666666666666668
-50.0   150.0   16.666666666666668
-100.0   150.0   16.666666666666668
-50.0   150.0   33.333333333333336
-100.0   120.0   33.333333333333336
-100.0   150.0   33.333333333333336
-50.0   150.0   33.333333333333336
-100.0   150.0   16.666666666666668
-100.0   120.0   33.333333333333336
-50.0   150.0   33.333333333333336
-50.0   120.0   33.333333333333336
-50.0   120.0   16.666666666666668
-100.0   120.0   33.333333333333336
-50.0   150.0   33.333333333333336
-50.0   120.0   16.666666666666668
-100.0   150.0   16.666666666666668
-100.0   120.0   33.333333333333336
-50.0   120.0   33.333333333333336
-100.0   150.0   33.333333333333336
-100.0   120.0   50.0
-50.0   120.0   33.333333333333336
-50.0   150.0   33.333333333333336
-100.0   150.0   33.333333333333336
-50.0   150.0   50.0
-100.0   120.0   50.0
-100.0   150.0   50.0
-50.0   150.0   50.0
-100.0   150.0   33.333333333333336
-100.0   120.0   50.0
-50.0   150.0   50.0
-50.0   120.0   50.0
-50.0   120.0   33.333333333333336
-100.0   120.0   50.0
-50.0   150.0   50.0
-50.0   120.0   33.333333333333336
-100.0   150.0   33.333333333333336
-50.0   0.0   0.0
0.0   0.0   0.0
-50.0   30.0   0.0
-50.0   0.0   16.666666666666668
0.0   0.0   0.0
0.0   30.0   0.0
-50.0   30.0   0.0
0.0   30.0   16.666666666666668
-50.0   0.0   16.666666666666668
-50.0   30.0   16.666666666666668
0.0   30.0   16.666666666666668
-50.0   30.0   0.0
-50.0   0.0   16.666666666666668
0.0   30.0   16.666666666666668
0.0   0.0   16.666666666666668
0.0   0.0   0.0
-50.0   0.0   16.666666666666668
0.0   30.0   16.666666666666668
0.0   0.0   0.0
-50.0   30.0   0.0
-50.0   0.0   16.666666666666668
0.0   0.0   16.666666666666668
-50.0   30.0   16.666666666666668
-50.0   0.0   33.333333333333336
0.0   0.0   16.666666666666668
0.0   30.0   16.666666666666668
-50.0   30.0   16.666666666666668
0.0   30.0   33.333333333333336
-50.0   0.0   33.333333333333336
-50.0   30.0   33.333333333333336
0.0   30.0   33.333333333333336
-50.0   30.0   16.666666666666668
-50.0   0.0   33.333333333333336
0.0   30.0   33.333333333333336
0.0   0.0   33.333333333333336
0.0   0.0   16.666666666666668
-50.0   0.0   33.333333333333336
0.0   30.0   33.333333333333336
0.0   0.0   16.666666666666668
-50.0   30.0   16.666666666666668
-50.0   0.0   33.333333333333336
0.0   0.0   33.333333333333336
-50.0   30.0   33.333333333333336
-50.0   0.0   50.0
0.0   0.0   33.333333333333336
0.0   30.0   33.333333333333336
-50.0   30.0   33.333333333333336
0.0   30.0   50.0
-50.0   0.0   50.0
-50.0   30.0   50.0
0.0   30.0   50.0
-50.0   30.0   33.333333333333336
-50.0   0.0   50.0
0.0   30.0   50.0
0.0   0.0   50.0
0.0   0.0   33.333333333333336
-50.0   0.0   50.0
0.0   30.0   50.0
0.0   0.0   33.333333333333336
-50.0   30.0   33.333333333333336
-50.0   30.0   0.0
0.0   30.0   0.0
-50.0   60.0   0.0
-50.0   30.0   16.666666666666668
0.0   30.0   0.0
0.0   60.0   0.0
-50.0   60.0   0.0
0.0   60.0   16.666666666666668
-50.0   30.0   16.666666666666668
-50.0   60.0   16.666666666666668
0.0   60.0   16.666666666666668
-50.0   60.0   0.0
-50.0   30.0   16.666666666666668
0.0   60.0   16.666666666666668
0.0   30.0   16.666666666666668
0.0   30.0   0.0
-50.0   30.0   16.666666666666668
0.0   60.0   16.666666666666668
0.0   30.0   0.0
-50.0   60.0   0.0
-50.0   30.0   16.666666666666668
0.0   30.0   16.666666666666668
-50.0   60.0   16.666666666666668
-50.0   30.0   33.333333333333336
0.0   30.0   16.666666666666668
0.0   60.0   16.666666666666668
-50.0   60.0   16.666666666666668
0.0   60.0   33.333333333333336
-50.0   30.0   33.333333333333336
-50.0   60.0   33.333333333333336
0.0   60.0   33.333333333333336
-50.0   60.0   16.666666666666668
-50.0   30.0   33.333333333333336
0.0   60.0   33.333333333333336
0.0   30.0   33.333333333333336
0.0   30.0   16.666666666666668
-50.0   30.0   33.333333333333336
0.0   60.0   33.333333333333336
0.0   30.0   16.666666666666668
-50.0   60.0   16.666666666666668
-50.0   30.0   33.333333333333336
0.0   30.0   33.333333333333336
-50.0   60.0   33.333333333333336
-50.0   30.0   50.0
0.0   30.0   33.333333333333336
0.0   60.0   33.333333333333336
-50.0   60.0   33.333333333333336
0.0   60.0   50.0
-50.0   30.0   50.0
-50.0   60.0   50.0
0.0   60.0   50.0
-50.0   60.0   33.333333333333336
-50.0   30.0   50.0
0.0   60.0   50.0
0.0   30.0   50.0
0.0   30.0   33.333333333333336
-50.0   30.0   50.0
0.0   60.0   50.0
0.0   30.0   33.333333333333336
-50.0   60.0   33.333333333333336
-50.0   60.0   0.0
0.0   60.0   0.0
-50.0   90.0   0.0
-50.0   60.0   16.666666666666668
0.0   60.0   0.0
0.0   90.0   0.0
-50.0   90.0   0.0
0.0   90.0   16.666666666666668
-50.0   60.0   16.666666666666668
-50.0   90.0   16.666666666666668
0.0   90.0   16.666666666666668
-50.0   90.0   0.0
-50.0   60.0   16.666666666666668
0.0   90.0   16.666666666666668
0.0   60.0   16.666666666666668
0.0   60.0   0.0
-50.0   60.0   16.666666666666668
0.0   90.0   16.666666666666668
0.0   60.0   0.0
-50.0   90.0   0.0
-50.0   60.0   16.666666666666668
0.0   60.0   16.666666666666668
-50.0   90.0   16.666666666666668
-50.0   60.0   33.333333333333336
0.0   60.0   16.666666666666668
0.0   90.0   16.666666666666668
-50.0   90.0   16.666666666666668
0.0   90.0   33.333333333333336
-50.0   60.0   33.333333333333336
-50.0   90.0   33.333333333333336
0.0   90.0   33.333333333333336
-50.0   90.0   16.666666666666668
-50.0   60.0   33.333333333333336
0.0   90.0   33.333333333333336
0.0   60.0   33.333333333333336
0.0   60.0   16.666666666666668
-50.0   60.0   33.333333333333336
0.0   90.0   33.333333333333336
0.0   60.0   16.666666666666668
-50.0   90.0   16.666666666666668
-50.0   60.0   33.333333333333336
0.0   60.0   33.333333333333336
-50.0   90.0   33.333333333333336
-50.0   60.0   50.0
0.0   60.0   33.333333333333336
0.0   90.0   33.333333333333336
-50.0   90.0   33.333333333333336
0.0   90.0   50.0
-50.0   60.0   50.0
-50.0   90.0   50.0
0.0   90.0   50.0
-50.0   90.0   33.333333333333336
-50.0   60.0   50.0
0.0   90.0   50.0
0.0   60.0   50.0
0.0   60.0   33.333333333333336
-50.0   60.0   50.0
0.0   90.0   50.0
0.0   60.0   33.333333333333336
-50.0   90.0   33.333333333333336
-50.0   90.0   0.0
0.0   90.0   0.0
-50.0   120.0   0.0
-50.0   90.0   16.666666666666668
0.0   90.0   0.0
0.0   120.0   0.0
-50.0   120.0   0.0
0.0   120.0   16.666666666666668
-50.0   90.0   16.666666666666668
-50.0   120.0   16.666666666666668
0.0   120.0   16.666666666666668
-50.0   120.0   0.0
-50.0   90.0   16.666666666666668
0.0   120.0   16.666666666666668
0.0   90.0   16.666666666666668
0.0   90.0   0.0
-50.0   90.0   16.666666666666668
0.0   120.0   16.666666666666668
0.0   90.0   0.0
-50.0   120.0   0.0
-50.0   90.0   16.666666666666668
0.0   90.0   16.666666666666668
-50.0   120.0   16.666666666666668
-50.0   90.0   33.333333333333336
0.0   90.0   16.666666666666668
0.0   120.0   16.666666666666668
-50.0   120.0   16.666666666666668
0.0   120.0   33.333333333333336
-50.0   90.0   33.333333333333336
-50.0   120.0   33.333333333333336
0.0   120.0   33.333333333333336
-50.0   120.0   16.666666666666668
-50.0   90.0   33.333333333333336
0.0   120.0   33.333333333333336
0.0   90.0   33.333333333333336
0.0   90.0   16.666666666666668
-50.0   90.0   33.333333333333336
0.0   120.0   33.333333333333336
0.0   90.0   16.666666666666668
-50.0   120.0   16.666666666666668
-50.0   90.0   33.333333333333336
0.0   90.0   33.333333333333336
-50.0   120.0   33.333333333333336
-50.0   90.0   50.0
0.0   90.0   33.333333333333336
0.0   120.0   33.333333333333336
-50.0   120.0   33.333333333333336
0.0   120.0   50.0
-50.0   90.0   50.0
-50.0   120.0   50.0
0.0   120.0   50.0
-50.0   120.0   33.333333333333336
-50.0   90.0   50.0
0.0   120.0   50.0
0.0   90.0   50.0
0.0   90.0   33.333333333333336
-50.0   90.0   50.0
0.0   120.0   50.0
0.0   90.0   33.333333333333336
-50.0   120.0   33.333333333333336
-50.0   120.0   0.0
0.0   120.0   0.0
-50.0   150.0   0.0
-50.0   120.0   16.666666666666668
0.0   120.0   0.0
0.0   150.0   0.0
-50.0   150.0   0.0
0.0   150.0   16.666666666666668
-50.0   120.0   16.666666666666668
-50.0   150.0   16.666666666666668
0.0   150.0   16.666666666666668
-50.0   150.0   0.0
-50.0   120.0   16.666666666666668
0.0   150.0   16.666666666666668
0.0   120.0   16.666666666666668
0.0   120.0   0.0
-50.0   120.0   16.666666666666668
0.0   150.0   16.666666666666668
0.0   120.0   0.0
-50.0   150.0   0.0
-50.0   120.0   16.666666666666668
0.0   120.0   16.666666666666668
-50.0   150.0   16.666666666666668
-50.0   120.0   33.333333333333336
0.0   120.0   16.666666666666668
0.0   150.0   16.666666666666668
-50.0   150.0   16.666666666666668
0.0   150.0   33.333333333333336
-50.0   120.0   33.333333333333336
-50.0   150.0   33.333333333333336
0.0   150.0   33.333333333333336
-50.0   150.0   16.666666666666668
-50.0   120.0   33.333333333333336
0.0   150.0   33.333333333333336
0.0   120.0   33.333333333333336
0.0   120.0   16.666666666666668
-50.0   120.0   33.333333333333336
0.0   150.0   33.333333333333336
0.0   120.0   16.666666666666668
-50.0   150.0   16.666666666666668
-50.0   120.0   33.333333333333336
0.0   120.0   33.333333333333336
-50.0   150.0   33.333333333333336
-50.0   120.0   50.0
0.0   120.0   33.333333333333336
0.0   150.0   33.333333333333336
-50.0   150.0   33.333333333333336
0.0   150.0   50.0
-50.0   120.0   50.0
-50.0   150.0   50.0
0.0   150.0   50.0
-50.0   150.0   33.333333333333336
-50.0   120.0   50.0
0.0   150.0   50.0
0.0   120.0   50.0
0.0   120.0   33.333333333333336
-50.0   120.0   50.0
0.0   150.0   50.0
0.0   120.0   33.333333333333336
-50.0   150.0   33.333333333333336
0.0   0.0   0.0
50.0   0.0   0.0
0.0   30.0   0.0
0.0   0.0   16.666666666666668
50.0   0.0   0.0
50.0   30.0   0.0
0.0   30.0   0.0
50.0   30.0   16.666666666666668
0.0   0.0   16.666666666666668
0.0   30.0   16.666666666666668
50.0   30.0   16.666666666666668
0.0   30.0   0.0
0.0   0.0   16.666666666666668
50.0   30.0   16.666666666666668
50.0   0.0   16.666666666666668
50.0   0.0   0.0
0.0   0.0   16.666666666666668
50.0   30.0   16.666666666666668
50.0   0.0   0.0
0.0   30.0   0.0
0.0   0.0   16.666666666666668
50.0   0.0   16.666666666666668
0.0   30.0   16.666666666666668
0.0   0.0   33.333333333333336
50.0   0.0   16.666666666666668
50.0   30.0   16.666666666666668
0.0   30.0   16.666666666666668
50.0   30.0   33.333333333333336
0.0   0.0   33.333333333333336
0.0   30.0   33.333333333333336
50.0   30.0   33.333333333333336
0.0   30.0   16.666666666666668
0.0   0.0   33.333333333333336
50.0   30.0   33.333333333333336
50.0   0.0   33.333333333333336
50.0   0.0   16.666666666666668
0.0   0.0   33.333333333333336
50.0   30.0   33.333333333333336
50.0   0.0   16.666666666666668
0.0   30.0   16.666666666666668
0.0   0.0   33.333333333333336
50.0   0.0   33.333333333333336
0.0   30.0   33.333333333333336
0.0   0.0   50.0
50.0   0.0   33.333333333333336
50.0   30.0   33.333333333333336
0.0   30.0   33.333333333333336
50.0   30.0   50.0
0.0   0.0   50.0
0.0   30.0   50.0
50.0   30.0   50.0
0.0   30.0   33.333333333333336
0.0   0.0   50.0
50.0   30.0   50.0
50.0   0.0   50.0
50.0   0.0   33.333333333333336
0.0   0.0   50.0
50.0   30.0   50.0
50.0   0.0   33.333333333333336
0.0   30.0   33.333333333333336
0.0   30.0   0.0
50.0   30.0   0.0
0.0   60.0   0.0
0.0   30.0   16.666666666666668
50.0   30.0   0.0
50.0   60.0   0.0
0.0   60.0   0.0
50.0   60.0   16.666666666666668
0.0   30.0   16.666666666666668
0.0   60.0   16.666666666666668
50.0   60.0   16.666666666666668
0.0   60.0   0.0
0.0   30.0   16.666666666666668
50.0   60.0   16.666666666666668
50.0   30.0   16.666666666666668
50.0   30.0   0.0
0.0   30.0   16.666666666666668
50.0   60.0   16.666666666666668
50.0   30.0   0.0
0.0   60.0   0.0
0.0   30.0   16.666666666666668
50.0   30.0   16.666666666666668
0.0   60.0   16.666666666666668
0.0   30.0   33.333333333333336
50.0   30.0   16.666666666666668
50.0   60.0   16.666666666666668
0.0   60.0   16.666666666666668
50.0   60.0   33.333333333333336
0.0   30.0   33.333333333333336
0.0   60.0   33.333333333333336
50.0   60.0   33.333333333333336
0.0   60.0   16.666666666666668
0.0   30.0   33.333333333333336
50.0   60.0   33.333333333333336
50.0   30.0   33.333333333333336
50.0   30.0   16.666666666666668
0.0   30.0   33.333333333333336
50.0   60.0   33.333333333333336
50.0   30.0   16.666666666666668
0.0   60.0   16.666666666666668
0.0   30.0   33.333333333333336
50.0   30.0   33.333333333333336
0.0   60.0   33.333333333333336
0.0   30.0   50.0
50.0   30.0   33.333333333333336
50.0   60.0   33.333333333333336
0.0   60.0   33.333333333333336
50.0   60.0   50.0
0.0   30.0   50.0
0.0   60.0   50.0
50.0   60.0   50.0
0.0   60.0   33.333333333333336
0.0   30.0   50.0
50.0   60.0   50.0
50.0   30.0   50.0
50.0   30.0   33.333333333333336
0.0   30.0   50.0
50.0   60.0   50.0
50.0   30.0   33.333333333333336
0.0   60.0   33.333333333333336
0.0   60.0   0.0
50.0   60.0   0.0
0.0   90.0   0.0
0.0   60.0   16.666666666666668
50.0   60.0   0.0
50.0   90.0   0.0
0.0   90.0   0.0
50.0   90.0   16.666666666666668
0.0   60.0   16.666666666666668
0.0   90.0   16.666666666666668
50.0   90.0   16.666666666666668
0.0   90.0   0.0
0.0   60.0   16.666666666666668
50.0   90.0   16.666666666666668
50.0   60.0   16.666666666666668
50.0   60.0   0.0
0.0   60.0   16.666666666666668
50.0   90.0   16.666666666666668
50.0   60.0   0.0
0.0   90.0   0.0
0.0   60.0   16.666666666666668
50.0   60.0   16.666666666666668
0.0   90.0   16.666666666666668
0.0   60.0   33.333333333333336
50.0   60.0   16.666666666666668
50.0   90.0   16.666666666666668
0.0   90.0   16.666666666666668
50.0   90.0   33.333333333333336
0.0   60.0   33.333333333333336
0.0   90.0   33.333333333333336
50.0   90.0   33.333333333333336
0.0   90.0   16.666666666666668
0.0   60.0   33.333333333333336
50.0   90.0   33.333333333333336
50.0   60.0   33.333333333333336
50.0   60.0   16.666666666666668
0.0   60.0   33.333333333333336
50.0   90.0   33.333333333333336
50.0   60.0   16.666666666666668
0.0   90.0   16.666666666666668
0.0   60.0   33.333333333333336
50.0   60.0   33.333333333333336
0.0   90.0   33.333333333333336
0.0   60.0   50.0
50.0   60.0   33.333333333333336
50.0   90.0   33.333333333333336
0.0   90.0   33.333333333333336
50.0   90.0   50.0
0.0   60.0   50.0
0.0   90.0   50.0
50.0   90.0   50.0
0.0   90.0   33.333333333333336
0.0   60.0   50.0
50.0   90.0   50.0
50.0   60.0   50.0
50.0   60.0   33.333333333333336
0.0   60.0   50.0
50.0   90.0   50.0
50.0   60.0   33.333333333333336
0.0   90.0   33.333333333333336
0.0   90.0   0.0
50.0   90.0   0.0
0.0   120.0   0.0
0.0   90.0   16.666666666666668
50.0   90.0   0.0
50.0   120.0   0.0
0.0   120.0   0.0
50.0   120.0   16.666666666666668
0.0   90.0   16.666666666666668
0.0   120.0   16.666666666666668
50.0   120.0   16.666666666666668
0.0   120.0   0.0
0.0   90.0   16.666666666666668
50.0   120.0   16.666666666666668
50.0   90.0   16.666666666666668
50.0   90.0   0.0
0.0   90.0   16.666666666666668
50.0   120.0   16.666666666666668
50.0   90.0   0.0
0.0   120.0   0.0
0.0   90.0   16.666666666666668
50.0   90.0   16.666666666666668
0.0   120.0   16.666666666666668
0.0   90.0   33.333333333333336
50.0   90.0   16.666666666666668
50.0   120.0   16.666666666666668
0.0   120.0   16.666666666666668
50.0   120.0   33.333333333333336
0.0   90.0   33.333333333333336
0.0   120.0   33.333333333333336
50.0   120.0   33.333333333333336
0.0   120.0   16.666666666666668
0.0   90.0   33.333333333333336
50.0   120.0   33.333333333333336
50.0   90.0   33.333333333333336
50.0   90.0   16.666666666666668
0.0   90.0   33.333333333333336
50.0   120.0   33.333333333333336
50.0   90.0   16.666666666666668
0.0   120.0   16.666666666666668
0.0   90.0   33.333333333333336
50.0   90.0   33.333333333333336
0.0   120.0   33.333333333333336
0.0   90.0   50.0
50.0   90.0   33.333333333333336
50.0   120.0   33.333333333333336
0.0   120.0   33.333333333333336
50.0   120.0   50.0
0.0   90.0   50.0
0.0   120.0   50.0
50.0   120.0   50.0
0.0   120.0   33.333333333333336
0.0   90.0   50.0
50.0   120.0   50.0
50.0   90.0   50.0
50.0   90.0   33.333333333333336
0.0   90.0   50.0
50.0   120.0   50.0
50.0   90.0   33.333333333333336
0.0   120.0   33.333333333333336
0.0   120.0   0.0
50.0   120.0   0.0
0.0   150.0   0.0
0.0   120.0   16.666666666666668
50.0   120.0   0.0
50.0   150.0   0.0
0.0   150.0   0.0
50.0   150.0   16.666666666666668
0.0   120.0   16.666666666666668
0.0   150.0   16.666666666666668
50.0   150.0   16.666666666666668
0.0   150.0   0.0
0.0   120.0   16.666666666666668
50.0   150.0   16.666666666666668
50.0   120.0   16.666666666666668
50.0   120.0   0.0
0.0   120.0   16.666666666666668
50.0   150.0   16.666666666666668
50.0   120.0   0.0
0.0   150.0   0.0
0.0   120.0   16.666666666666668
50.0   120.0   16.666666666666668
0.0   150.0   16.666666666666668
0.0   120.0   33.333333333333336
50.0   120.0   16.666666666666668
50.0   150.0   16.666666666666668
0.0   150.0   16.666666666666668
50.0   150.0   33.333333333333336
0.0   120.0   33.333333333333336
0.0   150.0   33.333333333333336
50.0   150.0   33.333333333333336
0.0   150.0   16.666666666666668
0.0   120.0   33.333333333333336
50.0   150.0   33.333333333333336
50.0   120.0   33.333333333333336
50.0   120.0   16.666666666666668
0.0   120.0   33.333333333333336
50.0   150.0   33.333333333333336
50.0   120.0   16.666666666666668
0.0   150.0   16.666666666666668
0.0   120.0   33.333333333333336
50.0   120.0   33.333333333333336
0.0   150.0   33.333333333333336
0.0   120.0   50.0
50.0   120.0   33.333333333333336
50.0   150.0   33.333333333333336
0.0   150.0   33.333333333333336
50.0   150.0   50.0
0.0   120.0   50.0
0.0   150.0   50.0
50.0   150.0   50.0
0.0   150.0   33.333333333333336
0.0   120.0   50.0
50.0   150.0   50.0
50.0   120.0   50.0
50.0   120.0   33.333333333333336
0.0   120.0   50.0
50.0   150.0   50.0
50.0   120.0   33.333333333333336
0.0   150.0   33.333333333333336
50.0   0.0   0.0
100.0   0.0   0.0
50.0   30.0   0.0
50.0   0.0   16.666666666666668
100.0   0.0   0.0
100.0   30.0   0.0
50.0   30.0   0.0
100.0   30.0   16.666666666666668
50.0   0.0   16.666666666666668
50.0   30.0   16.666666666666668
100.0   30.0   16.666666666666668
50.0   30.0   0.0
50.0   0.0   16.666666666666668
100.0   30.0   16.666666666666668
100.0   0.0   16.666666666666668
100.0   0.0   0.0
50.0   0.0   16.666666666666668
100.0   30.0   16.666666666666668
100.0   0.0   0.0
50.0   30.0   0.0
50.0   0.0   16.666666666666668
100.0   0.0   16.666666666666668
50.0   30.0   16.666666666666668
50.0   0.0   33.333333333333336
100.0   0.0   16.666666666666668
100.0   30.0   16.666666666666668
50.0   30.0   16.666666666666668
100.0   30.0   33.333333333333336
50.0   0.0   33.333333333333336
50.0   30.0   33.333333333333336
100.0   30.0   33.333333333333336
50.0   30.0   16.666666666666668
50.0   0.0   33.333333333333336
100.0   30.0   33.333333333333336
100.0   0.0   33.333333333333336
100.0   0.0   16.666666666666668
50.0   0.0   33.333333333333336
100.0   30.0   33.333333333333336
100.0   0.0   16.666666666666668
50.0   30.0   16.666666666666668
50.0   0.0   33.333333333333336
100.0   0.0   33.333333333333336
50.0   30.0   33.333333333333336
50.0   0.0   50.0
100.0   0.0   33.333333333333336
100.0   30.0   33.333333333333336
50.0   30.0   33.333333333333336
100.0   30.0   50.0
50.0   0.0   50.0
50.0   30.0   50.0
100.0   30.0   50.0
50.0   30.0   33.333333333333336
50.0   0.0   50.0
100.0   30.0   50.0
100.0   0.0   50.0
100.0   0.0   33.333333333333336
50.0   0.0   50.0
100.0   30.0   50.0
100.0   0.0   33.333333333333336
50.0   30.0   33.333333333333336
50.0   30.0   0.0
100.0   30.0   0.0
50.0   60.0   0.0
50.0   30.0   16.666666666666668
100.0   30.0   0.0
100.0   60.0   0.0
50.0   60.0   0.0
100.0   60.0   16.666666666666668
50.0   30.0   16.666666666666668
50.0   60.0   16.666666666666668
100.0   60.0   16.666666666666668
50.0   60.0   0.0
50.0   30.0   16.666666666666668
100.0   60.0   16.666666666666668
100.0   30.0   16.666666666666668
100.0   30.0   0.0
50.0   30.0   16.666666666666668
100.0   60.0   16.666666666666668
100.0   30.0   0.0
50.0   60.0   0.0
50.0   30.0   16.666666666666668
100.0   30.0   16.666666666666668
50.0   60.0   16.666666666666668
50.0   30.0   33.333333333333336
100.0   30.0   16.666666666666668
100.0   60.0   16.666666666666668
50.0   60.0   16.666666666666668
100.0   60.0   33.333333333333336
50.0   30.0   33.333333333333336
50.0   60.0   33.333333333333336
100.0   60.0   33.333333333333336
50.0   60.0   16.666666666666668
50.0   30.0   33.333333333333336
100.0   60.0   33.333333333333336
100.0   30.0   33.333333333333336
100.0   30.0   16.666666666666668
50.0   30.0   33.333333333333336
100.0   60.0   33.333333333333336
100.0   30.0   16.666666666666668
50.0   60.0   16.666666666666668
50.0   30.0   33.333333333333336
100.0   30.0   33.333333333333336
50.0   60.0   33.333333333333336
50.0   30.0   50.0
100.0   30.0   33.333333333333336
100.0   60.0   33.333333333333336
50.0   60.0   33.333333333333336
100.0   60.0   50.0
50.0   30.0   50.0
50.0   60.0   50.0
100.0   60.0   50.0
50.0   60.0   33.333333333333336
50.0   30.0   50.0
100.0   60.0   50.0
100.0   30.0   50.0
100.0   30.0   33.333333333333336
50.0   30.0   50.0
100.0   60.0   50.0
100.0   30.0   33.333333333333336
50.0   60.0   33.333333333333336
50.0   60.0   0.0
100.0   60.0   0.0
50.0   90.0   0.0
50.0   60.0   16.666666666666668
100.0   60.0   0.0
100.0   90.0   0.0
50.0   90.0   0.0
100.0   90.0   16.666666666666668
50.0   60.0   16.666666666666668
50.0   90.0   16.666666666666668
100.0   90.0   16.666666666666668
50.0   90.0   0.0
50.0   60.0   16.666666666666668
100.0   90.0   16.666666666666668
100.0   60.0   16.666666666666668
100.0   60.0   0.0
50.0   60.0   16.666666666666668
100.0   90.0   16.666666666666668
100.0   60.0   0.0
50.0   90.0   0.0
50.0   60.0   16.666666666666668
100.0   60.0   16.666666666666668
50.0   90.0   16.666666666666668
50.0   60.0   33.333333333333336
100.0   60.0   16.666666666666668
100.0   90.0   16.666666666666668
50.0   90.0   16.666666666666668
100.0   90.0   33.333333333333336
50.0   60.0   33.333333333333336
50.0   90.0   33.333333333333336
100.0   90.0   33.333333333333336
50.0   90.0   16.666666666666668
50.0   60.0   33.333333333333336
100.0   90.0   33.333333333333336
100.0   60.0   33.333333333333336
100.0   60.0   16.666666666666668
50.0   60.0   33.333333333333336
100.0   90.0   33.333333333333336
100.0   60.0   16.666666666666668
50.0   90.0   16.666666666666668
50.0   60.0   33.333333333333336
100.0   60.0   33.333333333333336
50.0   90.0   33.333333333333336
50.0   60.0   50.0
100.0   60.0   33.333333333333336
100.0   90.0   33.333333333333336
50.0   90.0   33.333333333333336
100.0   90.0   50.0
50.0   60.0   50.0
50.0   90.0   50.0
100.0   90.0   50.0
50.0   90.0   33.333333333333336
50.0   60.0   50.0
100.0   90.0   50.0
100.0   60.0   50.0
100.0   60.0   33.333333333333336
50.0   60.0   50.0
100.0   90.0   50.0
100.0   60.0   33.333333333333336
50.0   90.0   33.333333333333336
50.0   90.0   0.0
100.0   90.0   0.0
50.0   120.0   0.0
50.0   90.0   16.666666666666668
100.0   90.0   0.0
100.0   120.0   0.0
50.0   120.0   0.0
100.0   120.0   16.666666666666668
50.0   90.0   16.666666666666668
50.0   120.0   16.666666666666668
100.0   120.0   16.666666666666668
50.0   120.0   0.0
50.0   90.0   16.666666666666668
100.0   120.0   16.666666666666668
100.0   90.0   16.666666666666668
100.0   90.0   0.0
50.0   90.0   16.666666666666668
100.0   120.0   16.666666666666668
100.0   90.0   0.0
50.0   120.0   0.0
50.0   90.0   16.666666666666668
100.0   90.0   16.666666666666668
50.0   120.0   16.666666666666668
50.0   90.0   33.333333333333336
100.0   90.0   16.666666666666668
100.0   120.0   16.666666666666668
50.0   120.0   16.666666666666668
100.0   120.0   33.333333333333336
50.0   90.0   33.333333333333336
50.0   120.0   33.333333333333336
100.0   120.0   33.333333333333336
50.0   120.0   16.666666666666668
50.0   90.0   33.333333333333336
100.0   120.0   33.333333333333336
100.0   90.0   33.333333333333336
100.0   90.0   16.666666666666668
50.0   90.0   33.333333333333336
100.0   120.0   33.333333333333336
100.0   90.0   16.666666666666668
50.0   120.0   16.666666666666668
50.0   90.0   33.333333333333336
100.0   90.0   33.333333333333336
50.0   120.0   33.333333333333336
50.0   90.0   50.0
100.0   90.0   33.333333333333336
100.0   120.0   33.333333333333336
50.0   120.0   33.333333333333336
100.0   120.0   50.0
50.0   90.0   50.0
50.0   120.0   50.0
100.0   120.0   50.0
50.0   120.0   33.333333333333336
50.0   90.0   50.0
100.0   120.0   50.0
100.0   90.0   50.0
100.0   90.0   33.333333333333336
50.0   90.0   50.0
100.0   120.0   50.0
100.0   90.0   33.333333333333336
50.0   120.0   33.333333333333336
50.0   120.0   0.0
100.0   120.0   0.0
50.0   150.0   0.0
50.0   120.0   16.666666666666668
100.0   120.0   0.0
100.0   150.0   0.0
50.0   150.0   0.0
100.0   150.0   16.666666666666668
50.0   120.0   16.666666666666668
50.0   150.0   16.666666666666668
100.0   150.0   16.666666666666668
50.0   150.0   0.0
50.0   120.0   16.666666666666668
100.0   150.0   16.666666666666668
100.0   120.0   16.666666666666668
100.0   120.0   0.0
50.0   120.0   16.666666666666668
100.0   150.0   16.666666666666668
100.0   120.0   0.0
50.0   150.0   0.0
50.0   120.0   16.666666666666668
100.0   120.0   16.666666666666668
50.0   150.0   16.666666666666668
50.0   120.0   33.333333333333336
100.0   120.0   16.666666666666668
100.0   150.0   16.666666666666668
50.0   150.0   16.666666666666668
100.0   150.0   33.333333333333336
50.0   120.0   33.333333333333336
50.0   150.0   33.333333333333336
100.0   150.0   33.333333333333336
50.0   150.0   16.666666666666668
50.0   120.0   33.333333333333336
100.0   150.0   33.333333333333336
100.0   120.0   33.333333333333336
100.0   120.0   16.666666666666668
50.0   120.0   33.333333333333336
100.0   150.0   33.333333333333336
100.0   120.0   16.666666666666668
50.0   150.0   16.666666666666668
50.0   120.0   33.333333333333336
100.0   120.0   33.333333333333336
50.0   150.0   33.333333333333336
50.0   120.0   50.0
100.0   120.0   33.333333333333336
100.0   150.0   33.333333333333336
50.0   150.0   33.333333333333336
100.0   150.0   50.0
50.0   120.0   50.0
50.0   150.0   50.0
100.0   150.0   50.0
50.0   150.0   33.333333333333336
50.0   120.0   50.0
100.0   150.0   50.0
100.0   120.0   50.0
100.0   120.0   33.333333333333336
50.0   120.0   50.0
100.0   150.0   50.0
100.0   120.0   33.333333333333336
50.0   150.0   33.333333333333336
100.0   0.0   0.0
150.0   0.0   0.0
100.0   30.0   0.0
100.0   0.0   16.666666666666668
150.0   0.0   0.0
150.0   30.0   0.0
100.0   30.0   0.0
150.0   30.0   16.666666666666668
100.0   0.0   16.666666666666668
100.0   30.0   16.666666666666668
150.0   30.0   16.666666666666668
100.0   30.0   0.0
100.0   0.0   16.666666666666668
150.0   30.0   16.666666666666668
150.0   0.0   16.666666666666668
150.0   0.0   0.0
100.0   0.0   16.666666666666668
150.0   30.0   16.666666666666668
150.0   0.0   0.0
100.0   30.0   0.0
100.0   0.0   16.666666666666668
150.0   0.0   16.666666666666668
100.0   30.0   16.666666666666668
100.0   0.0   33.333333333333336
150.0   0.0   16.666666666666668
150.0   30.0   16.666666666666668
100.0   30.0   16.666666666666668
150.0   30.0   33.333333333333336
100.0   0.0   33.333333333333336
100.0   30.0   33.333333333333336
150.0   30.0   33.333333333333336
100.0   30.0   16.666666666666668
100.0   0.0   33.333333333333336
150.0   30.0   33.333333333333336
150.0   0.0   33.333333333333336
150.0   0.0   16.666666666666668
100.0   0.0   33.333333333333336
150.0   30.0   33.333333333333336
150.0   0.0   16.666666666666668
100.0   30.0   16.666666666666668
100.0   0.0   33.333333333333336
150.0   0.0   33.333333333333336
100.0   30.0   33.333333333333336
100.0   0.0   50.0
150.0   0.0   33.333333333333336
150.0   30.0   33.333333333333336
100.0   30.0   33.333333333333336
150.0   30.0   50.0
100.0   0.0   50.0
100.0   30.0   50.0
150.0   30.0   50.0
100.0   30.0   33.333333333333336
100.0   0.0   50.0
150.0   30.0   50.0
150.0   0.0   50.0
150.0   0.0   33.333333333333336
100.0   0.0   50.0
150.0   30.0   50.0
150.0   0.0   33.333333333333336
100.0   30.0   33.333333333333336
100.0   30.0   0.0
150.0   30.0   0.0
100.0   60.0   0.0
100.0   30.0   16.666666666666668
150.0   30.0   0.0
150.0   60.0   0.0
100.0   60.0   0.0
150.0   60.0   16.666666666666668
100.0   30.0   16.666666666666668
100.0   60.0   16.666666666666668
150.0   60.0   16.666666666666668
100.0   60.0   0.0
100.0   30.0   16.666666666666668
150.0   60.0   16.666666666666668
150.0   30.0   16.666666666666668
150.0   30.0   0.0
100.0   30.0   16.666666666666668
150.0   60.0   16.666666666666668
150.0   30.0   0.0
100.0   60.0   0.0
100.0   30.0   16.666666666666668
150.0   30.0   16.666666666666668
100.0   60.0   16.666666666666668
100.0   30.0   33.333333333333336
150.0   30.0   16.666666666666668
150.0   60.0   16.666666666666668
100.0   60.0   16.666666666666668
150.0   60.0   33.333333333333336
100.0   30.0   33.333333333333336
100.0   60.0   33.333333333333336
150.0   60.0   33.333333333333336
100.0   60.0   16.666666666666668
100.0   30.0   33.333333333333336
150.0   60.0   33.333333333333336
150.0   30.0   33.333333333333336
150.0   30.0   16.666666666666668
100.0   30.0   33.333333333333336
150.0   60.0   33.333333333333336
150.0   30.0   16.666666666666668
100.0   60.0   16.666666666666668
100.0   30.0   33.333333333333336
150.0   30.0   33.333333333333336
100.0   60.0   33.333333333333336
100.0   30.0   50.0
150.0   30.0   33.333333333333336
150.0   60.0   33.333333333333336
100.0   60.0   33.333333333333336
150.0   60.0   50.0
100.0   30.0   50.0
100.0   60.0   50.0
150.0   60.0   50.0
100.0   60.0   33.333333333333336
100.0   30.0   50.0
150.0   60.0   50.0
150.0   30.0   50.0
150.0   30.0   33.333333333333336
100.0   30.0   50.0
150.0   60.0   50.0
150.0   30.0   33.333333333333336
100.0   60.0   33.333333333333336
100.0   60.0   0.0
150.0   60.0   0.0
100.0   90.0   0.0
100.0   60.0   16.666666666666668
150.0   60.0   0.0
150.0   90.0   0.0
100.0   90.0   0.0
150.0   90.0   16.666666666666668
100.0   60.0   16.666666666666668
100.0   90.0   16.666666666666668
150.0   90.0   16.666666666666668
100.0   90.0   0.0
100.0   60.0   16.666666666666668
150.0   90.0   16.666666666666668
150.0   60.0   16.666666666666668
150.0   60.0   0.0
100.0   60.0   16.666666666666668
150.0   90.0   16.666666666666668
150.0   60.0   0.0
100.0   90.0   0.0
100.0   60.0   16.666666666666668
150.0   60.0   16.666666666666668
100.0   90.0   16.666666666666668
100.0   60.0   33.333333333333336
150.0   60.0   16.666666666666668
150.0   90.0   16.666666666666668
100.0   90.0   16.666666666666668
150.0   90.0   33.333333333333336
100.0   60.0   33.333333333333336
100.0   90.0   33.333333333333336
150.0   90.0   33.333333333333336
100.0   90.0   16.666666666666668
100.0   60.0   33.333333333333336
150.0   90.0   33.333333333333336
150.0   60.0   33.333333333333336
150.0   60.0   16.666666666666668
100.0   60.0   33.333333333333336
150.0   90.0   33.333333333333336
150.0   60.0   16.666666666666668
100.0   90.0   16.666666666666668
100.0   60.0   33.333333333333336
150.0   60.0   33.333333333333336
100.0   90.0   33.333333333333336
100.0   60.0   50.0
150.0   60.0   33.333333333333336
150.0   90.0   33.333333333333336
100.0   90.0   33.333333333333336
150.0   90.0   50.0
100.0   60.0   50.0
100.0   90.0   50.0
150.0   90.0   50.0
100.0   90.0   33.333333333333336
100.0   60.0   50.0
150.0   90.0   50.0
150.0   60.0   50.0
150.0   60.0   33.333333333333336
100.0   60.0   50.0
150.0   90.0   50.0
150.0   60.0   33.333333333333336
100.0   90.0   33.333333333333336
100.0   90.0   0.0
150.0   90.0   0.0
100.0   120.0   0.0
100.0   90.0   16.666666666666668
150.0   90.0   0.0
150.0   120.0   0.0
100.0   120.0   0.0
150.0   120.0   16.666666666666668
100.0   90.0   16.666666666666668
100.0   120.0   16.666666666666668
150.0   120.0   16.666666666666668
100.0   120.0   0.0
100.0   90.0   16.666666666666668
150.0   120.0   16.666666666666668
150.0   90.0   16.666666666666668
150.0   90.0   0.0
100.0   90.0   16.666666666666668
150.0   120.0   16.666666666666668
150.0   90.0   0.0
100.0   120.0   0.0
100.0   90.0   16.666666666666668
150.0   90.0   16.666666666666668
100.0   120.0   16.666666666666668
100.0   90.0   33.333333333333336
150.0   90.0   16.666666666666668
150.0   120.0   16.666666666666668
100.0   120.0   16.666666666666668
150.0   120.0   33.333333333333336
100.0   90.0   33.333333333333336
100.0   120.0   33.333333333333336
150.0   120.0   33.333333333333336
100.0   120.0   16.666666666666668
100.0   90.0   33.333333333333336
150.0   120.0   33.333333333333336
150.0   90.0   33.333333333333336
150.0   90.0   16.666666666666668
100.0   90.0   33.333333333333336
150.0   120.0   33.333333333333336
150.0   90.0   16.666666666666668
100.0   120.0   16.666666666666668
100.0   90.0   33.333333333333336
150.0   90.0   33.333333333333336
100.0   120.0   33.333333333333336
100.0   90.0   50.0
150.0   90.0   33.333333333333336
150.0   120.0   33.333333333333336
100.0   120.0   33.333333333333336
150.0   120.0   50.0
100.0   90.0   50.0
100.0   120.0   50.0
150.0   120.0   50.0
100.0   120.0   33.333333333333336
100.0   90.0   50.0
150.0   120.0   50.0
150.0   90.0   50.0
150.0   90.0   33.333333333333336
100.0   90.0   50.0
150.0   120.0   50.0
150.0   90.0   33.333333333333336
100.0   120.0   33.333333333333336
100.0   120.0   0.0
150.0   120.0   0.0
100.0   150.0   0.0
100.0   120.0   16.666666666666668
150.0   120.0   0.0
150.0   150.0   0.0
100.0   150.0   0.0
150.0   150.0   16.666666666666668
100.0   120.0   16.666666666666668
100.0   150.0   16.666666666666668
150.0   150.0   16.666666666666668
100.0   150.0   0.0
100.0   120.0   16.666666666666668
150.0   150.0   16.666666666666668
150.0   120.0   16.666666666666668
150.0   120.0   0.0
100.0   120.0   16.666666666666668
150.0   150.0   16.666666666666668
150.0   120.0   0.0
100.0   150.0   0.0
100.0   120.0   16.666666666666668
150.0   120.0   16.666666666666668
100.0   150.0   16.666666666666668
100.0   120.0   33.333333333333336
150.0   120.0   16.666666666666668
150.0   150.0   16.666666666666668
100.0   150.0   16.666666666666668
150.0   150.0   33.333333333333336
100.0   120.0   33.333333333333336
100.0   150.0   33.333333333333336
150.0   150.0   33.333333333333336
100.0   150.0   16.666666666666668
100.0   120.0   33.333333333333336
150.0   150.0   33.333333333333336
150.0   120.0   33.333333333333336
150.0   120.0   16.666666666666668
100.0   120.0   33.333333333333336
150.0   150.0   33.333333333333336
150.0   120.0   16.666666666666668
100.0   150.0   16.666666666666668
100.0   120.0   33.333333333333336
150.0   120.0   33.333333333333336
100.0   150.0   33.333333333333336
100.0   120.0   50.0
150.0   120.0   33.333333333333336
150.0   150.0   33.333333333333336
100.0   150.0   33.333333333333336
150.0   150.0   50.0
100.0   120.0   50.0
100.0   150.0   50.0
150.0   150.0   50.0
100.0   150.0   33.333333333333336
100.0   120.0   50.0
150.0   150.0   50.0
150.0   120.0   50.0
150.0   120.0   33.333333333333336
100.0   120.0   50.0
150.0   150.0   50.0
150.0   120.0   33.333333333333336
100.0   150.0   33.333333333333336
150.0   0.0   0.0
200.0   0.0   0.0
150.0   30.0   0.0
150.0   0.0   16.666666666666668
200.0   0.0   0.0
200.0   30.0   0.0
150.0   30.0   0.0
200.0   30.0   16.666666666666668
150.0   0.0   16.666666666666668
150.0   30.0   16.666666666666668
200.0   30.0   16.666666666666668
150.0   30.0   0.0
150.0   0.0   16.666666666666668
200.0   30.0   16.666666666666668
200.0   0.0   16.666666666666668
200.0   0.0   0.0
150.0   0.0   16.666666666666668
200.0   30.0   16.666666666666668
200.0   0.0   0.0
150.0   30.0   0.0
150.0   0.0   16.666666666666668
200.0   0.0   16.666666666666668
150.0   30.0   16.666666666666668
150.0   0.0   33.333333333333336
200.0   0.0   16.666666666666668
200.0   30.0   16.666666666666668
150.0   30.0   16.666666666666668
200.0   30.0   33.333333333333336
150.0   0.0   33.333333333333336
150.0   30.0   33.333333333333336
200.0   30.0   33.333333333333336
150.0   30.0   16.666666666666668
150.0   0.0   33.333333333333336
200.0   30.0   33.333333333333336
200.0   0.0   33.333333333333336
200.0   0.0   16.666666666666668
150.0   0.0   33.333333333333336
200.0   30.0   33.333333333333336
200.0   0.0   16.666666666666668
150.0   30.0   16.666666666666668
150.0   0.0   33.333333333333336
200.0   0.0   33.333333333333336
150.0   30.0   33.333333333333336
150.0   0.0   50.0
200.0   0.0   33.333333333333336
200.0   30.0   33.333333333333336
150.0   30.0   33.333333333333336
200.0   30.0   50.0
150.0   0.0   50.0
150.0   30.0   50.0
200.0   30.0   50.0
150.0   30.0   33.333333333333336
150.0   0.0   50.0
200.0   30.0   50.0
200.0   0.0   50.0
200.0   0.0   33.333333333333336
150.0   0.0   50.0
200.0   30.0   50.0
200.0   0.0   33.333333333333336
150.0   30.0   33.333333333333336
150.0   30.0   0.0
200.0   30.0   0.0
150.0   60.0   0.0
150.0   30.0   16.666666666666668
200.0   30.0   0.0
200.0   60.0   0.0
150.0   60.0   0.0
200.0   60.0   16.666666666666668
150.0   30.0   16.666666666666668
150.0   60.0   16.666666666666668
200.0   60.0   16.666666666666668
150.0   60.0   0.0
150.0   30.0   16.666666666666668
200.0   60.0   16.666666666666668
200.0   30.0   16.666666666666668
200.0   30.0   0.0
150.0   30.0   16.666666666666668
200.0   60.0   16.666666666666668
200.0   30.0   0.0
150.0   60.0   0.0
150.0   30.0   16.666666666666668
200.0   30.0   16.666666666666668
150.0   60.0   16.666666666666668
150.0   30.0   33.333333333333336
200.0   30.0   16.666666666666668
200.0   60.0   16.666666666666668
150.0   60.0   16.666666666666668
200.0   60.0   33.333333333333336
150.0   30.0   33.333333333333336
150.0   60.0   33.333333333333336
200.0   60.0   33.333333333333336
150.0   60.0   16.666666666666668
150.0   30.0   33.333333333333336
200.0   60.0   33.333333333333336
200.0   30.0   33.333333333333336
200.0   30.0   16.666666666666668
150.0   30.0   33.333333333333336
200.0   60.0   33.333333333333336
200.0   30.0   16.666666666666668
150.0   60.0   16.666666666666668
150.0   30.0   33.333333333333336
200.0   30.0   33.333333333333336
150.0   60.0   33.333333333333336
150.0   30.0   50.0
200.0   30.0   33.333333333333336
200.0   60.0   33.333333333333336
150.0   60.0   33.333333333333336
200.0   60.0   50.0
150.0   30.0   50.0
150.0   60.0   50.0
200.0   60.0   50.0
150.0   60.0   33.333333333333336
150.0   30.0   50.0
200.0   60.0   50.0
200.0   30.0   50.0
200.0   30.0   33.333333333333336
150.0   30.0   50.0
200.0   60.0   50.0
200.0   30.0   33.333333333333336
150.0   60.0   33.333333333333336
150.0   60.0   0.0
200.0   60.0   0.0
150.0   90.0   0.0
150.0   60.0   16.666666666666668
200.0   60.0   0.0
200.0   90.0   0.0
150.0   90.0   0.0
200.0   90.0   16.666666666666668
150.0   60.0   16.666666666666668
150.0   90.0   16.666666666666668
200.0   90.0   16.666666666666668
150.0   90.0   0.0
150.0   60.0   16.666666666666668
200.0   90.0   16.666666666666668
200.0   60.0   16.666666666666668
200.0   60.0   0.0
150.0   60.0   16.666666666666668
200.0   90.0   16.666666666666668
200.0   60.0   0.0
150.0   90.0   0.0
150.0   60.0   16.666666666666668
200.0   60.0   16.666666666666668
150.0   90.0   16.666666666666668
150.0   60.0   33.333333333333336
200.0   60.0   16.666666666666668
200.0   90.0   16.666666666666668
150.0   90.0   16.666666666666668
200.0   90.0   33.333333333333336
150.0   60.0   33.333333333333336
150.0   90.0   33.333333333333336
200.0   90.0   33.333333333333336
150.0   90.0   16.666666666666668
150.0   60.0   33.333333333333336
200.0   90.0   33.333333333333336
200.0   60.0   33.333333333333336
200.0   60.0   16.666666666666668
150.0   60.0   33.333333333333336
200.0   90.0   33.333333333333336
200.0   60.0   16.666666666666668
150.0   90.0   16.666666666666668
150.0   60.0   33.333333333333336
200.0   60.0   33.333333333333336
150.0   90.0   33.333333333333336
150.0   60.0   50.0
200.0   60.0   33.333333333333336
200.0   90.0   33.333333333333336
150.0   90.0   33.333333333333336
200.0   90.0   50.0
150.0   60.0   50.0
150.0   90.0   50.0
200.0   90.0   50.0
150.0   90.0   33.333333333333336
150.0   60.0   50.0
200.0   90.0   50.0
200.0   60.0   50.0
200.0   60.0   33.333333333333336
150.0   60.0   50.0
200.0   90.0   50.0
200.0   60.0   33.333333333333336
150.0   90.0   33.333333333333336
150.0   90.0   0.0
200.0   90.0   0.0
150.0   120.0   0.0
150.0   90.0   16.666666666666668
200.0   90.0   0.0
200.0   120.0   0.0
150.0   120.0   0.0
200.0   120.0   16.666666666666668
150.0   90.0   16.666666666666668
150.0   120.0   16.666666666666668
200.0   120.0   16.666666666666668
150.0   120.0   0.0
150.0   90.0   16.666666666666668
200.0   120.0   16.666666666666668
200.0   90.0   16.666666666666668
200.0   90.0   0.0
150.0   90.0   16.666666666666668
200.0   120.0   16.666666666666668
200.0   90.0   0.0
150.0   120.0   0.0
150.0   90.0   16.666666666666668
200.0   90.0   16.666666666666668
150.0   120.0   16.666666666666668
150.0   90.0   33.333333333333336
200.0   90.0   16.666666666666668
200.0   120.0   16.666666666666668
150.0   120.0   16.666666666666668
200.0   120.0   33.333333333333336
150.0   90.0   33.333333333333336
150.0   120.0   33.333333333333336
200.0   120.0   33.333333333333336
150.0   120.0   16.666666666666668
150.0   90.0   33.333333333333336
200.0   120.0   33.333333333333336
200.0   90.0   33.333333333333336
200.0   90.0   16.666666666666668
150.0   90.0   33.333333333333336
200.0   120.0   33.333333333333336
200.0   90.0   16.666666666666668
150.0   120.0   16.666666666666668
150.0   90.0   33.333333333333336
200.0   90.0   33.333333333333336
150.0   120.0   33.333333333333336
150.0   90.0   50.0
200.0   90.0   33.333333333333336
200.0   120.0   33.333333333333336
150.0   120.0   33.333333333333336
200.0   120.0   50.0
150.0   90.0   50.0
150.0   120.0   50.0
200.0   120.0   50.0
150.0   120.0   33.333333333333336
150.0   90.0   50.0
200.0   120.0   50.0
200.0   90.0   50.0
200.0   90.0   33.333333333333336
150.0   90.0   50.0
200.0   120.0   50.0
200.0   90.0   33.333333333333336
150.0   120.0   33.333333333333336
150.0   120.0   0.0
200.0   120.0   0.0
150.0   150.0   0.0
150.0   120.0   16.666666666666668
200.0   120.0   0.0
200.0   150.0   0.0
150.0   150.0   0.0
200.0   150.0   16.666666666666668
150.0   120.0   16.666666666666668
150.0   150.0   16.666666666666668
200.0   150.0   16.666666666666668
150.0   150.0   0.0
150.0   120.0   16.666666666666668
200.0   150.0   16.666666666666668
200.0   120.0   16.666666666666668
200.0   120.0   0.0
150.0   120.0   16.666666666666668
200.0   150.0   16.666666666666668
200.0   120.0   0.0
150.0   150.0   0.0
150.0   120.0   16.666666666666668
200.0   120.0   16.666666666666668
150.0   150.0   16.666666666666668
150.0   120.0   33.333333333333336
200.0   120.0   16.666666666666668
200.0   150.0   16.666666666666668
150.0   150.0   16.666666666666668
200.0   150.0   33.333333333333336
150.0   120.0   33.333333333333336
150.0   150.0   33.333333333333336
200.0   150.0   33.333333333333336
150.0   150.0   16.666666666666668
150.0   120.0   33.333333333333336
200.0   150.0   33.333333333333336
200.0   120.0   33.333333333333336
200.0   120.0   16.666666666666668
150.0   120.0   33.333333333333336
200.0   150.0   33.333333333333336
200.0   120.0   16.666666666666668
150.0   150.0   16.666666666666668
150.0   120.0   33.333333333333336
200.0   120.0   33.333333333333336
150.0   150.0   33.333333333333336
150.0   120.0   50.0
200.0   120.0   33.333333333333336
200.0   150.0   33.333333333333336
150.0   150.0   33.333333333333336
200.0   150.0   50.0
150.0   120.0   50.0
150.0   150.0   50.0
200.0   150.0   50.0
150.0   150.0   33.333333333333336
150.0   120.0   50.0
200.0   150.0   50.0
200.0   120.0   50.0
200.0   120.0   33.333333333333336
150.0   120.0   50.0
200.0   150.0   50.0
200.0   120.0   33.333333333333336
150.0   150.0   33.333333333333336
200.0   0.0   0.0
250.0   0.0   0.0
200.0   30.0   0.0
200.0   0.0   16.666666666666668
250.0   0.0   0.0
250.0   30.0   0.0
200.0   30.0   0.0
250.0   30.0   16.666666666666668
200.0   0.0   16.666666666666668
200.0   30.0   16.666666666666668
250.0   30.0   16.666666666666668
200.0   30.0   0.0
200.0   0.0   16.666666666666668
250.0   30.0   16.666666666666668
250.0   0.0   16.666666666666668
250.0   0.0   0.0
200.0   0.0   16.666666666666668
250.0   30.0   16.666666666666668
250.0   0.0   0.0
200.0   30.0   0.0
200.0   0.0   16.666666666666668
250.0   0.0   16.666666666666668
200.0   30.0   16.666666666666668
200.0   0.0   33.333333333333336
250.0   0.0   16.666666666666668
250.0   30.0   16.666666666666668
200.0   30.0   16.666666666666668
250.0   30.0   33.333333333333336
200.0   0.0   33.333333333333336
200.0   30.0   33.333333333333336
250.0   30.0   33.333333333333336
200.0   30.0   16.666666666666668
200.0   0.0   33.333333333333336
250.0   30.0   33.333333333333336
250.0   0.0   33.333333333333336
250.0   0.0   16.666666666666668
200.0   0.0   33.333333333333336
250.0   30.0   33.333333333333336
250.0   0.0   16.666666666666668
200.0   30.0   16.666666666666668
200.0   0.0   33.333333333333336
250.0   0.0   33.333333333333336
200.0   30.0   33.333333333333336
200.0   0.0   50.0
250.0   0.0   33.333333333333336
250.0   30.0   33.333333333333336
200.0   30.0   33.333333333333336
250.0   30.0   50.0
200.0   0.0   50.0
200.0   30.0   50.0
250.0   30.0   50.0
200.0   30.0   33.333333333333336
200.0   0.0   50.0
250.0   30.0   50.0
250.0   0.0   50.0
250.0   0.0   33.333333333333336
200.0   0.0   50.0
250.0   30.0   50.0
250.0   0.0   33.333333333333336
200.0   30.0   33.333333333333336
200.0   30.0   0.0
250.0   30.0   0.0
200.0   60.0   0.0
200.0   30.0   16.666666666666668
250.0   30.0   0.0
250.0   60.0   0.0
200.0   60.0   0.0
250.0   60.0   16.666666666666668
200.0   30.0   16.666666666666668
200.0   60.0   16.666666666666668
250.0   60.0   16.666666666666668
200.0   60.0   0.0
200.0   30.0   16.666666666666668
250.0   60.0   16.666666666666668
250.0   30.0   16.666666666666668
250.0   30.0   0.0
200.0   30.0   16.666666666666668
250.0   60.0   16.666666666666668
250.0   30.0   0.0
200.0   60.0   0.0
200.0   30.0   16.666666666666668
250.0   30.0   16.666666666666668
200.0   60.0   16.666666666666668
200.0   30.0   33.333333333333336
250.0   30.0   16.666666666666668
250.0   60.0   16.666666666666668
200.0   60.0   16.666666666666668
250.0   60.0   33.333333333333336
200.0   30.0   33.333333333333336
200.0   60.0   33.333333333333336
250.0   60.0   33.333333333333336
200.0   60.0   16.666666666666668
200.0   30.0   33.333333333333336
250.0   60.0   33.333333333333336
250.0   30.0   33.333333333333336
250.0   30.0   16.666666666666668
200.0   30.0   33.333333333333336
250.0   60.0   33.333333333333336
250.0   30.0   16.666666666666668
200.0   60.0   16.666666666666668
200.0   30.0   33.333333333333336
250.0   30.0   33.333333333333336
200.0   60.0   33.333333333333336
200.0   30.0   50.0
250.0   30.0   33.333333333333336
250.0   60.0   33.333333333333336
200.0   60.0   33.333333333333336
250.0   60.0   50.0
200.0   30.0   50.0
200.0   60.0   50.0
250.0   60.0   50.0
200.0   60.0   33.333333333333336
200.0   30.0   50.0
250.0   60.0   50.0
250.0   30.0   50.0
250.0   30.0   33.333333333333336
200.0   30.0   50.0
250.0   60.0   50.0
250.0   30.0   33.333333333333336
200.0   60.0   33.333333333333336
200.0   60.0   0.0
250.0   60.0   0.0
200.0   90.0   0.0
200.0   60.0   16.666666666666668
250.0   60.0   0.0
250.0   90.0   0.0
200.0   90.0   0.0
250.0   90.0   16.666666666666668
200.0   60.0   16.666666666666668
200.0   90.0   16.666666666666668
250.0   90.0   16.666666666666668
200.0   90.0   0.0
200.0   60.0   16.666666666666668
250.0   90.0   16.666666666666668
250.0   60.0   16.666666666666668
250.0   60.0   0.0
200.0   60.0   16.666666666666668
250.0   90.0   16.666666666666668
250.0   60.0   0.0
200.0   90.0   0.0
200.0   60.0   16.666666666666668
250.0   60.0   16.666666666666668
200.0   90.0   16.666666666666668
200.0   60.0   33.333333333333336
250.0   60.0   16.666666666666668
250.0   90.0   16.666666666666668
200.0   90.0   16.666666666666668
250.0   90.0   33.333333333333336
200.0   60.0   33.333333333333336
200.0   90.0   33.333333333333336
250.0   90.0   33.333333333333336
200.0   90.0   16.666666666666668
200.0   60.0   33.333333333333336
250.0   90.0   33.333333333333336
250.0   60.0   33.333333333333336
250.0   60.0   16.666666666666668
200.0   60.0   33.333333333333336
250.0   90.0   33.333333333333336
250.0   60.0   16.666666666666668
200.0   90.0   16.666666666666668
200.0   60.0   33.333333333333336
250.0   60.0   33.333333333333336
200.0   90.0   33.333333333333336
200.0   60.0   50.0
250.0   60.0   33.333333333333336
250.0   90.0   33.333333333333336
200.0   90.0   33.333333333333336
250.0   90.0   50.0
200.0   60.0   50.0
200.0   90.0   50.0
250.0   90.0   50.0
200.0   90.0   33.333333333333336
200.0   60.0   50.0
250.0   90.0   50.0
250.0   60.0   50.0
250.0   60.0   33.333333333333336
200.0   60.0   50.0
250.0   90.0   50.0
250.0   60.0   33.333333333333336
200.0   90.0   33.333333333333336
200.0   90.0   0.0
250.0   90.0   0.0
200.0   120.0   0.0
200.0   90.0   16.666666666666668
250.0   90.0   0.0
250.0   120.0   0.0
200.0   120.0   0.0
250.0   120.0   16.666666666666668
200.0   90.0   16.666666666666668
200.0   120.0   16.666666666666668
250.0   120.0   16.666666666666668
200.0   120.0   0.0
200.0   90.0   16.666666666666668
250.0   120.0   16.666666666666668
250.0   90.0   16.666666666666668
250.0   90.0   0.0
200.0   90.0   16.666666666666668
250.0   120.0   16.666666666666668
250.0   90.0   0.0
200.0   120.0   0.0
200.0   90.0   16.666666666666668
250.0   90.0   16.666666666666668
200.0   120.0   16.666666666666668
200.0   90.0   33.333333333333336
250.0   90.0   16.666666666666668
250.0   120.0   16.666666666666668
200.0   120.0   16.666666666666668
250.0   120.0   33.333333333333336
200.0   90.0   33.333333333333336
200.0   120.0   33.333333333333336
250.0   120.0   33.333333333333336
200.0   120.0   16.666666666666668
200.0   90.0   33.333333333333336
250.0   120.0   33.333333333333336
250.0   90.0   33.333333333333336
250.0   90.0   16.666666666666668
200.0   90.0   33.333333333333336
250.0   120.0   33.333333333333336
250.0   90.0   16.666666666666668
200.0   120.0   16.666666666666668
200.0   90.0   33.333333333333336
250.0   90.0   33.333333333333336
200.0   120.0   33.333333333333336
200.0   90.0   50.0
250.0   90.0   33.333333333333336
250.0   120.0   33.333333333333336
200.0   120.0   33.333333333333336
250.0   120.0   50.0
200.0   90.0   50.0
200.0   120.0   50.0
250.0   120.0   50.0
200.0   120.0   33.333333333333336
200.0   90.0   50.0
250.0   120.0   50.0
250.0   90.0   50.0
250.0   90.0   33.333333333333336
200.0   90.0   50.0
250.0   120.0   50.0
250.0   90.0   33.333333333333336
200.0   120.0   33.333333333333336
200.0   120.0   0.0
250.0   120.0   0.0
200.0   150.0   0.0
200.0   120.0   16.666666666666668
250.0   120.0   0.0
250.0   150.0   0.0
200.0   150.0   0.0
250.0   150.0   16.666666666666668
200.0   120.0   16.666666666666668
200.0   150.0   16.666666666666668
250.0   150.0   16.666666666666668
200.0   150.0   0.0
200.0   120.0   16.666666666666668
250.0   150.0   16.666666666666668
250.0   120.0   16.666666666666668
250.0   120.0   0.0
200.0   120.0   16.666666666666668
250.0   150.0   16.666666666666668
250.0   120.0   0.0
200.0   150.0   0.0
200.0   120.0   16.666666666666668
250.0   120.0   16.666666666666668
200.0   150.0   16.666666666666668
200.0   120.0   33.333333333333336
250.0   120.0   16.666666666666668
250.0   150.0   16.666666666666668
200.0   150.0   16.666666666666668
250.0   150.0   33.333333333333336
200.0   120.0   33.333333333333336
200.0   150.0   33.333333333333336
250.0   150.0   33.333333333333336
200.0   150.0   16.666666666666668
200.0   120.0   33.333333333333336
250.0   150.0   33.333333333333336
250.0   120.0   33.333333333333336
250.0   120.0   16.666666666666668
200.0   120.0   33.333333333333336
250.0   150.0   33.333333333333336
250.0   120.0   16.666666666666668
200.0   150.0   16.666666666666668
200.0   120.0   33.333333333333336
250.0   120.0   33.333333333333336
200.0   150.0   33.333333333333336
200.0   120.0   50.0
250.0   120.0   33.333333333333336
250.0   150.0   33.333333333333336
200.0   150.0   33.333333333333336
250.0   150.0   50.0
200.0   120.0   50.0
200.0   150.0   50.0
250.0   150.0   50.0
200.0   150.0   33.333333333333336
200.0   120.0   50.0
250.0   150.0   50.0
250.0   120.0   50.0
250.0   120.0   33.333333333333336
200.0   120.0   50.0
250.0   150.0   50.0
250.0   120.0   33.333333333333336
200.0   150.0   33.333333333333336
250.0   0.0   0.0
300.0   0.0   0.0
250.0   30.0   0.0
250.0   0.0   16.666666666666668
300.0   0.0   0.0
300.0   30.0   0.0
250.0   30.0   0.0
300.0   30.0   16.666666666666668
250.0   0.0   16.666666666666668
250.0   30.0   16.666666666666668
300.0   30.0   16.666666666666668
250.0   30.0   0.0
250.0   0.0   16.666666666666668
300.0   30.0   16.666666666666668
300.0   0.0   16.666666666666668
300.0   0.0   0.0
250.0   0.0   16.666666666666668
300.0   30.0   16.666666666666668
300.0   0.0   0.0
250.0   30.0   0.0
250.0   0.0   16.666666666666668
300.0   0.0   16.666666666666668
250.0   30.0   16.666666666666668
250.0   0.0   33.333333333333336
300.0   0.0   16.666666666666668
300.0   30.0   16.666666666666668
250.0   30.0   16.666666666666668
300.0   30.0   33.333333333333336
250.0   0.0   33.333333333333336
250.0   30.0   33.333333333333336
300.0   30.0   33.333333333333336
250.0   30.0   16.666666666666668
250.0   0.0   33.333333333333336
300.0   30.0   33.333333333333336
300.0   0.0   33.333333333333336
300.0   0.0   16.666666666666668
250.0   0.0   33.333333333333336
300.0   30.0   33.333333333333336
300.0   0.0   16.666666666666668
250.0   30.0   16.666666666666668
250.0   0.0   33.333333333333336
300.0   0.0   33.333333333333336
250.0   30.0   33.333333333333336
250.0   0.0   50.0
300.0   0.0   33.333333333333336
300.0   30.0   33.333333333333336
250.0   30.0   33.333333333333336
300.0   30.0   50.0
250.0   0.0   50.0
250.0   30.0   50.0
300.0   30.0   50.0
250.0   30.0   33.333333333333336
250.0   0.0   50.0
300.0   30.0   50.0
300.0   0.0   50.0
300.0   0.0   33.333333333333336
250.0   0.0   50.0
300.0   30.0   50.0
300.0   0.0   33.333333333333336
250.0   30.0   33.333333333333336
250.0   30.0   0.0
300.0   30.0   0.0
250.0   60.0   0.0
250.0   30.0   16.666666666666668
300.0   30.0   0.0
300.0   60.0   0.0
250.0   60.0   0.0
300.0   60.0   16.666666666666668
250.0   30.0   16.666666666666668
250.0   60.0   16.666666666666668
300.0   60.0   16.666666666666668
250.0   60.0   0.0
250.0   30.0   16.666666666666668
300.0   60.0   16.666666666666668
300.0   30.0   16.666666666666668
300.0   30.0   0.0
250.0   30.0   16.666666666666668
300.0   60.0   16.666666666666668
300.0   30.0   0.0
250.0   60.0   0.0
250.0   30.0   16.666666666666668
300.0   30.0   16.666666666666668
250.0   60.0   16.666666666666668
250.0   30.0   33.333333333333336
300.0   30.0   16.666666666666668
300.0   60.0   16.666666666666668
250.0   60.0   16.666666666666668
300.0   60.0   33.333333333333336
250.0   30.0   33.333333333333336
250.0   60.0   33.333333333333336
300.0   60.0   33.333333333333336
250.0   60.0   16.666666666666668
250.0   30.0   33.333333333333336
300.0   60.0   33.333333333333336
300.0   30.0   33.333333333333336
300.0   30.0   16.666666666666668
250.0   30.0   33.333333333333336
300.0   60.0   33.333333333333336
300.0   30.0   16.666666666666668
250.0   60.0   16.666666666666668
250.0   30.0   33.333333333333336
300.0   30.0   33.333333333333336
250.0   60.0   33.333333333333336
250.0   30.0   50.0
300.0   30.0   33.333333333333336
300.0   60.0   33.333333333333336
250.0   60.0   33.333333333333336
300.0   60.0   50.0
250.0   30.0   50.0
250.0   60.0   50.0
300.0   60.0   50.0
250.0   60.0   33.333333333333336
250.0   30.0   50.0
300.0   60.0   50.0
300.0   30.0   50.0
300.0   30.0   33.333333333333336
250.0   30.0   50.0
300.0   60.0   50.0
300.0   30.0   33.333333333333336
250.0   60.0   33.333333333333336
250.0   60.0   0.0
300.0   60.0   0.0
250.0   90.0   0.0
250.0   60.0   16.666666666666668
300.0   60.0   0.0
300.0   90.0   0.0
250.0   90.0   0.0
300.0   90.0   16.666666666666668
250.0   60.0   16.666666666666668
250.0   90.0   16.666666666666668
300.0   90.0   16.666666666666668
250.0   90.0   0.0
250.0   60.0   16.666666666666668
300.0   90.0   16.666666666666668
300.0   60.0   16.666666666666668
300.0   60.0   0.0
250.0   60.0   16.666666666666668
300.0   90.0   16.666666666666668
300.0   60.0   0.0
250.0   90.0   0.0
250.0   60.0   16.666666666666668
300.0   60.0   16.666666666666668
250.0   90.0   16.666666666666668
250.0   60.0   33.333333333333336
300.0   60.0   16.666666666666668
300.0   90.0   16.666666666666668
250.0   90.0   16.666666666666668
300.0   90.0   33.333333333333336
250.0   60.0   33.333333333333336
250.0   90.0   33.333333333333336
300.0   90.0   33.333333333333336
250.0   90.0   16.666666666666668
250.0   60.0   33.333333333333336
300.0   90.0   33.333333333333336
300.0   60.0   33.333333333333336
300.0   60.0   16.666666666666668
250.0   60.0   33.333333333333336
300.0   90.0   33.333333333333336
300.0   60.0   16.666666666666668
250.0   90.0   16.666666666666668
250.0   60.0   33.333333333333336
300.0   60.0   33.333333333333336
250.0   90.0   33.333333333333336
250.0   60.0   50.0
300.0   60.0   33.333333333333336
300.0   90.0   33.333333333333336
250.0   90.0   33.333333333333336
300.0   90.0   50.0
250.0   60.0   50.0
250.0   90.0   50.0
300.0   90.0   50.0
250.0   90.0   33.333333333333336
250.0   60.0   50.0
300.0   90.0   50.0
300.0   60.0   50.0
300.0   60.0   33.333333333333336
250.0   60.0   50.0
300.0   90.0   50.0
300.0   60.0   33.333333333333336
250.0   90.0   33.333333333333336
250.0   90.0   0.0
300.0   90.0   0.0
250.0   120.0   0.0
250.0   90.0   16.666666666666668
300.0   90.0   0.0
300.0   120.0   0.0
250.0   120.0   0.0
300.0   120.0   16.666666666666668
250.0   90.0   16.666666666666668
250.0   120.0   16.666666666666668
300.0   120.0   16.666666666666668
250.0   120.0   0.0
250.0   90.0   16.666666666666668
300.0   120.0   16.666666666666668
300.0   90.0   16.666666666666668
300.0   90.0   0.0
250.0   90.0   16.666666666666668
300.0   120.0   16.666666666666668
300.0   90.0   0.0
250.0   120.0   0.0
250.0   90.0   16.666666666666668
300.0   90.0   16.666666666666668
250.0   120.0   16.666666666666668
250.0   90.0   33.333333333333336
300.0   90.0   16.666666666666668
300.0   120.0   16.666666666666668
250.0   120.0   16.666666666666668
300.0   120.0   33.333333333333336
250.0   90.0   33.333333333333336
250.0   120.0   33.333333333333336
300.0   120.0   33.333333333333336
250.0   120.0   16.666666666666668
250.0   90.0   33.333333333333336
300.0   120.0   33.333333333333336
300.0   90.0   33.333333333333336
300.0   90.0   16.666666666666668
250.0   90.0   33.333333333333336
300.0   120.0   33.333333333333336
300.0   90.0   16.666666666666668
250.0   120.0   16.666666666666668
250.0   90.0   33.333333333333336
300.0   90.0   33.333333333333336
250.0   120.0   33.333333333333336
250.0   90.0   50.0
300.0   90.0   33.333333333333336
300.0   120.0   33.333333333333336
250.0   120.0   33.333333333333336
300.0   120.0   50.0
250.0   90.0   50.0
250.0   120.0   50.0
300.0   120.0   50.0
250.0   120.0   33.333333333333336
250.0   90.0   50.0
300.0   120.0   50.0
300.0   90.0   50.0
300.0   90.0   33.333333333333336
250.0   90.0   50.0
300.0   120.0   50.0
300.0   90.0   33.333333333333336
250.0   120.0   33.333333333333336
250.0   120.0   0.0
300.0   120.0   0.0
250.0   150.0   0.0
250.0   120.0   16.666666666666668
300.0   120.0   0.0
300.0   150.0   0.0
250.0   150.0   0.0
300.0   150.0   16.666666666666668
250.0   120.0   16.666666666666668
250.0   150.0   16.666666666666668
300.0   150.0   16.666666666666668
250.0   150.0   0.0
250.0   120.0   16.666666666666668
300.0   150.0   16.666666666666668
300.0   120.0   16.666666666666668
300.0   120.0   0.0
250.0   120.0   16.666666666666668
300.0   150.0   16.666666666666668
300.0   120.0   0.0
250.0   150.0   0.0
250.0   120.0   16.666666666666668
300.0   120.0   16.666666666666668
250.0   150.0   16.666666666666668
250.0   120.0   33.333333333333336
300.0   120.0   16.666666666666668
300.0   150.0   16.666666666666668
250.0   150.0   16.666666666666668
300.0   150.0   33.333333333333336
250.0   120.0   33.333333333333336
250.0   150.0   33.333333333333336
300.0   150.0   33.333333333333336
250.0   150.0   16.666666666666668
250.0   120.0   33.333333333333336
300.0   150.0   33.333333333333336
300.0   120.0   33.333333333333336
300.0   120.0   16.666666666666668
250.0   120.0   33.333333333333336
300.0   150.0   33.333333333333336
300.0   120.0   16.666666666666668
250.0   150.0   16.666666666666668
250.0   120.0   33.333333333333336
300.0   120.0   33.333333333333336
250.0   150.0   33.333333333333336
250.0   120.0   50.0
300.0   120.0   33.333333333333336
300.0   150.0   33.333333333333336
250.0   150.0   33.333333333333336
300.0   150.0   50.0
250.0   120.0   50.0
250.0   150.0   50.0
300.0   150.0   50.0
250.0   150.0   33.333333333333336
250.0   120.0   50.0
300.0   150.0   50.0
300.0   120.0   50.0
300.0   120.0   33.333333333333336
250.0   120.0   50.0
300.0   150.0   50.0
300.0   120.0   33.333333333333336
250.0   150.0   33.333333333333336
300.0   0.0   0.0
350.0   0.0   0.0
300.0   30.0   0.0
300.0   0.0   16.666666666666668
350.0   0.0   0.0
350.0   30.0   0.0
300.0   30.0   0.0
350.0   30.0   16.666666666666668
300.0   0.0   16.666666666666668
300.0   30.0   16.666666666666668
350.0   30.0   16.666666666666668
300.0   30.0   0.0
300.0   0.0   16.666666666666668
350.0   30.0   16.666666666666668
350.0   0.0   16.666666666666668
350.0   0.0   0.0
300.0   0.0   16.666666666666668
350.0   30.0   16.666666666666668
350.0   0.0   0.0
300.0   30.0   0.0
300.0   0.0   16.666666666666668
350.0   0.0   16.666666666666668
300.0   30.0   16.666666666666668
300.0   0.0   33.333333333333336
350.0   0.0   16.666666666666668
350.0   30.0   16.666666666666668
300.0   30.0   16.666666666666668
350.0   30.0   33.333333333333336
300.0   0.0   33.333333333333336
300.0   30.0   33.333333333333336
350.0   30.0   33.333333333333336
300.0   30.0   16.666666666666668
300.0   0.0   33.333333333333336
350.0   30.0   33.333333333333336
350.0   0.0   33.333333333333336
350.0   0.0   16.666666666666668
300.0   0.0   33.333333333333336
350.0   30.0   33.333333333333336
350.0   0.0   16.666666666666668
300.0   30.0   16.666666666666668
300.0   0.0   33.333333333333336
350.0   0.0   33.333333333333336
300.0   30.0   33.333333333333336
300.0   0.0   50.0
350.0   0.0   33.333333333333336
350.0   30.0   33.333333333333336
300.0   30.0   33.333333333333336
350.0   30.0   50.0
300.0   0.0   50.0
300.0   30.0   50.0
350.0   30.0   50.0
300.0   30.0   33.333333333333336
300.0   0.0   50.0
350.0   30.0   50.0
350.0   0.0   50.0
350.0   0.0   33.333333333333336
300.0   0.0   50.0
350.0   30.0   50.0
350.0   0.0   33.333333333333336
300.0   30.0   33.333333333333336
300.0   30.0   0.0
350.0   30.0   0.0
300.0   60.0   0.0
300.0   30.0   16.666666666666668
350.0   30.0   0.0
350.0   60.0   0.0
300.0   60.0   0.0
350.0   60.0   16.666666666666668
300.0   30.0   16.666666666666668
300.0   60.0   16.666666666666668
350.0   60.0   16.666666666666668
300.0   60.0   0.0
300.0   30.0   16.666666666666668
350.0   60.0   16.666666666666668
350.0   30.0   16.666666666666668
350.0   30.0   0.0
300.0   30.0   16.666666666666668
350.0   60.0   16.666666666666668
350.0   30.0   0.0
300.0   60.0   0.0
300.0   30.0   16.666666666666668
350.0   30.0   16.666666666666668
300.0   60.0   16.666666666666668
300.0   30.0   33.333333333333336
350.0   30.0   16.666666666666668
350.0   60.0   16.666666666666668
300.0   60.0   16.666666666666668
350.0   60.0   33.333333333333336
300.0   30.0   33.333333333333336
300.0   60.0   33.333333333333336
350.0   60.0   33.333333333333336
300.0   60.0   16.666666666666668
300.0   30.0   33.333333333333336
350.0   60.0   33.333333333333336
350.0   30.0   33.333333333333336
350.0   30.0   16.666666666666668
300.0   30.0   33.333333333333336
350.0   60.0   33.333333333333336
350.0   30.0   16.666666666666668
300.0   60.0   16.666666666666668
300.0   30.0   33.333333333333336
350.0   30.0   33.333333333333336
300.0   60.0   33.333333333333336
300.0   30.0   50.0
350.0   30.0   33.333333333333336
350.0   60.0   33.333333333333336
300.0   60.0   33.333333333333336
350.0   60.0   50.0
300.0   30.0   50.0
300.0   60.0   50.0
350.0   60.0   50.0
300.0   60.0   33.333333333333336
300.0   30.0   50.0
350.0   60.0   50.0
350.0   30.0   50.0
350.0   30.0   33.333333333333336
300.0   30.0   50.0
350.0   60.0   50.0
350.0   30.0   33.333333333333336
300.0   60.0   33.333333333333336
300.0   60.0   0.0
350.0   60.0   0.0
300.0   90.0   0.0
300.0   60.0   16.666666666666668
350.0   60.0   0.0
350.0   90.0   0.0
300.0   90.0   0.0
350.0   90.0   16.666666666666668
300.0   60.0   16.666666666666668
300.0   90.0   16.666666666666668
350.0   90.0   16.666666666666668
300.0   90.0   0.0
300.0   60.0   16.666666666666668
350.0   90.0   16.666666666666668
350.0   60.0   16.666666666666668
350.0   60.0   0.0
300.0   60.0   16.666666666666668
350.0   90.0   16.666666666666668
350.0   60.0   0.0
300.0   90.0   0.0
300.0   60.0   16.666666666666668
350.0   60.0   16.666666666666668
300.0   90.0   16.666666666666668
300.0   60.0   33.333333333333336
350.0   60.0   16.666666666666668
350.0   90.0   16.666666666666668
300.0   90.0   16.666666666666668
350.0   90.0   33.333333333333336
300.0   60.0   33.333333333333336
300.0   90.0   33.333333333333336
350.0   90.0   33.333333333333336
300.0   90.0   16.666666666666668
300.0   60.0   33.333333333333336
350.0   90.0   33.333333333333336
350.0   60.0   33.333333333333336
350.0   60.0   16.666666666666668
300.0   60.0   33.333333333333336
350.0   90.0   33.333333333333336
350.0   60.0   16.666666666666668
300.0   90.0   16.666666666666668
300.0   60.0   33.333333333333336
350.0   60.0   33.333333333333336
300.0   90.0   33.333333333333336
300.0   60.0   50.0
350.0   60.0   33.333333333333336
350.0   90.0   33.333333333333336
300.0   90.0   33.333333333333336
350.0   90.0   50.0
300.0   60.0   50.0
300.0   90.0   50.0
350.0   90.0   50.0
300.0   90.0   33.333333333333336
300.0   60.0   50.0
350.0   90.0   50.0
350.0   60.0   50.0
350.0   60.0   33.333333333333336
300.0   60.0   50.0
350.0   90.0   50.0
350.0   60.0   33.333333333333336
300.0   90.0   33.333333333333336
300.0   90.0   0.0
350.0   90.0   0.0
300.0   120.0   0.0
300.0   90.0   16.666666666666668
350.0   90.0   0.0
350.0   120.0   0.0
300.0   120.0   0.0
350.0   120.0   16.666666666666668
300.0   90.0   16.666666666666668
300.0   120.0   16.666666666666668
350.0   120.0   16.666666666666668
300.0   120.0   0.0
300.0   90.0   16.666666666666668
350.0   120.0   16.666666666666668
350.0   90.0   16.666666666666668
350.0   90.0   0.0
300.0   90.0   16.666666666666668
350.0   120.0   16.666666666666668
350.0   90.0   0.0
300.0   120.0   0.0
300.0   90.0   16.666666666666668
350.0   90.0   16.666666666666668
300.0   120.0   16.666666666666668
300.0   90.0   33.333333333333336
350.0   90.0   16.666666666666668
350.0   120.0   16.666666666666668
300.0   120.0   16.666666666666668
350.0   120.0   33.333333333333336
300.0   90.0   33.333333333333336
300.0   120.0   33.333333333333336
350.0   120.0   33.333333333333336
300.0   120.0   16.666666666666668
300.0   90.0   33.333333333333336
350.0   120.0   33.333333333333336
350.0   90.0   33.333333333333336
350.0   90.0   16.666666666666668
300.0   90.0   33.333333333333336
350.0   120.0   33.333333333333336
350.0   90.0   16.666666666666668
300.0   120.0   16.666666666666668
300.0   90.0   33.333333333333336
350.0   90.0   33.333333333333336
300.0   120.0   33.333333333333336
300.0   90.0   50.0
350.0   90.0   33.333333333333336
350.0   120.0   33.333333333333336
300.0   120.0   33.333333333333336
350.0   120.0   50.0
300.0   90.0   50.0
300.0   120.0   50.0
350.0   120.0   50.0
300.0   120.0   33.333333333333336
300.0   90.0   50.0
350.0   120.0   50.0
350.0   90.0   50.0
350.0   90.0   33.333333333333336
300.0   90.0   50.0
350.0   120.0   50.0
350.0   90.0   33.333333333333336
300.0   120.0   33.333333333333336
300.0   120.0   0.0
350.0   120.0   0.0
300.0   150.0   0.0
300.0   120.0   16.666666666666668
350.0   120.0   0.0
350.0   150.0   0.0
300.0   150.0   0.0
350.0   150.0   16.666666666666668
300.0   120.0   16.666666666666668
300.0   150.0   16.666666666666668
350.0   150.0   16.666666666666668
300.0   150.0   0.0
300.0   120.0   16.666666666666668
350.0   150.0   16.666666666666668
350.0   120.0   16.666666666666668
350.0   120.0   0.0
300.0   120.0   16.666666666666668
350.0   150.0   16.666666666666668
350.0   120.0   0.0
300.0   150.0   0.0
300.0   120.0   16.666666666666668
350.0   120.0   16.666666666666668
300.0   150.0   16.666666666666668
300.0   120.0   33.333333333333336
350.0   120.0   16.666666666666668
350.0   150.0   16.666666666666668
300.0   150.0   16.666666666666668
350.0   150.0   33.333333333333336
300.0   120.0   33.333333333333336
300.0   150.0   33.333333333333336
350.0   150.0   33.333333333333336
300.0   150.0   16.666666666666668
300.0   120.0   33.333333333333336
350.0   150.0   33.333333333333336
350.0   120.0   33.333333333333336
350.0   120.0   16.666666666666668
300.0   120.0   33.333333333333336
350.0   150.0   33.333333333333336
350.0   120.0   16.666666666666668
300.0   150.0   16.666666666666668
300.0   120.0   33.333333333333336
350.0   120.0   33.333333333333336
300.0   150.0   33.333333333333336
300.0   120.0   50.0
350.0   120.0   33.333333333333336
350.0   150.0   33.333333333333336
300.0   150.0   33.333333333333336
350.0   150.0   50.0
300.0   120.0   50.0
300.0   150.0   50.0
350.0   150.0   50.0
300.0   150.0   33.333333333333336
300.0   120.0   50.0
350.0   150.0   50.0
350.0   120.0   50.0
350.0   120.0   33.333333333333336
300.0   120.0   50.0
350.0   150.0   50.0
350.0   120.0   33.333333333333336
300.0   150.0   33.333333333333336
350.0   0.0   0.0
400.0   0.0   0.0
350.0   30.0   0.0
350.0   0.0   16.666666666666668
400.0   0.0   0.0
400.0   30.0   0.0
350.0   30.0   0.0
400.0   30.0   16.666666666666668
350.0   0.0   16.666666666666668
350.0   30.0   16.666666666666668
400.0   30.0   16.666666666666668
350.0   30.0   0.0
350.0   0.0   16.666666666666668
400.0   30.0   16.666666666666668
400.0   0.0   16.666666666666668
400.0   0.0   0.0
350.0   0.0   16.666666666666668
400.0   30.0   16.666666666666668
400.0   0.0   0.0
350.0   30.0   0.0
350.0   0.0   16.666666666666668
400.0   0.0   16.666666666666668
350.0   30.0   16.666666666666668
350.0   0.0   33.333333333333336
400.0   0.0   16.666666666666668
400.0   30.0   16.666666666666668
350.0   30.0   16.666666666666668
400.0   30.0   33.333333333333336
350.0   0.0   33.333333333333336
350.0   30.0   33.333333333333336
400.0   30.0   33.333333333333336
350.0   30.0   16.666666666666668
350.0   0.0   33.333333333333336
400.0   30.0   33.333333333333336
400.0   0.0   33.333333333333336
400.0   0.0   16.666666666666668
350.0   0.0   33.333333333333336
400.0   30.0   33.333333333333336
400.0   0.0   16.666666666666668
350.0   30.0   16.666666666666668
350.0   0.0   33.333333333333336
400.0   0.0   33.333333333333336
350.0   30.0   33.333333333333336
350.0   0.0   50.0
400.0   0.0   33.333333333333336
400.0   30.0   33.333333333333336
350.0   30.0   33.333333333333336
400.0   30.0   50.0
350.0   0.0   50.0
350.0   30.0   50.0
400.0   30.0   50.0
350.0   30.0   33.333333333333336
350.0   0.0   50.0
400.0   30.0   50.0
400.0   0.0   50.0
400.0   0.0   33.333333333333336
350.0   0.0   50.0
400.0   30.0   50.0
400.0   0.0   33.333333333333336
350.0   30.0   33.333333333333336
350.0   30.0   0.0
400.0   30.0   0.0
350.0   60.0   0.0
350.0   30.0   16.666666666666668
400.0   30.0   0.0
400.0   60.0   0.0
350.0   60.0   0.0
400.0   60.0   16.666666666666668
350.0   30.0   16.666666666666668
350.0   60.0   16.666666666666668
400.0   60.0   16.666666666666668
350.0   60.0   0.0
350.0   30.0   16.666666666666668
400.0   60.0   16.666666666666668
400.0   30.0   16.666666666666668
400.0   30.0   0.0
350.0   30.0   16.666666666666668
400.0   60.0   16.666666666666668
400.0   30.0   0.0
350.0   60.0   0.0
350.0   30.0   16.666666666666668
400.0   30.0   16.666666666666668
350.0   60.0   16.666666666666668
350.0   30.0   33.333333333333336
400.0   30.0   16.666666666666668
400.0   60.0   16.666666666666668
350.0   60.0   16.666666666666668
400.0   60.0   33.333333333333336
350.0   30.0   33.333333333333336
350.0   60.0   33.333333333333336
400.0   60.0   33.333333333333336
350.0   60.0   16.666666666666668
350.0   30.0   33.333333333333336
400.0   60.0   33.333333333333336
400.0   30.0   33.333333333333336
400.0   30.0   16.666666666666668
350.0   30.0   33.333333333333336
400.0   60.0   33.333333333333336
400.0   30.0   16.666666666666668
350.0   60.0   16.666666666666668
350.0   30.0   33.333333333333336
400.0   30.0   33.333333333333336
350.0   60.0   33.333333333333336
350.0   30.0   50.0
400.0   30.0   33.333333333333336
400.0   60.0   33.333333333333336
350.0   60.0   33.333333333333336
400.0   60.0   50.0
350.0   30.0   50.0
350.0   60.0   50.0
400.0   60.0   50.0
350.0   60.0   33.333333333333336
350.0   30.0   50.0
400.0   60.0   50.0
400.0   30.0   50.0
400.0   30.0   33.333333333333336
350.0   30.0   50.0
400.0   60.0   50.0
400.0   30.0   33.333333333333336
350.0   60.0   33.333333333333336
350.0   60.0   0.0
400.0   60.0   0.0
350.0   90.0   0.0
350.0   60.0   16.666666666666668
400.0   60.0   0.0
400.0   90.0   0.0
350.0   90.0   0.0
400.0   90.0   16.666666666666668
350.0   60.0   16.666666666666668
350.0   90.0   16.666666666666668
400.0   90.0   16.666666666666668
350.0   90.0   0.0
350.0   60.0   16.666666666666668
400.0   90.0   16.666666666666668
400.0   60.0   16.666666666666668
400.0   60.0   0.0
350.0   60.0   16.666666666666668
400.0   90.0   16.666666666666668
400.0   60.0   0.0
350.0   90.0   0.0
350.0   60.0   16.666666666666668
400.0   60.0   16.666666666666668
350.0   90.0   16.666666666666668
350.0   60.0   33.333333333333336
400.0   60.0   16.666666666666668
400.0   90.0   16.666666666666668
350.0   90.0   16.666666666666668
400.0   90.0   33.333333333333336
350.0   60.0   33.333333333333336
350.0   90.0   33.333333333333336
400.0   90.0   33.333333333333336
350.0   90.0   16.666666666666668
350.0   60.0   33.333333333333336
400.0   90.0   33.333333333333336
400.0   60.0   33.333333333333336
400.0   60.0   16.666666666666668
350.0   60.0   33.333333333333336
400.0   90.0   33.333333333333336
400.0   60.0   16.666666666666668
350.0   90.0   16.666666666666668
350.0   60.0   33.333333333333336
400.0   60.0   33.333333333333336
350.0   90.0   33.333333333333336
350.0   60.0   50.0
400.0   60.0   33.333333333333336
400.0   90.0   33.333333333333336
350.0   90.0   33.333333333333336
400.0   90.0   50.0
350.0   60.0   50.0
350.0   90.0   50.0
400.0   90.0   50.0
350.0   90.0   33.333333333333336
350.0   60.0   50.0
400.0   90.0   50.0
400.0   60.0   50.0
400.0   60.0   33.333333333333336
350.0   60.0   50.0
400.0   90.0   50.0
400.0   60.0   33.333333333333336
350.0   90.0   33.333333333333336
350.0   90.0   0.0
400.0   90.0   0.0
350.0   120.0   0.0
350.0   90.0   16.666666666666668
400.0   90.0   0.0
400.0   120.0   0.0
350.0   120.0   0.0
400.0   120.0   16.666666666666668
350.0   90.0   16.666666666666668
350.0   120.0   16.666666666666668
400.0   120.0   16.666666666666668
350.0   120.0   0.0
350.0   90.0   16.666666666666668
400.0   120.0   16.666666666666668
400.0   90.0   16.666666666666668
400.0   90.0   0.0
350.0   90.0   16.666666666666668
400.0   120.0   16.666666666666668
400.0   90.0   0.0
350.0   120.0   0.0
350.0   90.0   16.666666666666668
400.0   90.0   16.666666666666668
350.0   120.0   16.666666666666668
350.0   90.0   33.333333333333336
400.0   90.0   16.666666666666668
400.0   120.0   16.666666666666668
350.0   120.0   16.666666666666668
400.0   120.0   33.333333333333336
350.0   90.0   33.333333333333336
350.0   120.0   33.333333333333336
400.0   120.0   33.333333333333336
350.0   120.0   16.666666666666668
350.0   90.0   33.333333333333336
400.0   120.0   33.333333333333336
400.0   90.0   33.333333333333336
400.0   90.0   16.666666666666668
350.0   90.0   33.333333333333336
400.0   120.0   33.333333333333336
400.0   90.0   16.666666666666668
350.0   120.0   16.666666666666668
350.0   90.0   33.333333333333336
400.0   90.0   33.333333333333336
350.0   120.0   33.333333333333336
350.0   90.0   50.0
400.0   90.0   33.333333333333336
400.0   120.0   33.333333333333336
350.0   120.0   33.333333333333336
400.0   120.0   50.0
350.0   90.0   50.0
350.0   120.0   50.0
400.0   120.0   50.0
350.0   120.0   33.333333333333336
350.0   90.0   50.0
400.0   120.0   50.0
400.0   90.0   50.0
400.0   90.0   33.333333333333336
350.0   90.0   50.0
400.0   120.0   50.0
400.0   90.0   33.333333333333336
350.0   120.0   33.333333333333336
350.0   120.0   0.0
400.0   120.0   0.0
350.0   150.0   0.0
350.0   120.0   16.666666666666668
400.0   120.0   0.0
400.0   150.0   0.0
350.0   150.0   0.0
400.0   150.0   16.666666666666668
350.0   120.0   16.666666666666668
350.0   150.0   16.666666666666668
400.0   150.0   16.666666666666668
350.0   150.0   0.0
350.0   120.0   16.666666666666668
400.0   150.0   16.666666666666668
400.0   120.0   16.666666666666668
400.0   120.0   0.0
350.0   120.0   16.666666666666668
400.0   150.0   16.666666666666668
400.0   120.0   0.0
350.0   150.0   0.0
350.0   120.0   16.666666666666668
400.0   120.0   16.666666666666668
350.0   150.0   16.666666666666668
350.0   120.0   33.333333333333336
400.0   120.0   16.666666666666668
400.0   150.0   16.666666666666668
350.0   150.0   16.666666666666668
400.0   150.0   33.333333333333336
350.0   120.0   33.333333333333336
350.0   150.0   33.333333333333336
400.0   150.0   33.333333333333336
350.0   150.0   16.666666666666668
350.0   120.0   33.333333333333336
400.0   150.0   33.333333333333336
400.0   120.0   33.333333333333336
400.0   120.0   16.666666666666668
350.0   120.0   33.333333333333336
400.0   150.0   33.333333333333336
400.0   120.0   16.666666666666668
350.0   150.0   16.666666666666668
350.0   120.0   33.333333333333336
400.0   120.0   33.333333333333336
350.0   150.0   33.333333333333336
350.0   120.0   50.0
400.0   120.0   33.333333333333336
400.0   150.0   33.333333333333336
350.0   150.0   33.333333333333336
400.0   150.0   50.0
350.0   120.0   50.0
350.0   150.0   50.0
400.0   150.0   50.0
350.0   150.0   33.333333333333336
350.0   120.0   50.0
400.0   150.0   50.0
400.0   120.0   50.0
400.0   120.0   33.333333333333336
350.0   120.0   50.0
400.0   150.0   50.0
400.0   120.0   33.333333333333336
350.0   150.0   33.333333333333336
400.0   0.0   0.0
450.0   0.0   0.0
400.0   30.0   0.0
400.0   0.0   16.666666666666668
450.0   0.0   0.0
450.0   30.0   0.0
400.0   30.0   0.0
450.0   30.0   16.666666666666668
400.0   0.0   16.666666666666668
400.0   30.0   16.666666666666668
450.0   30.0   16.666666666666668
400.0   30.0   0.0
400.0   0.0   16.666666666666668
450.0   30.0   16.666666666666668
450.0   0.0   16.666666666666668
450.0   0.0   0.0
400.0   0.0   16.666666666666668
450.0   30.0   16.666666666666668
450.0   0.0   0.0
400.0   30.0   0.0
400.0   0.0   16.666666666666668
450.0   0.0   16.666666666666668
400.0   30.0   16.666666666666668
400.0   0.0   33.333333333333336
450.0   0.0   16.666666666666668
450.0   30.0   16.666666666666668
400.0   30.0   16.666666666666668
450.0   30.0   33.333333333333336
400.0   0.0   33.333333333333336
400.0   30.0   33.333333333333336
450.0   30.0   33.333333333333336
400.0   30.0   16.666666666666668
400.0   0.0   33.333333333333336
450.0   30.0   33.333333333333336
450.0   0.0   33.333333333333336
450.0   0.0   16.666666666666668
400.0   0.0   33.333333333333336
450.0   30.0   33.333333333333336
450.0   0.0   16.666666666666668
400.0   30.0   16.666666666666668
400.0   0.0   33.333333333333336
450.0   0.0   33.333333333333336
400.0   30.0   33.333333333333336
400.0   0.0   50.0
450.0   0.0   33.333333333333336
450.0   30.0   33.333333333333336
400.0   30.0   33.333333333333336
450.0   30.0   50.0
400.0   0.0   50.0
400.0   30.0   50.0
450.0   30.0   50.0
400.0   30.0   33.333333333333336
400.0   0.0   50.0
450.0   30.0   50.0
450.0   0.0   50.0
450.0   0.0   33.333333333333336
400.0   0.0   50.0
450.0   30.0   50.0
450.0   0.0   33.333333333333336
400.0   30.0   33.333333333333336
400.0   30.0   0.0
450.0   30.0   0.0
400.0   60.0   0.0
400.0   30.0   16.666666666666668
450.0   30.0   0.0
450.0   60.0   0.0
400.0   60.0   0.0
450.0   60.0   16.666666666666668
400.0   30.0   16.666666666666668
400.0   60.0   16.666666666666668
450.0   60.0   16.666666666666668
400.0   60.0   0.0
400.0   30.0   16.666666666666668
450.0   60.0   16.666666666666668
450.0   30.0   16.666666666666668
450.0   30.0   0.0
400.0   30.0   16.666666666666668
450.0   60.0   16.666666666666668
450.0   30.0   0.0
400.0   60.0   0.0
400.0   30.0   16.666666666666668
450.0   30.0   16.666666666666668
400.0   60.0   16.666666666666668
400.0   30.0   33.333333333333336
450.0   30.0   16.666666666666668
450.0   60.0   16.666666666666668
400.0   60.0   16.666666666666668
450.0   60.0   33.333333333333336
400.0   30.0   33.333333333333336
400.0   60.0   33.333333333333336
450.0   60.0   33.333333333333336
400.0   60.0   16.666666666666668
400.0   30.0   33.333333333333336
450.0   60.0   33.333333333333336
450.0   30.0   33.333333333333336
450.0   30.0   16.666666666666668
400.0   30.0   33.333333333333336
450.0   60.0   33.333333333333336
450.0   30.0   16.666666666666668
400.0   60.0   16.666666666666668
400.0   30.0   33.333333333333336
450.0   30.0   33.333333333333336
400.0   60.0   33.333333333333336
400.0   30.0   50.0
450.0   30.0   33.333333333333336
450.0   60.0   33.333333333333336
400.0   60.0   33.333333333333336
450.0   60.0   50.0
400.0   30.0   50.0
400.0   60.0   50.0
450.0   60.0   50.0
400.0   60.0   33.333333333333336
400.0   30.0   50.0
450.0   60.0   50.0
450.0   30.0   50.0
450.0   30.0   33.333333333333336
400.0   30.0   50.0
450.0   60.0   50.0
450.0   30.0   33.333333333333336
400.0   60.0   33.333333333333336
400.0   60.0   0.0
450.0   60.0   0.0
400.0   90.0   0.0
400.0   60.0   16.666666666666668
450.0   60.0   0.0
450.0   90.0   0.0
400.0   90.0   0.0
450.0   90.0   16.666666666666668
400.0   60.0   16.666666666666668
400.0   90.0   16.666666666666668
450.0   90.0   16.666666666666668
400.0   90.0   0.0
400.0   60.0   16.666666666666668
450.0   90.0   16.666666666666668
450.0   60.0   16.666666666666668
450.0   60.0   0.0
400.0   60.0   16.666666666666668
450.0   90.0   16.666666666666668
450.0   60.0   0.0
400.0   90.0   0.0
400.0   60.0   16.666666666666668
450.0   60.0   16.666666666666668
400.0   90.0   16.666666666666668
400.0   60.0   33.333333333333336
450.0   60.0   16.666666666666668
450.0   90.0   16.666666666666668
400.0   90.0   16.666666666666668
450.0   90.0   33.333333333333336
400.0   60.0   33.333333333333336
400.0   90.0   33.333333333333336
450.0   90.0   33.333333333333336
400.0   90.0   16.666666666666668
400.0   60.0   33.333333333333336
450.0   90.0   33.333333333333336
450.0   60.0   33.333333333333336
450.0   60.0   16.666666666666668
400.0   60.0   33.333333333333336
450.0   90.0   33.333333333333336
450.0   60.0   16.666666666666668
400.0   90.0   16.666666666666668
400.0   60.0   33.333333333333336
450.0   60.0   33.333333333333336
400.0   90.0   33.333333333333336
400.0   60.0   50.0
450.0   60.0   33.333333333333336
450.0   90.0   33.333333333333336
400.0   90.0   33.333333333333336
450.0   90.0   50.0
400.0   60.0   50.0
400.0   90.0   50.0
450.0   90.0   50.0
400.0   90.0   33.333333333333336
400.0   60.0   50.0
450.0   90.0   50.0
450.0   60.0   50.0
450.0   60.0   33.333333333333336
400.0   60.0   50.0
450.0   90.0   50.0
450.0   60.0   33.333333333333336
400.0   90.0   33.333333333333336
400.0   90.0   0.0
450.0   90.0   0.0
400.0   120.0   0.0
400.0   90.0   16.666666666666668
450.0   90.0   0.0
450.0   120.0   0.0
400.0   120.0   0.0
450.0   120.0   16.666666666666668
400.0   90.0   16.666666666666668
400.0   120.0   16.666666666666668
450.0   120.0   16.666666666666668
400.0   120.0   0.0
400.0   90.0   16.666666666666668
450.0   120.0   16.666666666666668
450.0   90.0   16.666666666666668
450.0   90.0   0.0
400.0   90.0   16.666666666666668
450.0   120.0   16.666666666666668
450.0   90.0   0.0
400.0   120.0   0.0
400.0   90.0   16.666666666666668
450.0   90.0   16.666666666666668
400.0   120.0   16.666666666666668
400.0   90.0   33.333333333333336
450.0   90.0   16.666666666666668
450.0   120.0   16.666666666666668
400.0   120.0   16.666666666666668
450.0   120.0   33.333333333333336
400.0   90.0   33.333333333333336
400.0   120.0   33.333333333333336
450.0   120.0   33.333333333333336
400.0   120.0   16.666666666666668
400.0   90.0   33.333333333333336
450.0   120.0   33.333333333333336
450.0   90.0   33.333333333333336
450.0   90.0   16.666666666666668
400.0   90.0   33.333333333333336
450.0   120.0   33.333333333333336
450.0   90.0   16.666666666666668
400.0   120.0   16.666666666666668
400.0   90.0   33.333333333333336
450.0   90.0   33.333333333333336
400.0   120.0   33.333333333333336
400.0   90.0   50.0
450.0   90.0   33.333333333333336
450.0   120.0   33.333333333333336
400.0   120.0   33.333333333333336
450.0   120.0   50.0
400.0   90.0   50.0
400.0   120.0   50.0
450.0   120.0   50.0
400.0   120.0   33.333333333333336
400.0   90.0   50.0
450.0   120.0   50.0
450.0   90.0   50.0
450.0   90.0   33.333333333333336
400.0   90.0   50.0
450.0   120.0   50.0
450.0   90.0   33.333333333333336
400.0   120.0   33.333333333333336
400.0   120.0   0.0
450.0   120.0   0.0
400.0   150.0   0.0
400.0   120.0   16.666666666666668
450.0   120.0   0.0
450.0   150.0   0.0
400.0   150.0   0.0
450.0   150.0   16.666666666666668
400.0   120.0   16.666666666666668
400.0   150.0   16.666666666666668
450.0   150.0   16.666666666666668
400.0   150.0   0.0
400.0   120.0   16.666666666666668
450.0   150.0   16.666666666666668
450.0   120.0   16.666666666666668
450.0   120.0   0.0
400.0   120.0   16.666666666666668
450.0   150.0   16.666666666666668
450.0   120.0   0.0
400.0   150.0   0.0
400.0   120.0   16.666666666666668
450.0   120.0   16.666666666666668
400.0   150.0   16.666666666666668
400.0   120.0   33.333333333333336
450.0   120.0   16.666666666666668
450.0   150.0   16.666666666666668
400.0   150.0   16.666666666666668
450.0   150.0   33.333333333333336
400.0   120.0   33.333333333333336
400.0   150.0   33.333333333333336
450.0   150.0   33.333333333333336
400.0   150.0   16.666666666666668
400.0   120.0   33.333333333333336
450.0   150.0   33.333333333333336
450.0   120.0   33.333333333333336
450.0   120.0   16.666666666666668
400.0   120.0   33.333333333333336
450.0   150.0   33.333333333333336
450.0   120.0   16.666666666666668
400.0   150.0   16.666666666666668
400.0   120.0   33.333333333333336
450.0   120.0   33.333333333333336
400.0   150.0   33.333333333333336
400.0   120.0   50.0
450.0   120.0   33.333333333333336
450.0   150.0   33.333333333333336
400.0   150.0   33.333333333333336
450.0   150.0   50.0
400.0   120.0   50.0
400.0   150.0   50.0
450.0   150.0   50.0
400.0   150.0   33.333333333333336
400.0   120.0   50.0
450.0   150.0   50.0
450.0   120.0   50.0
450.0   120.0   33.333333333333336
400.0   120.0   50.0
450.0   150.0   50.0
450.0   120.0   33.333333333333336
400.0   150.0   33.333333333333336
450.0   0.0   0.0
500.0   0.0   0.0
450.0   30.0   0.0
450.0   0.0   16.666666666666668
500.0   0.0   0.0
500.0   30.0   0.0
450.0   30.0   0.0
500.0   30.0   16.666666666666668
450.0   0.0   16.666666666666668
450.0   30.0   16.666666666666668
500.0   30.0   16.666666666666668
450.0   30.0   0.0
450.0   0.0   16.666666666666668
500.0   30.0   16.666666666666668
500.0   0.0   16.666666666666668
500.0   0.0   0.0
450.0   0.0   16.666666666666668
500.0   30.0   16.666666666666668
500.0   0.0   0.0
450.0   30.0   0.0
450.0   0.0   16.666666666666668
500.0   0.0   16.666666666666668
450.0   30.0   16.666666666666668
450.0   0.0   33.333333333333336
500.0   0.0   16.666666666666668
500.0   30.0   16.666666666666668
450.0   30.0   16.666666666666668
500.0   30.0   33.333333333333336
450.0   0.0   33.333333333333336
450.0   30.0   33.333333333333336
500.0   30.0   33.333333333333336
450.0   30.0   16.666666666666668
450.0   0.0   33.333333333333336
500.0   30.0   33.333333333333336
500.0   0.0   33.333333333333336
500.0   0.0   16.666666666666668
450.0   0.0   33.333333333333336
500.0   30.0   33.333333333333336
500.0   0.0   16.666666666666668
450.0   30.0   16.666666666666668
450.0   0.0   33.333333333333336
500.0   0.0   33.333333333333336
450.0   30.0   33.333333333333336
450.0   0.0   50.0
500.0   0.0   33.333333333333336
500.0   30.0   33.333333333333336
450.0   30.0   33.333333333333336
500.0   30.0   50.0
450.0   0.0   50.0
450.0   30.0   50.0
500.0   30.0   50.0
450.0   30.0   33.333333333333336
450.0   0.0   50.0
500.0   30.0   50.0
500.0   0.0   50.0
500.0   0.0   33.333333333333336
450.0   0.0   50.0
500.0   30.0   50.0
500.0   0.0   33.333333333333336
450.0   30.0   33.333333333333336
450.0   30.0   0.0
500.0   30.0   0.0
450.0   60.0   0.0
450.0   30.0   16.666666666666668
500.0   30.0   0.0
500.0   60.0   0.0
450.0   60.0   0.0
500.0   60.0   16.666666666666668
450.0   30.0   16.666666666666668
450.0   60.0   16.666666666666668
500.0   60.0   16.666666666666668
450.0   60.0   0.0
450.0   30.0   16.666666666666668
500.0   60.0   16.666666666666668
500.0   30.0   16.666666666666668
500.0   30.0   0.0
450.0   30.0   16.666666666666668
500.0   60.0   16.666666666666668
500.0   30.0   0.0
450.0   60.0   0.0
450.0   30.0   16.666666666666668
500.0   30.0   16.666666666666668
450.0   60.0   16.666666666666668
450.0   30.0   33.333333333333336
500.0   30.0   16.666666666666668
500.0   60.0   16.666666666666668
450.0   60.0   16.666666666666668
500.0   60.0   33.333333333333336
450.0   30.0   33.333333333333336
450.0   60.0   33.333333333333336
500.0   60.0   33.333333333333336
450.0   60.0   16.666666666666668
450.0   30.0   33.333333333333336
500.0   60.0   33.333333333333336
500.0   30.0   33.333333333333336
500.0   30.0   16.666666666666668
450.0   30.0   33.333333333333336
500.0   60.0   33.333333333333336
500.0   30.0   16.666666666666668
450.0   60.0   16.666666666666668
450.0   30.0   33.333333333333336
500.0   30.0   33.333333333333336
450.0   60.0   33.333333333333336
450.0   30.0   50.0
500.0   30.0   33.333333333333336
500.0   60.0   33.333333333333336
450.0   60.0   33.333333333333336
500.0   60.0   50.0
450.0   30.0   50.0
450.0   60.0   50.0
500.0   60.0   50.0
450.0   60.0   33.333333333333336
450.0   30.0   50.0
500.0   60.0   50.0
500.0   30.0   50.0
500.0   30.0   33.333333333333336
450.0   30.0   50.0
500.0   60.0   50.0
500.0   30.0   33.333333333333336
450.0   60.0   33.333333333333336
450.0   60.0   0.0
500.0   60.0   0.0
450.0   90.0   0.0
450.0   60.0   16.666666666666668
500.0   60.0   0.0
500.0   90.0   0.0
450.0   90.0   0.0
500.0   90.0   16.666666666666668
450.0   60.0   16.666666666666668
450.0   90.0   16.666666666666668
500.0   90.0   16.666666666666668
450.0   90.0   0.0
450.0   60.0   16.666666666666668
500.0   90.0   16.666666666666668
500.0   60.0   16.666666666666668
500.0   60.0   0.0
450.0   60.0   16.666666666666668
500.0   90.0   16.666666666666668
500.0   60.0   0.0
450.0   90.0   0.0
450.0   60.0   16.666666666666668
500.0   60.0   16.666666666666668
450.0   90.0   16.666666666666668
450.0   60.0   33.333333333333336
500.0   60.0   16.666666666666668
500.0   90.0   16.666666666666668
450.0   90.0   16.666666666666668
500.0   90.0   33.333333333333336
450.0   60.0   33.333333333333336
450.0   90.0   33.333333333333336
500.0   90.0   33.333333333333336
450.0   90.0   16.666666666666668
450.0   60.0   33.333333333333336
500.0   90.0   33.333333333333336
500.0   60.0   33.333333333333336
500.0   60.0   16.666666666666668
450.0   60.0   33.333333333333336
500.0   90.0   33.333333333333336
500.0   60.0   16.666666666666668
450.0   90.0   16.666666666666668
450.0   60.0   33.333333333333336
500.0   60.0   33.333333333333336
450.0   90.0   33.333333333333336
450.0   60.0   50.0
500.0   60.0   33.333333333333336
500.0   90.0   33.333333333333336
450.0   90.0   33.333333333333336
500.0   90.0   50.0
450.0   60.0   50.0
450.0   90.0   50.0
500.0   90.0   50.0
450.0   90.0   33.333333333333336
450.0   60.0   50.0
500.0   90.0   50.0
500.0   60.0   50.0
500.0   60.0   33.333333333333336
450.0   60.0   50.0
500.0   90.0   50.0
500.0   60.0   33.333333333333336
450.0   90.0   33.333333333333336
450.0   90.0   0.0
500.0   90.0   0.0
450.0   120.0   0.0
450.0   90.0   16.666666666666668
500.0   90.0   0.0
500.0   120.0   0.0
450.0   120.0   0.0
500.0   120.0   16.666666666666668
450.0   90.0   16.666666666666668
450.0   120.0   16.666666666666668
500.0   120.0   16.666666666666668
450.0   120.0   0.0
450.0   90.0   16.666666666666668
500.0   120.0   16.666666666666668
500.0   90.0   16.666666666666668
500.0   90.0   0.0
450.0   90.0   16.666666666666668
500.0   120.0   16.666666666666668
500.0   90.0   0.0
450.0   120.0   0.0
450.0   90.0   16.666666666666668
500.0   90.0   16.666666666666668
450.0   120.0   16.666666666666668
450.0   90.0   33.333333333333336
500.0   90.0   16.666666666666668
500.0   120.0   16.666666666666668
450.0   120.0   16.666666666666668
500.0   120.0   33.333333333333336
450.0   90.0   33.333333333333336
450.0   120.0   33.333333333333336
500.0   120.0   33.333333333333336
450.0   120.0   16.666666666666668
450.0   90.0   33.333333333333336
500.0   120.0   33.333333333333336
500.0   90.0   33.333333333333336
500.0   90.0   16.666666666666668
450.0   90.0   33.333333333333336
500.0   120.0   33.333333333333336
500.0   90.0   16.666666666666668
450.0   120.0   16.666666666666668
450.0   90.0   33.333333333333336
500.0   90.0   33.333333333333336
450.0   120.0   33.333333333333336
450.0   90.0   50.0
500.0   90.0   33.333333333333336
500.0   120.0   33.333333333333336
450.0   120.0   33.333333333333336
500.0   120.0   50.0
450.0   90.0   50.0
450.0   120.0   50.0
500.0   120.0   50.0
450.0   120.0   33.333333333333336
450.0   90.0   50.0
500.0   120.0   50.0
500.0   90.0   50.0
500.0   90.0   33.333333333333336
450.0   90.0   50.0
500.0   120.0   50.0
500.0   90.0   33.333333333333336
450.0   120.0   33.333333333333336
450.0   120.0   0.0
500.0   120.0   0.0
450.0   150.0   0.0
450.0   120.0   16.666666666666668
500.0   120.0   0.0
500.0   150.0   0.0
450.0   150.0   0.0
500.0   150.0   16.666666666666668
450.0   120.0   16.666666666666668
450.0   150.0   16.666666666666668
500.0   150.0   16.666666666666668
450.0   150.0   0.0
450.0   120.0   16.666666666666668
500.0   150.0   16.666666666666668
500.0   120.0   16.666666666666668
500.0   120.0   0.0
450.0   120.0   16.666666666666668
500.0   150.0   16.666666666666668
500.0   120.0   0.0
450.0   150.0   0.0
450.0   120.0   16.666666666666668
500.0   120.0   16.666666666666668
450.0   150.0   16.666666666666668
450.0   120.0   33.333333333333336
500.0   120.0   16.666666666666668
500.0   150.0   16.666666666666668
450.0   150.0   16.666666666666668
500.0   150.0   33.333333333333336
450.0   120.0   33.333333333333336
450.0   150.0   33.333333333333336
500.0   150.0   33.333333333333336
450.0   150.0   16.666666666666668
450.0   120.0   33.333333333333336
500.0   150.0   33.333333333333336
500.0   120.0   33.333333333333336
500.0   120.0   16.666666666666668
450.0   120.0   33.333333333333336
500.0   150.0   33.333333333333336
500.0   120.0   16.666666666666668
450.0   150.0   16.666666666666668
450.0   120.0   33.333333333333336
500.0   120.0   33.333333333333336
450.0   150.0   33.333333333333336
450.0   120.0   50.0
500.0   120.0   33.333333333333336
500.0   150.0   33.333333333333336
450.0   150.0   33.333333333333336
500.0   150.0   50.0
450.0   120.0   50.0
450.0   150.0   50.0
500.0   150.0   50.0
450.0   150.0   33.333333333333336
450.0   120.0   50.0
500.0   150.0   50.0
500.0   120.0   50.0
500.0   120.0   33.333333333333336
450.0   120.0   50.0
500.0   150.0   50.0
500.0   120.0   33.333333333333336
450.0   150.0   33.333333333333336
             </DataArray>   
          </Points>  
          <Cells>  
             <DataArray type="Int32" Name="connectivity" format="ascii">   
0   1   2   3
4   5   6   7
8   9   10   11
12   13   14   15
16   17   18   19
20   21   22   23
24   25   26   27
28   29   30   31
32   33   34   35
36   37   38   39
40   41   42   43
44   45   46   47
48   49   50   51
52   53   54   55
56   57   58   59
60   61   62   63
64   65   66   67
68   69   70   71
72   73   74   75
76   77   78   79
80   81   82   83
84   85   86   87
88   89   90   91
92   93   94   95
96   97   98   99
100   101   102   103
104   105   106   107
108   109   110   111
112   113   114   115
116   117   118   119
120   121   122   123
124   125   126   127
128   129   130   131
132   133   134   135
136   137   138   139
140   141   142   143
144   145   146   147
148   149   150   151
152   153   154   155
156   157   158   159
160   161   162   163
164   165   166   167
168   169   170   171
172   173   174   175
176   177   178   179
180   181   182   183
184   185   186   187
188   189   190   191
192   193   194   195
196   197   198   199
200   201   202   203
204   205   206   207
208   209   210   211
212   213   214   215
216   217   218   219
220   221   222   223
224   225   226   227
228   229   230   231
232   233   234   235
236   237   238   239
240   241   242   243
244   245   246   247
248   249   250   251
252   253   254   255
256   257   258   259
260   261   262   263
264   265   266   267
268   269   270   271
272   273   274   275
276   277   278   279
280   281   282   283
284   285   286   287
288   289   290   291
292   293   294   295
296   297   298   299
300   301   302   303
304   305   306   307
308   309   310   311
312   313   314   315
316   317   318   319
320   321   322   323
324   325   326   327
328   329   330   331
332   333   334   335
336   337   338   339
340   341   342   343
344   345   346   347
348   349   350   351
352   353   354   355
356   357   358   359
360   361   362   363
364   365   366   367
368   369   370   371
372   373   374   375
376   377   378   379
380   381   382   383
384   385   386   387
388   389   390   391
392   393   394   395
396   397   398   399
400   401   402   403
404   405   406   407
408   409   410   411
412   413   414   415
416   417   418   419
420   421   422   423
424   425   426   427
428   429   430   431
432   433   434   435
436   437   438   439
440   441   442   443
444   445   446   447
448   449   450   451
452   453   454   455
456   457   458   459
460   461   462   463
464   465   466   467
468   469   470   471
472   473   474   475
476   477   478   479
480   481   482   483
484   485   486   487
488   489   490   491
492   493   494   495
496   497   498   499
500   501   502   503
504   505   506   507
508   509   510   511
512   513   514   515
516   517   518   519
520   521   522   523
524   525   526   527
528   529   530   531
532   533   534   535
536   537   538   539
540   541   542   543
544   545   546   547
548   549   550   551
552   553   554   555
556   557   558   559
560   561   562   563
564   565   566   567
568   569   570   571
572   573   574   575
576   577   578   579
580   581   582   583
584   585   586   587
588   589   590   591
592   593   594   595
596   597   598   599
600   601   602   603
604   605   606   607
608   609   610   611
612   613   614   615
616   617   618   619
620   621   622   623
624   625   626   627
628   629   630   631
632   633   634   635
636   637   638   639
640   641   642   643
644   645   646   647
648   649   650   651
652   653   654   655
656   657   658   659
660   661   662   663
664   665   666   667
668   669   670   671
672   673   674   675
676   677   678   679
680   681   682   683
684   685   686   687
688   689   690   691
692   693   694   695
696   697   698   699
700   701   702   703
704   705   706   707
708   709   710   711
712   713   714   715
716   717   718   719
720   721   722   723
724   725   726   727
728   729   730   731
732   733   734   735
736   737   738   739
740   741   742   743
744   745   746   747
748   749   750   751
752   753   754   755
756   757   758   759
760   761   762   763
764   765   766   767
768   769   770   771
772   773   774   775
776   777   778   779
780   781   782   783
784   785   786   787
788   789   790   791
792   793   794   795
796   797   798   799
800   801   802   803
804   805   806   807
808   809   810   811
812   813   814   815
816   817   818   819
820   821   822   823
824   825   826   827
828   829   830   831
832   833   834   835
836   837   838   839
840   841   842   843
844   845   846   847
848   849   850   851
852   853   854   855
856   857   858   859
860   861   862   863
864   865   866   867
868   869   870   871
872   873   874   875
876   877   878   879
880   881   882   883
884   885   886   887
888   889   890   891
892   893   894   895
896   897   898   899
900   901   902   903
904   905   906   907
908   909   910   911
912   913   914   915
916   917   918   919
920   921   922   923
924   925   926   927
928   929   930   931
932   933   934   935
936   937   938   939
940   941   942   943
944   945   946   947
948   949   950   951
952   953   954   955
956   957   958   959
960   961   962   963
964   965   966   967
968   969   970   971
972   973   974   975
976   977   978   979
980   981   982   983
984   985   986   987
988   989   990   991
992   993   994   995
996   997   998   999
1000   1001   1002   1003
1004   1005   1006   1007
1008   1009   1010   1011
1012   1013   1014   1015
1016   1017   1018   1019
1020   1021   1022   1023
1024   1025   1026   1027
1028   1029   1030   1031
1032   1033   1034   1035
1036   1037   1038   1039
1040   1041   1042   1043
1044   1045   1046   1047
1048   1049   1050   1051
1052   1053   1054   1055
1056   1057   1058   1059
1060   1061   1062   1063
1064   1065   1066   1067
1068   1069   1070   1071
1072   1073   1074   1075
1076   1077   1078   1079
1080   1081   1082   1083
1084   1085   1086   1087
1088   1089   1090   1091
1092   1093   1094   1095
1096   1097   1098   1099
1100   1101   1102   1103
1104   1105   1106   1107
1108   1109   1110   1111
1112   1113   1114   1115
1116   1117   1118   1119
1120   1121   1122   1123
1124   1125   1126   1127
1128   1129   1130   1131
1132   1133   1134   1135
1136   1137   1138   1139
1140   1141   1142   1143
1144   1145   1146   1147
1148   1149   1150   1151
1152   1153   1154   1155
1156   1157   1158   1159
1160   1161   1162   1163
1164   1165   1166   1167
1168   1169   1170   1171
1172   1173   1174   1175
1176   1177   1178   1179
1180   1181   1182   1183
1184   1185   1186   1187
1188   1189   1190   1191
1192   1193   1194   1195
1196   1197   1198   1199
1200   1201   1202   1203
1204   1205   1206   1207
1208   1209   1210   1211
1212   1213   1214   1215
1216   1217   1218   1219
1220   1221   1222   1223
1224   1225   1226   1227
1228   1229   1230   1231
1232   1233   1234   1235
1236   1237   1238   1239
1240   1241   1242   1243
1244   1245   1246   1247
1248   1249   1250   1251
1252   1253   1254   1255
1256   1257   1258   1259
1260   1261   1262   1263
1264   1265   1266   1267
1268   1269   1270   1271
1272   1273   1274   1275
1276   1277   1278   1279
1280   1281   1282   1283
1284   1285   1286   1287
1288   1289   1290   1291
1292   1293   1294   1295
1296   1297   1298   1299
1300   1301   1302   1303
1304   1305   1306   1307
1308   1309   1310   1311
1312   1313   1314   1315
1316   1317   1318   1319
1320   1321   1322   1323
1324   1325   1326   1327
1328   1329   1330   1331
1332   1333   1334   1335
1336   1337   1338   1339
1340   1341   1342   1343
1344   1345   1346   1347
1348   1349   1350   1351
1352   1353   1354   1355
1356   1357   1358   1359
1360   1361   1362   1363
1364   1365   1366   1367
1368   1369   1370   1371
1372   1373   1374   1375
1376   1377   1378   1379
1380   1381   1382   1383
1384   1385   1386   1387
1388   1389   1390   1391
1392   1393   1394   1395
1396   1397   1398   1399
1400   1401   1402   1403
1404   1405   1406   1407
1408   1409   1410   1411
1412   1413   1414   1415
1416   1417   1418   1419
1420   1421   1422   1423
1424   1425   1426   1427
1428   1429   1430   1431
1432   1433   1434   1435
1436   1437   1438   1439
1440   1441   1442   1443
1444   1445   1446   1447
1448   1449   1450   1451
1452   1453   1454   1455
1456   1457   1458   1459
1460   1461   1462   1463
1464   1465   1466   1467
1468   1469   1470   1471
1472   1473   1474   1475
1476   1477   1478   1479
1480   1481   1482   1483
1484   1485   1486   1487
1488   1489   1490   1491
1492   1493   1494   1495
1496   1497   1498   1499
1500   1501   1502   1503
1504   1505   1506   1507
1508   1509   1510   1511
1512   1513   1514   1515
1516   1517   1518   1519
1520   1521   1522   1523
1524   1525   1526   1527
1528   1529   1530   1531
1532   1533   1534   1535
1536   1537   1538   1539
1540   1541   1542   1543
1544   1545   1546   1547
1548   1549   1550   1551
1552   1553   1554   1555
1556   1557   1558   1559
1560   1561   1562   1563
1564   1565   1566   1567
1568   1569   1570   1571
1572   1573   1574   1575
1576   1577   1578   1579
1580   1581   1582   1583
1584   1585   1586   1587
1588   1589   1590   1591
1592   1593   1594   1595
1596   1597   1598   1599
1600   1601   1602   1603
1604   1605   1606   1607
1608   1609   1610   1611
1612   1613   1614   1615
1616   1617   1618   1619
1620   1621   1622   1623
1624   1625   1626   1627
1628   1629   1630   1631
1632   1633   1634   1635
1636   1637   1638   1639
1640   1641   1642   1643
1644   1645   1646   1647
1648   1649   1650   1651
1652   1653   1654   1655
1656   1657   1658   1659
1660   1661   1662   1663
1664   1665   1666   1667
1668   1669   1670   1671
1672   1673   1674   1675
1676   1677   1678   1679
1680   1681   1682   1683
1684   1685   1686   1687
1688   1689   1690   1691
1692   1693   1694   1695
1696   1697   1698   1699
1700   1701   1702   1703
1704   1705   1706   1707
1708   1709   1710   1711
1712   1713   1714   1715
1716   1717   1718   1719
1720   1721   1722   1723
1724   1725   1726   1727
1728   1729   1730   1731
1732   1733   1734   1735
1736   1737   1738   1739
1740   1741   1742   1743
1744   1745   1746   1747
1748   1749   1750   1751
1752   1753   1754   1755
1756   1757   1758   1759
1760   1761   1762   1763
1764   1765   1766   1767
1768   1769   1770   1771
1772   1773   1774   1775
1776   1777   1778   1779
1780   1781   1782   1783
1784   1785   1786   1787
1788   1789   1790   1791
1792   1793   1794   1795
1796   1797   1798   1799
1800   1801   1802   1803
1804   1805   1806   1807
1808   1809   1810   1811
1812   1813   1814   1815
1816   1817   1818   1819
1820   1821   1822   1823
1824   1825   1826   1827
1828   1829   1830   1831
1832   1833   1834   1835
1836   1837   1838   1839
1840   1841   1842   1843
1844   1845   1846   1847
1848   1849   1850   1851
1852   1853   1854   1855
1856   1857   1858   1859
1860   1861   1862   1863
1864   1865   1866   1867
1868   1869   1870   1871
1872   1873   1874   1875
1876   1877   1878   1879
1880   1881   1882   1883
1884   1885   1886   1887
1888   1889   1890   1891
1892   1893   1894   1895
1896   1897   1898   1899
1900   1901   1902   1903
1904   1905   1906   1907
1908   1909   1910   1911
1912   1913   1914   1915
1916   1917   1918   1919
1920   1921   1922   1923
1924   1925   1926   1927
1928   1929   1930   1931
1932   1933   1934   1935
1936   1937   1938   1939
1940   1941   1942   1943
1944   1945   1946   1947
1948   1949   1950   1951
1952   1953   1954   1955
1956   1957   1958   1959
1960   1961   1962   1963
1964   1965   1966   1967
1968   1969   1970   1971
1972   1973   1974   1975
1976   1977   1978   1979
1980   1981   1982   1983
1984   1985   1986   1987
1988   1989   1990   1991
1992   1993   1994   1995
1996   1997   1998   1999
2000   2001   2002   2003
2004   2005   2006   2007
2008   2009   2010   2011
2012   2013   2014   2015
2016   2017   2018   2019
2020   2021   2022   2023
2024   2025   2026   2027
2028   2029   2030   2031
2032   2033   2034   2035
2036   2037   2038   2039
2040   2041   2042   2043
2044   2045   2046   2047
2048   2049   2050   2051
2052   2053   2054   2055
2056   2057   2058   2059
2060   2061   2062   2063
2064   2065   2066   2067
2068   2069   2070   2071
2072   2073   2074   2075
2076   2077   2078   2079
2080   2081   2082   2083
2084   2085   2086   2087
2088   2089   2090   2091
2092   2093   2094   2095
2096   2097   2098   2099
2100   2101   2102   2103
2104   2105   2106   2107
2108   2109   2110   2111
2112   2113   2114   2115
2116   2117   2118   2119
2120   2121   2122   2123
2124   2125   2126   2127
2128   2129   2130   2131
2132   2133   2134   2135
2136   2137   2138   2139
2140   2141   2142   2143
2144   2145   2146   2147
2148   2149   2150   2151
2152   2153   2154   2155
2156   2157   2158   2159
2160   2161   2162   2163
2164   2165   2166   2167
2168   2169   2170   2171
2172   2173   2174   2175
2176   2177   2178   2179
2180   2181   2182   2183
2184   2185   2186   2187
2188   2189   2190   2191
2192   2193   2194   2195
2196   2197   2198   2199
2200   2201   2202   2203
2204   2205   2206   2207
2208   2209   2210   2211
2212   2213   2214   2215
2216   2217   2218   2219
2220   2221   2222   2223
2224   2225   2226   2227
2228   2229   2230   2231
2232   2233   2234   2235
2236   2237   2238   2239
2240   2241   2242   2243
2244   2245   2246   2247
2248   2249   2250   2251
2252   2253   2254   2255
2256   2257   2258   2259
2260   2261   2262   2263
2264   2265   2266   2267
2268   2269   2270   2271
2272   2273   2274   2275
2276   2277   2278   2279
2280   2281   2282   2283
2284   2285   2286   2287
2288   2289   2290   2291
2292   2293   2294   2295
2296   2297   2298   2299
2300   2301   2302   2303
2304   2305   2306   2307
2308   2309   2310   2311
2312   2313   2314   2315
2316   2317   2318   2319
2320   2321   2322   2323
2324   2325   2326   2327
2328   2329   2330   2331
2332   2333   2334   2335
2336   2337   2338   2339
2340   2341   2342   2343
2344   2345   2346   2347
2348   2349   2350   2351
2352   2353   2354   2355
2356   2357   2358   2359
2360   2361   2362   2363
2364   2365   2366   2367
2368   2369   2370   2371
2372   2373   2374   2375
2376   2377   2378   2379
2380   2381   2382   2383
2384   2385   2386   2387
2388   2389   2390   2391
2392   2393   2394   2395
2396   2397   2398   2399
2400   2401   2402   2403
2404   2405   2406   2407
2408   2409   2410   2411
2412   2413   2414   2415
2416   2417   2418   2419
2420   2421   2422   2423
2424   2425   2426   2427
2428   2429   2430   2431
2432   2433   2434   2435
2436   2437   2438   2439
2440   2441   2442   2443
2444   2445   2446   2447
2448   2449   2450   2451
2452   2453   2454   2455
2456   2457   2458   2459
2460   2461   2462   2463
2464   2465   2466   2467
2468   2469   2470   2471
2472   2473   2474   2475
2476   2477   2478   2479
2480   2481   2482   2483
2484   2485   2486   2487
2488   2489   2490   2491
2492   2493   2494   2495
2496   2497   2498   2499
2500   2501   2502   2503
2504   2505   2506   2507
2508   2509   2510   2511
2512   2513   2514   2515
2516   2517   2518   2519
2520   2521   2522   2523
2524   2525   2526   2527
2528   2529   2530   2531
2532   2533   2534   2535
2536   2537   2538   2539
2540   2541   2542   2543
2544   2545   2546   2547
2548   2549   2550   2551
2552   2553   2554   2555
2556   2557   2558   2559
2560   2561   2562   2563
2564   2565   2566   2567
2568   2569   2570   2571
2572   2573   2574   2575
2576   2577   2578   2579
2580   2581   2582   2583
2584   2585   2586   2587
2588   2589   2590   2591
2592   2593   2594   2595
2596   2597   2598   2599
2600   2601   2602   2603
2604   2605   2606   2607
2608   2609   2610   2611
2612   2613   2614   2615
2616   2617   2618   2619
2620   2621   2622   2623
2624   2625   2626   2627
2628   2629   2630   2631
2632   2633   2634   2635
2636   2637   2638   2639
2640   2641   2642   2643
2644   2645   2646   2647
2648   2649   2650   2651
2652   2653   2654   2655
2656   2657   2658   2659
2660   2661   2662   2663
2664   2665   2666   2667
2668   2669   2670   2671
2672   2673   2674   2675
2676   2677   2678   2679
2680   2681   2682   2683
2684   2685   2686   2687
2688   2689   2690   2691
2692   2693   2694   2695
2696   2697   2698   2699
2700   2701   2702   2703
2704   2705   2706   2707
2708   2709   2710   2711
2712   2713   2714   2715
2716   2717   2718   2719
2720   2721   2722   2723
2724   2725   2726   2727
2728   2729   2730   2731
2732   2733   2734   2735
2736   2737   2738   2739
2740   2741   2742   2743
2744   2745   2746   2747
2748   2749   2750   2751
2752   2753   2754   2755
2756   2757   2758   2759
2760   2761   2762   2763
2764   2765   2766   2767
2768   2769   2770   2771
2772   2773   2774   2775
2776   2777   2778   2779
2780   2781   2782   2783
2784   2785   2786   2787
2788   2789   2790   2791
2792   2793   2794   2795
2796   2797   2798   2799
2800   2801   2802   2803
2804   2805   2806   2807
2808   2809   2810   2811
2812   2813   2814   2815
2816   2817   2818   2819
2820   2821   2822   2823
2824   2825   2826   2827
2828   2829   2830   2831
2832   2833   2834   2835
2836   2837   2838   2839
2840   2841   2842   2843
2844   2845   2846   2847
2848   2849   2850   2851
2852   2853   2854   2855
2856   2857   2858   2859
2860   2861   2862   2863
2864   2865   2866   2867
2868   2869   2870   2871
2872   2873   2874   2875
2876   2877   2878   2879
2880   2881   2882   2883
2884   2885   2886   2887
2888   2889   2890   2891
2892   2893   2894   2895
2896   2897   2898   2899
2900   2901   2902   2903
2904   2905   2906   2907
2908   2909   2910   2911
2912   2913   2914   2915
2916   2917   2918   2919
2920   2921   2922   2923
2924   2925   2926   2927
2928   2929   2930   2931
2932   2933   2934   2935
2936   2937   2938   2939
2940   2941   2942   2943
2944   2945   2946   2947
2948   2949   2950   2951
2952   2953   2954   2955
2956   2957   2958   2959
2960   2961   2962   2963
2964   2965   2966   2967
2968   2969   2970   2971
2972   2973   2974   2975
2976   2977   2978   2979
2980   2981   2982   2983
2984   2985   2986   2987
2988   2989   2990   2991
2992   2993   2994   2995
2996   2997   2998   2999
3000   3001   3002   3003
3004   3005   3006   3007
3008   3009   3010   3011
3012   3013   3014   3015
3016   3017   3018   3019
3020   3021   3022   3023
3024   3025   3026   3027
3028   3029   3030   3031
3032   3033   3034   3035
3036   3037   3038   3039
3040   3041   3042   3043
3044   3045   3046   3047
3048   3049   3050   3051
3052   3053   3054   3055
3056   3057   3058   3059
3060   3061   3062   3063
3064   3065   3066   3067
3068   3069   3070   3071
3072   3073   3074   3075
3076   3077   3078   3079
3080   3081   3082   3083
3084   3085   3086   3087
3088   3089   3090   3091
3092   3093   3094   3095
3096   3097   3098   3099
3100   3101   3102   3103
3104   3105   3106   3107
3108   3109   3110   3111
3112   3113   3114   3115
3116   3117   3118   3119
3120   3121   3122   3123
3124   3125   3126   3127
3128   3129   3130   3131
3132   3133   3134   3135
3136   3137   3138   3139
3140   3141   3142   3143
3144   3145   3146   3147
3148   3149   3150   3151
3152   3153   3154   3155
3156   3157   3158   3159
3160   3161   3162   3163
3164   3165   3166   3167
3168   3169   3170   3171
3172   3173   3174   3175
3176   3177   3178   3179
3180   3181   3182   3183
3184   3185   3186   3187
3188   3189   3190   3191
3192   3193   3194   3195
3196   3197   3198   3199
3200   3201   3202   3203
3204   3205   3206   3207
3208   3209   3210   3211
3212   3213   3214   3215
3216   3217   3218   3219
3220   3221   3222   3223
3224   3225   3226   3227
3228   3229   3230   3231
3232   3233   3234   3235
3236   3237   3238   3239
3240   3241   3242   3243
3244   3245   3246   3247
3248   3249   3250   3251
3252   3253   3254   3255
3256   3257   3258   3259
3260   3261   3262   3263
3264   3265   3266   3267
3268   3269   3270   3271
3272   3273   3274   3275
3276   3277   3278   3279
3280   3281   3282   3283
3284   3285   3286   3287
3288   3289   3290   3291
3292   3293   3294   3295
3296   3297   3298   3299
3300   3301   3302   3303
3304   3305   3306   3307
3308   3309   3310   3311
3312   3313   3314   3315
3316   3317   3318   3319
3320   3321   3322   3323
3324   3325   3326   3327
3328   3329   3330   3331
3332   3333   3334   3335
3336   3337   3338   3339
3340   3341   3342   3343
3344   3345   3346   3347
3348   3349   3350   3351
3352   3353   3354   3355
3356   3357   3358   3359
3360   3361   3362   3363
3364   3365   3366   3367
3368   3369   3370   3371
3372   3373   3374   3375
3376   3377   3378   3379
3380   3381   3382   3383
3384   3385   3386   3387
3388   3389   3390   3391
3392   3393   3394   3395
3396   3397   3398   3399
3400   3401   3402   3403
3404   3405   3406   3407
3408   3409   3410   3411
3412   3413   3414   3415
3416   3417   3418   3419
3420   3421   3422   3423
3424   3425   3426   3427
3428   3429   3430   3431
3432   3433   3434   3435
3436   3437   3438   3439
3440   3441   3442   3443
3444   3445   3446   3447
3448   3449   3450   3451
3452   3453   3454   3455
3456   3457   3458   3459
3460   3461   3462   3463
3464   3465   3466   3467
3468   3469   3470   3471
3472   3473   3474   3475
3476   3477   3478   3479
3480   3481   3482   3483
3484   3485   3486   3487
3488   3489   3490   3491
3492   3493   3494   3495
3496   3497   3498   3499
3500   3501   3502   3503
3504   3505   3506   3507
3508   3509   3510   3511
3512   3513   3514   3515
3516   3517   3518   3519
3520   3521   3522   3523
3524   3525   3526   3527
3528   3529   3530   3531
3532   3533   3534   3535
3536   3537   3538   3539
3540   3541   3542   3543
3544   3545   3546   3547
3548   3549   3550   3551
3552   3553   3554   3555
3556   3557   3558   3559
3560   3561   3562   3563
3564   3565   3566   3567
3568   3569   3570   3571
3572   3573   3574   3575
3576   3577   3578   3579
3580   3581   3582   3583
3584   3585   3586   3587
3588   3589   3590   3591
3592   3593   3594   3595
3596   3597   3598   3599
3600   3601   3602   3603
3604   3605   3606   3607
3608   3609   3610   3611
3612   3613   3614   3615
3616   3617   3618   3619
3620   3621   3622   3623
3624   3625   3626   3627
3628   3629   3630   3631
3632   3633   3634   3635
3636   3637   3638   3639
3640   3641   3642   3643
3644   3645   3646   3647
3648   3649   3650   3651
3652   3653   3654   3655
3656   3657   3658   3659
3660   3661   3662   3663
3664   3665   3666   3667
3668   3669   3670   3671
3672   3673   3674   3675
3676   3677   3678   3679
3680   3681   3682   3683
3684   3685   3686   3687
3688   3689   3690   3691
3692   3693   3694   3695
3696   3697   3698   3699
3700   3701   3702   3703
3704   3705   3706   3707
3708   3709   3710   3711
3712   3713   3714   3715
3716   3717   3718   3719
3720   3721   3722   3723
3724   3725   3726   3727
3728   3729   3730   3731
3732   3733   3734   3735
3736   3737   3738   3739
3740   3741   3742   3743
3744   3745   3746   3747
3748   3749   3750   3751
3752   3753   3754   3755
3756   3757   3758   3759
3760   3761   3762   3763
3764   3765   3766   3767
3768   3769   3770   3771
3772   3773   3774   3775
3776   3777   3778   3779
3780   3781   3782   3783
3784   3785   3786   3787
3788   3789   3790   3791
3792   3793   3794   3795
3796   3797   3798   3799
3800   3801   3802   3803
3804   3805   3806   3807
3808   3809   3810   3811
3812   3813   3814   3815
3816   3817   3818   3819
3820   3821   3822   3823
3824   3825   3826   3827
3828   3829   3830   3831
3832   3833   3834   3835
3836   3837   3838   3839
3840   3841   3842   3843
3844   3845   3846   3847
3848   3849   3850   3851
3852   3853   3854   3855
3856   3857   3858   3859
3860   3861   3862   3863
3864   3865   3866   3867
3868   3869   3870   3871
3872   3873   3874   3875
3876   3877   3878   3879
3880   3881   3882   3883
3884   3885   3886   3887
3888   3889   3890   3891
3892   3893   3894   3895
3896   3897   3898   3899
3900   3901   3902   3903
3904   3905   3906   3907
3908   3909   3910   3911
3912   3913   3914   3915
3916   3917   3918   3919
3920   3921   3922   3923
3924   3925   3926   3927
3928   3929   3930   3931
3932   3933   3934   3935
3936   3937   3938   3939
3940   3941   3942   3943
3944   3945   3946   3947
3948   3949   3950   3951
3952   3953   3954   3955
3956   3957   3958   3959
3960   3961   3962   3963
3964   3965   3966   3967
3968   3969   3970   3971
3972   3973   3974   3975
3976   3977   3978   3979
3980   3981   3982   3983
3984   3985   3986   3987
3988   3989   3990   3991
3992   3993   3994   3995
3996   3997   3998   3999
4000   4001   4002   4003
4004   4005   4006   4007
4008   4009   4010   4011
4012   4013   4014   4015
4016   4017   4018   4019
4020   4021   4022   4023
4024   4025   4026   4027
4028   4029   4030   4031
4032   4033   4034   4035
4036   4037   4038   4039
4040   4041   4042   4043
4044   4045   4046   4047
4048   4049   4050   4051
4052   4053   4054   4055
4056   4057   4058   4059
4060   4061   4062   4063
4064   4065   4066   4067
4068   4069   4070   4071
4072   4073   4074   4075
4076   4077   4078   4079
4080   4081   4082   4083
4084   4085   4086   4087
4088   4089   4090   4091
4092   4093   4094   4095
4096   4097   4098   4099
4100   4101   4102   4103
4104   4105   4106   4107
4108   4109   4110   4111
4112   4113   4114   4115
4116   4117   4118   4119
4120   4121   4122   4123
4124   4125   4126   4127
4128   4129   4130   4131
4132   4133   4134   4135
4136   4137   4138   4139
4140   4141   4142   4143
4144   4145   4146   4147
4148   4149   4150   4151
4152   4153   4154   4155
4156   4157   4158   4159
4160   4161   4162   4163
4164   4165   4166   4167
4168   4169   4170   4171
4172   4173   4174   4175
4176   4177   4178   4179
4180   4181   4182   4183
4184   4185   4186   4187
4188   4189   4190   4191
4192   4193   4194   4195
4196   4197   4198   4199
4200   4201   4202   4203
4204   4205   4206   4207
4208   4209   4210   4211
4212   4213   4214   4215
4216   4217   4218   4219
4220   4221   4222   4223
4224   4225   4226   4227
4228   4229   4230   4231
4232   4233   4234   4235
4236   4237   4238   4239
4240   4241   4242   4243
4244   4245   4246   4247
4248   4249   4250   4251
4252   4253   4254   4255
4256   4257   4258   4259
4260   4261   4262   4263
4264   4265   4266   4267
4268   4269   4270   4271
4272   4273   4274   4275
4276   4277   4278   4279
4280   4281   4282   4283
4284   4285   4286   4287
4288   4289   4290   4291
4292   4293   4294   4295
4296   4297   4298   4299
4300   4301   4302   4303
4304   4305   4306   4307
4308   4309   4310   4311
4312   4313   4314   4315
4316   4317   4318   4319
4320   4321   4322   4323
4324   4325   4326   4327
4328   4329   4330   4331
4332   4333   4334   4335
4336   4337   4338   4339
4340   4341   4342   4343
4344   4345   4346   4347
4348   4349   4350   4351
4352   4353   4354   4355
4356   4357   4358   4359
4360   4361   4362   4363
4364   4365   4366   4367
4368   4369   4370   4371
4372   4373   4374   4375
4376   4377   4378   4379
4380   4381   4382   4383
4384   4385   4386   4387
4388   4389   4390   4391
4392   4393   4394   4395
4396   4397   4398   4399
4400   4401   4402   4403
4404   4405   4406   4407
4408   4409   4410   4411
4412   4413   4414   4415
4416   4417   4418   4419
4420   4421   4422   4423
4424   4425   4426   4427
4428   4429   4430   4431
4432   4433   4434   4435
4436   4437   4438   4439
4440   4441   4442   4443
4444   4445   4446   4447
4448   4449   4450   4451
4452   4453   4454   4455
4456   4457   4458   4459
4460   4461   4462   4463
4464   4465   4466   4467
4468   4469   4470   4471
4472   4473   4474   4475
4476   4477   4478   4479
4480   4481   4482   4483
4484   4485   4486   4487
4488   4489   4490   4491
4492   4493   4494   4495
4496   4497   4498   4499
4500   4501   4502   4503
4504   4505   4506   4507
4508   4509   4510   4511
4512   4513   4514   4515
4516   4517   4518   4519
4520   4521   4522   4523
4524   4525   4526   4527
4528   4529   4530   4531
4532   4533   4534   4535
4536   4537   4538   4539
4540   4541   4542   4543
4544   4545   4546   4547
4548   4549   4550   4551
4552   4553   4554   4555
4556   4557   4558   4559
4560   4561   4562   4563
4564   4565   4566   4567
4568   4569   4570   4571
4572   4573   4574   4575
4576   4577   4578   4579
4580   4581   4582   4583
4584   4585   4586   4587
4588   4589   4590   4591
4592   4593   4594   4595
4596   4597   4598   4599
4600   4601   4602   4603
4604   4605   4606   4607
4608   4609   4610   4611
4612   4613   4614   4615
4616   4617   4618   4619
4620   4621   4622   4623
4624   4625   4626   4627
4628   4629   4630   4631
4632   4633   4634   4635
4636   4637   4638   4639
4640   4641   4642   4643
4644   4645   4646   4647
4648   4649   4650   4651
4652   4653   4654   4655
4656   4657   4658   4659
4660   4661   4662   4663
4664   4665   4666   4667
4668   4669   4670   4671
4672   4673   4674   4675
4676   4677   4678   4679
4680   4681   4682   4683
4684   4685   4686   4687
4688   4689   4690   4691
4692   4693   4694   4695
4696   4697   4698   4699
4700   4701   4702   4703
4704   4705   4706   4707
4708   4709   4710   4711
4712   4713   4714   4715
4716   4717   4718   4719
4720   4721   4722   4723
4724   4725   4726   4727
4728   4729   4730   4731
4732   4733   4734   4735
4736   4737   4738   4739
4740   4741   4742   4743
4744   4745   4746   4747
4748   4749   4750   4751
4752   4753   4754   4755
4756   4757   4758   4759
4760   4761   4762   4763
4764   4765   4766   4767
4768   4769   4770   4771
4772   4773   4774   4775
4776   4777   4778   4779
4780   4781   4782   4783
4784   4785   4786   4787
4788   4789   4790   4791
4792   4793   4794   4795
4796   4797   4798   4799
4800   4801   4802   4803
4804   4805   4806   4807
4808   4809   4810   4811
4812   4813   4814   4815
4816   4817   4818   4819
4820   4821   4822   4823
4824   4825   4826   4827
4828   4829   4830   4831
4832   4833   4834   4835
4836   4837   4838   4839
4840   4841   4842   4843
4844   4845   4846   4847
4848   4849   4850   4851
4852   4853   4854   4855
4856   4857   4858   4859
4860   4861   4862   4863
4864   4865   4866   4867
4868   4869   4870   4871
4872   4873   4874   4875
4876   4877   4878   4879
4880   4881   4882   4883
4884   4885   4886   4887
4888   4889   4890   4891
4892   4893   4894   4895
4896   4897   4898   4899
4900   4901   4902   4903
4904   4905   4906   4907
4908   4909   4910   4911
4912   4913   4914   4915
4916   4917   4918   4919
4920   4921   4922   4923
4924   4925   4926   4927
4928   4929   4930   4931
4932   4933   4934   4935
4936   4937   4938   4939
4940   4941   4942   4943
4944   4945   4946   4947
4948   4949   4950   4951
4952   4953   4954   4955
4956   4957   4958   4959
4960   4961   4962   4963
4964   4965   4966   4967
4968   4969   4970   4971
4972   4973   4974   4975
4976   4977   4978   4979
4980   4981   4982   4983
4984   4985   4986   4987
4988   4989   4990   4991
4992   4993   4994   4995
4996   4997   4998   4999
5000   5001   5002   5003
5004   5005   5006   5007
5008   5009   5010   5011
5012   5013   5014   5015
5016   5017   5018   5019
5020   5021   5022   5023
5024   5025   5026   5027
5028   5029   5030   5031
5032   5033   5034   5035
5036   5037   5038   5039
5040   5041   5042   5043
5044   5045   5046   5047
5048   5049   5050   5051
5052   5053   5054   5055
5056   5057   5058   5059
5060   5061   5062   5063
5064   5065   5066   5067
5068   5069   5070   5071
5072   5073   5074   5075
5076   5077   5078   5079
5080   5081   5082   5083
5084   5085   5086   5087
5088   5089   5090   5091
5092   5093   5094   5095
5096   5097   5098   5099
5100   5101   5102   5103
5104   5105   5106   5107
5108   5109   5110   5111
5112   5113   5114   5115
5116   5117   5118   5119
5120   5121   5122   5123
5124   5125   5126   5127
5128   5129   5130   5131
5132   5133   5134   5135
5136   5137   5138   5139
5140   5141   5142   5143
5144   5145   5146   5147
5148   5149   5150   5151
5152   5153   5154   5155
5156   5157   5158   5159
5160   5161   5162   5163
5164   5165   5166   5167
5168   5169   5170   5171
5172   5173   5174   5175
5176   5177   5178   5179
5180   5181   5182   5183
5184   5185   5186   5187
5188   5189   5190   5191
5192   5193   5194   5195
5196   5197   5198   5199
5200   5201   5202   5203
5204   5205   5206   5207
5208   5209   5210   5211
5212   5213   5214   5215
5216   5217   5218   5219
5220   5221   5222   5223
5224   5225   5226   5227
5228   5229   5230   5231
5232   5233   5234   5235
5236   5237   5238   5239
5240   5241   5242   5243
5244   5245   5246   5247
5248   5249   5250   5251
5252   5253   5254   5255
5256   5257   5258   5259
5260   5261   5262   5263
5264   5265   5266   5267
5268   5269   5270   5271
5272   5273   5274   5275
5276   5277   5278   5279
5280   5281   5282   5283
5284   5285   5286   5287
5288   5289   5290   5291
5292   5293   5294   5295
5296   5297   5298   5299
5300   5301   5302   5303
5304   5305   5306   5307
5308   5309   5310   5311
5312   5313   5314   5315
5316   5317   5318   5319
5320   5321   5322   5323
5324   5325   5326   5327
5328   5329   5330   5331
5332   5333   5334   5335
5336   5337   5338   5339
5340   5341   5342   5343
5344   5345   5346   5347
5348   5349   5350   5351
5352   5353   5354   5355
5356   5357   5358   5359
5360   5361   5362   5363
5364   5365   5366   5367
5368   5369   5370   5371
5372   5373   5374   5375
5376   5377   5378   5379
5380   5381   5382   5383
5384   5385   5386   5387
5388   5389   5390   5391
5392   5393   5394   5395
5396   5397   5398   5399
5400   5401   5402   5403
5404   5405   5406   5407
5408   5409   5410   5411
5412   5413   5414   5415
5416   5417   5418   5419
5420   5421   5422   5423
5424   5425   5426   5427
5428   5429   5430   5431
5432   5433   5434   5435
5436   5437   5438   5439
5440   5441   5442   5443
5444   5445   5446   5447
5448   5449   5450   5451
5452   5453   5454   5455
5456   5457   5458   5459
5460   5461   5462   5463
5464   5465   5466   5467
5468   5469   5470   5471
5472   5473   5474   5475
5476   5477   5478   5479
5480   5481   5482   5483
5484   5485   5486   5487
5488   5489   5490   5491
5492   5493   5494   5495
5496   5497   5498   5499
5500   5501   5502   5503
5504   5505   5506   5507
5508   5509   5510   5511
5512   5513   5514   5515
5516   5517   5518   5519
5520   5521   5522   5523
5524   5525   5526   5527
5528   5529   5530   5531
5532   5533   5534   5535
5536   5537   5538   5539
5540   5541   5542   5543
5544   5545   5546   5547
5548   5549   5550   5551
5552   5553   5554   5555
5556   5557   5558   5559
5560   5561   5562   5563
5564   5565   5566   5567
5568   5569   5570   5571
5572   5573   5574   5575
5576   5577   5578   5579
5580   5581   5582   5583
5584   5585   5586   5587
5588   5589   5590   5591
5592   5593   5594   5595
5596   5597   5598   5599
5600   5601   5602   5603
5604   5605   5606   5607
5608   5609   5610   5611
5612   5613   5614   5615
5616   5617   5618   5619
5620   5621   5622   5623
5624   5625   5626   5627
5628   5629   5630   5631
5632   5633   5634   5635
5636   5637   5638   5639
5640   5641   5642   5643
5644   5645   5646   5647
5648   5649   5650   5651
5652   5653   5654   5655
5656   5657   5658   5659
5660   5661   5662   5663
5664   5665   5666   5667
5668   5669   5670   5671
5672   5673   5674   5675
5676   5677   5678   5679
5680   5681   5682   5683
5684   5685   5686   5687
5688   5689   5690   5691
5692   5693   5694   5695
5696   5697   5698   5699
5700   5701   5702   5703
5704   5705   5706   5707
5708   5709   5710   5711
5712   5713   5714   5715
5716   5717   5718   5719
5720   5721   5722   5723
5724   5725   5726   5727
5728   5729   5730   5731
5732   5733   5734   5735
5736   5737   5738   5739
5740   5741   5742   5743
5744   5745   5746   5747
5748   5749   5750   5751
5752   5753   5754   5755
5756   5757   5758   5759
5760   5761   5762   5763
5764   5765   5766   5767
5768   5769   5770   5771
5772   5773   5774   5775
5776   5777   5778   5779
5780   5781   5782   5783
5784   5785   5786   5787
5788   5789   5790   5791
5792   5793   5794   5795
5796   5797   5798   5799
5800   5801   5802   5803
5804   5805   5806   5807
5808   5809   5810   5811
5812   5813   5814   5815
5816   5817   5818   5819
5820   5821   5822   5823
5824   5825   5826   5827
5828   5829   5830   5831
5832   5833   5834   5835
5836   5837   5838   5839
5840   5841   5842   5843
5844   5845   5846   5847
5848   5849   5850   5851
5852   5853   5854   5855
5856   5857   5858   5859
5860   5861   5862   5863
5864   5865   5866   5867
5868   5869   5870   5871
5872   5873   5874   5875
5876   5877   5878   5879
5880   5881   5882   5883
5884   5885   5886   5887
5888   5889   5890   5891
5892   5893   5894   5895
5896   5897   5898   5899
5900   5901   5902   5903
5904   5905   5906   5907
5908   5909   5910   5911
5912   5913   5914   5915
5916   5917   5918   5919
5920   5921   5922   5923
5924   5925   5926   5927
5928   5929   5930   5931
5932   5933   5934   5935
5936   5937   5938   5939
5940   5941   5942   5943
5944   5945   5946   5947
5948   5949   5950   5951
5952   5953   5954   5955
5956   5957   5958   5959
5960   5961   5962   5963
5964   5965   5966   5967
5968   5969   5970   5971
5972   5973   5974   5975
5976   5977   5978   5979
5980   5981   5982   5983
5984   5985   5986   5987
5988   5989   5990   5991
5992   5993   5994   5995
5996   5997   5998   5999
              </DataArray>   
              <DataArray type="Int32" Name="offsets" format="ascii">   
4
8
12
16
20
24
28
32
36
40
44
48
52
56
60
64
68
72
76
80
84
88
92
96
100
104
108
112
116
120
124
128
132
136
140
144
148
152
156
160
164
168
172
176
180
184
188
192
196
200
204
208
212
216
220
224
228
232
236
240
244
248
252
256
260
264
268
272
276
280
284
288
292
296
300
304
308
312
316
320
324
328
332
336
340
344
348
352
356
360
364
368
372
376
380
384
388
392
396
400
404
408
412
416
420
424
428
432
436
440
444
448
452
456
460
464
468
472
476
480
484
488
492
496
500
504
508
512
516
520
524
528
532
536
540
544
548
552
556
560
564
568
572
576
580
584
588
592
596
600
604
608
612
616
620
624
628
632
636
640
644
648
652
656
660
664
668
672
676
680
684
688
692
696
700
704
708
712
716
720
724
728
732
736
740
744
748
752
756
760
764
768
772
776
780
784
788
792
796
800
804
808
812
816
820
824
828
832
836
840
844
848
852
856
860
864
868
872
876
880
884
888
892
896
900
904
908
912
916
920
924
928
932
936
940
944
948
952
956
960
964
968
972
976
980
984
988
992
996
1000
1004
1008
1012
1016
1020
1024
1028
1032
1036
1040
1044
1048
1052
1056
1060
1064
1068
1072
1076
1080
1084
1088
1092
1096
1100
1104
1108
1112
1116
1120
1124
1128
1132
1136
1140
1144
1148
1152
1156
1160
1164
1168
1172
1176
1180
1184
1188
1192
1196
1200
1204
1208
1212
1216
1220
1224
1228
1232
1236
1240
1244
1248
1252
1256
1260
1264
1268
1272
1276
1280
1284
1288
1292
1296
1300
1304
1308
1312
1316
1320
1324
1328
1332
1336
1340
1344
1348
1352
1356
1360
1364
1368
1372
1376
1380
1384
1388
1392
1396
1400
1404
1408
1412
1416
1420
1424
1428
1432
1436
1440
1444
1448
1452
1456
1460
1464
1468
1472
1476
1480
1484
1488
1492
1496
1500
1504
1508
1512
1516
1520
1524
1528
1532
1536
1540
1544
1548
1552
1556
1560
1564
1568
1572
1576
1580
1584
1588
1592
1596
1600
1604
1608
1612
1616
1620
1624
1628
1632
1636
1640
1644
1648
1652
1656
1660
1664
1668
1672
1676
1680
1684
1688
1692
1696
1700
1704
1708
1712
1716
1720
1724
1728
1732
1736
1740
1744
1748
1752
1756
1760
1764
1768
1772
1776
1780
1784
1788
1792
1796
1800
1804
1808
1812
1816
1820
1824
1828
1832
1836
1840
1844
1848
1852
1856
1860
1864
1868
1872
1876
1880
1884
1888
1892
1896
1900
1904
1908
1912
1916
1920
1924
1928
1932
1936
1940
1944
1948
1952
1956
1960
1964
1968
1972
1976
1980
1984
1988
1992
1996
2000
2004
2008
2012
2016
2020
2024
2028
2032
2036
2040
2044
2048
2052
2056
2060
2064
2068
2072
2076
2080
2084
2088
2092
2096
2100
2104
2108
2112
2116
2120
2124
2128
2132
2136
2140
2144
2148
2152
2156
2160
2164
2168
2172
2176
2180
2184
2188
2192
2196
2200
2204
2208
2212
2216
2220
2224
2228
2232
2236
2240
2244
2248
2252
2256
2260
2264
2268
2272
2276
2280
2284
2288
2292
2296
2300
2304
2308
2312
2316
2320
2324
2328
2332
2336
2340
2344
2348
2352
2356
2360
2364
2368
2372
2376
2380
2384
2388
2392
2396
2400
2404
2408
2412
2416
2420
2424
2428
2432
2436
2440
2444
2448
2452
2456
2460
2464
2468
2472
2476
2480
2484
2488
2492
2496
2500
2504
2508
2512
2516
2520
2524
2528
2532
2536
2540
2544
2548
2552
2556
2560
2564
2568
2572
2576
2580
2584
2588
2592
2596
2600
2604
2608
2612
2616
2620
2624
2628
2632
2636
2640
2644
2648
2652
2656
2660
2664
2668
2672
2676
2680
2684
2688
2692
2696
2700
2704
2708
2712
2716
2720
2724
2728
2732
2736
2740
2744
2748
2752
2756
2760
2764
2768
2772
2776
2780
2784
2788
2792
2796
2800
2804
2808
2812
2816
2820
2824
2828
2832
2836
2840
2844
2848
2852
2856
2860
2864
2868
2872
2876
2880
2884
2888
2892
2896
2900
2904
2908
2912
2916
2920
2924
2928
2932
2936
2940
2944
2948
2952
2956
2960
2964
2968
2972
2976
2980
2984
2988
2992
2996
3000
3004
3008
3012
3016
3020
3024
3028
3032
3036
3040
3044
3048
3052
3056
3060
3064
3068
3072
3076
3080
3084
3088
3092
3096
3100
3104
3108
3112
3116
3120
3124
3128
3132
3136
3140
3144
3148
3152
3156
3160
3164
3168
3172
3176
3180
3184
3188
3192
3196
3200
3204
3208
3212
3216
3220
3224
3228
3232
3236
3240
3244
3248
3252
3256
3260
3264
3268
3272
3276
3280
3284
3288
3292
3296
3300
3304
3308
3312
3316
3320
3324
3328
3332
3336
3340
3344
3348
3352
3356
3360
3364
3368
3372
3376
3380
3384
3388
3392
3396
3400
3404
3408
3412
3416
3420
3424
3428
3432
3436
3440
3444
3448
3452
3456
3460
3464
3468
3472
3476
3480
3484
3488
3492
3496
3500
3504
3508
3512
3516
3520
3524
3528
3532
3536
3540
3544
3548
3552
3556
3560
3564
3568
3572
3576
3580
3584
3588
3592
3596
3600
3604
3608
3612
3616
3620
3624
3628
3632
3636
3640
3644
3648
3652
3656
3660
3664
3668
3672
3676
3680
3684
3688
3692
3696
3700
3704
3708
3712
3716
3720
3724
3728
3732
3736
3740
3744
3748
3752
3756
3760
3764
3768
3772
3776
3780
3784
3788
3792
3796
3800
3804
3808
3812
3816
3820
3824
3828
3832
3836
3840
3844
3848
3852
3856
3860
3864
3868
3872
3876
3880
3884
3888
3892
3896
3900
3904
3908
3912
3916
3920
3924
3928
3932
3936
3940
3944
3948
3952
3956
3960
3964
3968
3972
3976
3980
3984
3988
3992
3996
4000
4004
4008
4012
4016
4020
4024
4028
4032
4036
4040
4044
4048
4052
4056
4060
4064
4068
4072
4076
4080
4084
4088
4092
4096
4100
4104
4108
4112
4116
4120
4124
4128
4132
4136
4140
4144
4148
4152
4156
4160
4164
4168
4172
4176
4180
4184
4188
4192
4196
4200
4204
4208
4212
4216
4220
4224
4228
4232
4236
4240
4244
4248
4252
4256
4260
4264
4268
4272
4276
4280
4284
4288
4292
4296
4300
4304
4308
4312
4316
4320
4324
4328
4332
4336
4340
4344
4348
4352
4356
4360
4364
4368
4372
4376
4380
4384
4388
4392
4396
4400
4404
4408
4412
4416
4420
4424
4428
4432
4436
4440
4444
4448
4452
4456
4460
4464
4468
4472
4476
4480
4484
4488
4492
4496
4500
4504
4508
4512
4516
4520
4524
4528
4532
4536
4540
4544
4548
4552
4556
4560
4564
4568
4572
4576
4580
4584
4588
4592
4596
4600
4604
4608
4612
4616
4620
4624
4628
4632
4636
4640
4644
4648
4652
4656
4660
4664
4668
4672
4676
4680
4684
4688
4692
4696
4700
4704
4708
4712
4716
4720
4724
4728
4732
4736
4740
4744
4748
4752
4756
4760
4764
4768
4772
4776
4780
4784
4788
4792
4796
4800
4804
4808
4812
4816
4820
4824
4828
4832
4836
4840
4844
4848
4852
4856
4860
4864
4868
4872
4876
4880
4884
4888
4892
4896
4900
4904
4908
4912
4916
4920
4924
4928
4932
4936
4940
4944
4948
4952
4956
4960
4964
4968
4972
4976
4980
4984
4988
4992
4996
5000
5004
5008
5012
5016
5020
5024
5028
5032
5036
5040
5044
5048
5052
5056
5060
5064
5068
5072
5076
5080
5084
5088
5092
5096
5100
5104
5108
5112
5116
5120
5124
5128
5132
5136
5140
5144
5148
5152
5156
5160
5164
5168
5172
5176
5180
5184
5188
5192
5196
5200
5204
5208
5212
5216
5220
5224
5228
5232
5236
5240
5244
5248
5252
5256
5260
5264
5268
5272
5276
5280
5284
5288
5292
5296
5300
5304
5308
5312
5316
5320
5324
5328
5332
5336
5340
5344
5348
5352
5356
5360
5364
5368
5372
5376
5380
5384
5388
5392
5396
5400
5404
5408
5412
5416
5420
5424
5428
5432
5436
5440
5444
5448
5452
5456
5460
5464
5468
5472
5476
5480
5484
5488
5492
5496
5500
5504
5508
5512
5516
5520
5524
5528
5532
5536
5540
5544
5548
5552
5556
5560
5564
5568
5572
5576
5580
5584
5588
5592
5596
5600
5604
5608
5612
5616
5620
5624
5628
5632
5636
5640
5644
5648
5652
5656
5660
5664
5668
5672
5676
5680
5684
5688
5692
5696
5700
5704
5708
5712
5716
5720
5724
5728
5732
5736
5740
5744
5748
5752
5756
5760
5764
5768
5772
5776
5780
5784
5788
5792
5796
5800
5804
5808
5812
5816
5820
5824
5828
5832
5836
5840
5844
5848
5852
5856
5860
5864
5868
5872
5876
5880
5884
5888
5892
5896
5900
5904
5908
5912
5916
5920
5924
5928
5932
5936
5940
5944
5948
5952
5956
5960
5964
5968
5972
5976
5980
5984
5988
5992
5996
6000
              </DataArray>   
              <DataArray type="UInt8" Name="types" format="ascii">   
10
10
10
10
10
10
10
10
10
10
10
10
10
10
10
10
10
10
10
10
10
10
10
10
10
10
10
10
10
10
10
10
10
10
10
10
10
10
10
10
10
10
10
10
10
10
10
10
10
10
10
10
10
10
10
10
10
10
10
10
10
10
10
10
10
10
10
10
10
10
10
10
10
10
10
10
10
10
10
10
10
10
10
10
10
10
10
10
10
10
10
10
10
10
10
10
10
10
10
10
10
10
10
10
10
10
10
10
10
10
10
10
10
10
10
10
10
10
10
10
10
10
10
10
10
10
10
10
10
10
10
10
10
10
10
10
10
10
10
10
10
10
10
10
10
10
10
10
10
10
10
10
10
10
10
10
10
10
10
10
10
10
10
10
10
10
10
10
10
10
10
10
10
10
10
10
10
10
10
10
10
10
10
10
10
10
10
10
10
10
10
10
10
10
10
10
10
10
10
10
10
10
10
10
10
10
10
10
10
10
10
10
10
10
10
10
10
10
10
10
10
10
10
10
10
10
10
10
10
10
10
10
10
10
10
10
10
10
10
10
10
10
10
10
10
10
10
10
10
10
10
10
10
10
10
10
10
10
10
10
10
10
10
10
10
10
10
10
10
10
10
10
10
10
10
10
10
10
10
10
10
10
10
10
10
10
10
10
10
10
10
10
10
10
10
10
10
10
10
10
10
10
10
10
10
10
10
10
10
10
10
10
10
10
10
10
10
10
10
10
10
10
10
10
10
10
10
10
10
10
10
10
10
10
10
10
10
10
10
10
10
10
10
10
10
10
10
10
10
10
10
10
10
10
10
10
10
10
10
10
10
10
10
10
10
10
10
10
10
10
10
10
10
10
10
10
10
10
10
10
10
10
10
10
10
10
10
10
10
10
10
10
10
10
10
10
10
10
10
10
10
10
10
10
10
10
10
10
10
10
10
10
10
10
10
10
10
10
10
10
10
10
10
10
10
10
10
10
10
10
10
10
10
10
10
10
10
10
10
10
10
10
10
10
10
10
10
10
10
10
10
10
10
10
10
10
10
10
10
10
10
10
10
10
10
10
10
10
10
10
10
10
10
10
10
10
10
10
10
10
10
10
10
10
10
10
10
10
10
10
10
10
10
10
10
10
10
10
10
10
10
10
10
10
10
10
10
10
10
10
10
10
10
10
10
10
10
10
10
10
10
10
10
10
10
10
10
10
10
10
10
10
10
10
10
10
10
10
10
10
10
10
10
10
10
10
10
10
10
10
10
10
10
10
10
10
10
10
10
10
10
10
10
10
10
10
10
10
10
10
10
10
10
10
10
10
10
10
10
10
10
10
10
10
10
10
10
10
10
10
10
10
10
10
10
10
10
10
10
10
10
10
10
10
10
10
10
10
10
10
10
10
10
10
10
10
10
10
10
10
10
10
10
10
10
10
10
10
10
10
10
10
10
10
10
10
10
10
10
10
10
10
10
10
10
10
10
10
10
10
10
10
10
10
10
10
10
10
10
10
10
10
10
10
10
10
10
10
10
10
10
10
10
10
10
10
10
10
10
10
10
10
10
10
10
10
10
10
10
10
10
10
10
10
10
10
10
10
10
10
10
10
10
10
10
10
10
10
10
10
10
10
10
10
10
10
10
10
10
10
10
10
10
10
10
10
10
10
10
10
10
10
10
10
10
10
10
10
10
10
10
10
10
10
10
10
10
10
10
10
10
10
10
10
10
10
10
10
10
10
10
10
10
10
10
10
10
10
10
10
10
10
10
10
10
10
10
10
10
10
10
10
10
10
10
10
10
10
10
10
10
10
10
10
10
10
10
10
10
10
10
10
10
10
10
10
10
10
10
10
10
10
10
10
10
10
10
10
10
10
10
10
10
10
10
10
10
10
10
10
10
10
10
10
10
10
10
10
10
10
10
10
10
10
10
10
10
10
10
10
10
10
10
10
10
10
10
10
10
10
10
10
10
10
10
10
10
10
10
10
10
10
10
10
10
10
10
10
10
10
10
10
10
10
10
10
10
10
10
10
10
10
10
10
10
10
10
10
10
10
10
10
10
10
10
10
10
10
10
10
10
10
10
10
10
10
10
10
10
10
10
10
10
10
10
10
10
10
10
10
10
10
10
10
10
10
10
10
10
10
10
10
10
10
10
10
10
10
10
10
10
10
10
10
10
10
10
10
10
10
10
10
10
10
10
10
10
10
10
10
10
10
10
10
10
10
10
10
10
10
10
10
10
10
10
10
10
10
10
10
10
10
10
10
10
10
10
10
10
10
10
10
10
10
10
10
10
10
10
10
10
10
10
10
10
10
10
10
10
10
10
10
10
10
10
10
10
10
10
10
10
10
10
10
10
10
10
10
10
10
10
10
10
10
10
10
10
10
10
10
10
10
10
10
10
10
10
10
10
10
10
10
10
10
10
10
10
10
10
10
10
10
10
10
10
10
10
10
10
10
10
10
10
10
10
10
10
10
10
10
10
10
10
10
10
10
10
10
10
10
10
10
10
10
10
10
10
10
10
10
10
10
10
10
10
10
10
10
10
10
10
10
10
10
10
10
10
10
10
10
10
10
10
10
10
10
10
10
10
10
10
10
10
10
10
10
10
10
10
10
10
10
10
10
10
10
10
10
10
10
10
10
10
10
10
10
10
10
10
10
10
10
10
10
10
10
10
10
10
10
10
10
10
10
10
10
10
10
10
10
10
10
10
10
10
10
10
10
10
10
10
10
10
10
10
10
10
10
10
10
10
10
10
10
10
10
10
10
10
10
10
10
10
10
10
10
10
10
10
10
10
10
10
10
10
10
10
10
10
10
10
10
10
10
10
10
10
10
10
10
10
10
10
10
10
10
10
10
10
10
10
10
10
10
10
10
10
10
10
10
10
10
10
10
10
10
10
10
10
10
10
10
10
10
10
10
10
10
10
10
10
10
10
10
10
10
10
10
10
10
10
10
10
10
10
10
10
10
10
10
10
10
10
10
10
10
10
10
10
10
10
10
10
10
10
10
10
10
10
10
10
10
10
10
10
10
10
10
10
10
10
10
10
10
10
10
10
10
10
10
10
10
10
10
10
10
10
10
10
10
10
10
10
10
10
10
10
10
10
10
10
10
10
10
10
10
10
10
10
10
10
10
10
10
10
10
10
10
10
10
10
10
10
10
10
10
10
10
10
10
10
10
10
10
10
10
10
10
10
10
10
10
10
10
10
10
10
10
10
10
10
10
10
10
10
10
10
10
10
10
10
10
10
10
10
10
10
10
10
10
10
10
10
10
10
10
10
10
10
10
10
10
10
10
10
10
10
10
10
10
10
10
10
10
10
10
10
10
10
10
10
10
10
10
10
10
10
10
10
10
10
10
10
10
10
10
10
10
10
10
10
10
10
10
10
10
10
10
10
10
              </DataArray>   
          </Cells>  
          <PointData>  
             <DataArray type="Float64" NumberOfComponents="3" Name="Strains" format="ascii">   
-0.00018825222638763284   0.0   -0.0001232905794206687
-0.00018825222638763284   0.0   -0.0001232905794206687
-0.00018825222638763284   0.0   -0.0001232905794206687
-0.00018825222638763284   0.0   -0.0001232905794206687
-0.00011981422741191226   2.088919489009333e-05   3.3062691395880424e-06
-0.00011981422741191226   2.088919489009333e-05   3.3062691395880424e-06
-0.00011981422741191226   2.088919489009333e-05   3.3062691395880424e-06
-0.00011981422741191226   2.088919489009333e-05   3.3062691395880424e-06
-0.00011746280529613358   0.0   -0.00011632778217979772
-0.00011746280529613358   0.0   -0.00011632778217979772
-0.00011746280529613358   0.0   -0.00011632778217979772
-0.00011746280529613358   0.0   -0.00011632778217979772
-0.00019703726600586968   2.5051657264955326e-05   1.2653246441231302e-06
-0.00019703726600586968   2.5051657264955326e-05   1.2653246441231302e-06
-0.00019703726600586968   2.5051657264955326e-05   1.2653246441231302e-06
-0.00019703726600586968   2.5051657264955326e-05   1.2653246441231302e-06
-0.00015285751584188294   5.802331034059129e-06   -6.0817996557317e-05
-0.00015285751584188294   5.802331034059129e-06   -6.0817996557317e-05
-0.00015285751584188294   5.802331034059129e-06   -6.0817996557317e-05
-0.00015285751584188294   5.802331034059129e-06   -6.0817996557317e-05
-0.00019703726600587   0.0   -0.00013135877653877096
-0.00019703726600587   0.0   -0.00013135877653877096
-0.00019703726600587   0.0   -0.00013135877653877096
-0.00019703726600587   0.0   -0.00013135877653877096
-0.00011746280529613358   2.505165726495538e-05   1.6296319003096353e-05
-0.00011746280529613358   2.505165726495538e-05   1.6296319003096353e-05
-0.00011746280529613358   2.505165726495538e-05   1.6296319003096353e-05
-0.00011746280529613358   2.505165726495538e-05   1.6296319003096353e-05
-0.00011781366006388951   0.0   -0.00011918035012310456
-0.00011781366006388951   0.0   -0.00011918035012310456
-0.00011781366006388951   0.0   -0.00011918035012310456
-0.00011781366006388951   0.0   -0.00011918035012310456
-0.00020321590611305264   2.6834595911103714e-05   7.055969078838937e-06
-0.00020321590611305264   2.6834595911103714e-05   7.055969078838937e-06
-0.00020321590611305264   2.6834595911103714e-05   7.055969078838937e-06
-0.00020321590611305264   2.6834595911103714e-05   7.055969078838937e-06
-0.0001574254630348795   1.0148688679721972e-05   -5.9249891712620506e-05
-0.0001574254630348795   1.0148688679721972e-05   -5.9249891712620506e-05
-0.0001574254630348795   1.0148688679721972e-05   -5.9249891712620506e-05
-0.0001574254630348795   1.0148688679721972e-05   -5.9249891712620506e-05
-0.000203215906113053   0.0   -0.00013528110766976683
-0.000203215906113053   0.0   -0.00013528110766976683
-0.000203215906113053   0.0   -0.00013528110766976683
-0.000203215906113053   0.0   -0.00013528110766976683
-0.00011781366006388951   2.6834595911103768e-05   2.3156726625501257e-05
-0.00011781366006388951   2.6834595911103768e-05   2.3156726625501257e-05
-0.00011781366006388951   2.6834595911103768e-05   2.3156726625501257e-05
-0.00011781366006388951   2.6834595911103768e-05   2.3156726625501257e-05
-0.00011777381673097866   0.0   -0.00011991025735687117
-0.00011777381673097866   0.0   -0.00011991025735687117
-0.00011777381673097866   0.0   -0.00011991025735687117
-0.00011777381673097866   0.0   -0.00011991025735687117
-0.00021650695925950952   3.055611761466632e-05   2.6311309621880976e-05
-0.00021650695925950952   3.055611761466632e-05   2.6311309621880976e-05
-0.00021650695925950952   3.055611761466632e-05   2.6311309621880976e-05
-0.00021650695925950952   3.055611761466632e-05   2.6311309621880976e-05
-0.00016049486142201555   1.2809041927413031e-05   -5.6393941361590255e-05
-0.00016049486142201555   1.2809041927413031e-05   -5.6393941361590255e-05
-0.00016049486142201555   1.2809041927413031e-05   -5.6393941361590255e-05
-0.00016049486142201555   1.2809041927413031e-05   -5.6393941361590255e-05
-0.00011981422741191246   0.0   -0.00011075706248661267
-0.00011981422741191246   0.0   -0.00011075706248661267
-0.00011981422741191246   0.0   -0.00011075706248661267
-0.00011981422741191246   0.0   -0.00011075706248661267
-5.454139396751776e-05   7.6679837686741e-06   2.63178351524957e-06
-5.454139396751776e-05   7.6679837686741e-06   2.63178351524957e-06
-5.454139396751776e-05   7.6679837686741e-06   2.63178351524957e-06
-5.454139396751776e-05   7.6679837686741e-06   2.63178351524957e-06
-5.2476233172167566e-05   0.0   -0.00010978449288478746
-5.2476233172167566e-05   0.0   -0.00010978449288478746
-5.2476233172167566e-05   0.0   -0.00010978449288478746
-5.2476233172167566e-05   0.0   -0.00010978449288478746
-0.00011746280529613358   1.0905482158350428e-05   -8.016828639854391e-06
-0.00011746280529613358   1.0905482158350428e-05   -8.016828639854391e-06
-0.00011746280529613358   1.0905482158350428e-05   -8.016828639854391e-06
-0.00011746280529613358   1.0905482158350428e-05   -8.016828639854391e-06
-8.614523029203987e-05   8.104746681876772e-07   -5.41557824859125e-05
-8.614523029203987e-05   8.104746681876772e-07   -5.41557824859125e-05
-8.614523029203987e-05   8.104746681876772e-07   -5.41557824859125e-05
-8.614523029203987e-05   8.104746681876772e-07   -5.41557824859125e-05
-0.00011746280529613347   0.0   -0.00011632778217979762
-0.00011746280529613347   0.0   -0.00011632778217979762
-0.00011746280529613347   0.0   -0.00011632778217979762
-0.00011746280529613347   0.0   -0.00011632778217979762
-5.2476233172167566e-05   1.0905482158350428e-05   -1.4735393448441267e-06
-5.2476233172167566e-05   1.0905482158350428e-05   -1.4735393448441267e-06
-5.2476233172167566e-05   1.0905482158350428e-05   -1.4735393448441267e-06
-5.2476233172167566e-05   1.0905482158350428e-05   -1.4735393448441267e-06
-5.132438272180474e-05   0.0   -0.00011116663546198854
-5.132438272180474e-05   0.0   -0.00011116663546198854
-5.132438272180474e-05   0.0   -0.00011116663546198854
-5.132438272180474e-05   0.0   -0.00011116663546198854
-0.00011781366006388951   1.3356191101860043e-05   -8.364887886296648e-06
-0.00011781366006388951   1.3356191101860043e-05   -8.364887886296648e-06
-0.00011781366006388951   1.3356191101860043e-05   -8.364887886296648e-06
-0.00011781366006388951   1.3356191101860043e-05   -8.364887886296648e-06
-8.4393594008969e-05   4.300955598174317e-06   -5.8631856675618906e-05
-8.4393594008969e-05   4.300955598174317e-06   -5.8631856675618906e-05
-8.4393594008969e-05   4.300955598174317e-06   -5.8631856675618906e-05
-8.4393594008969e-05   4.300955598174317e-06   -5.8631856675618906e-05
-0.00011781366006388951   0.0   -0.00011918035012310456
-0.00011781366006388951   0.0   -0.00011918035012310456
-0.00011781366006388951   0.0   -0.00011918035012310456
-0.00011781366006388951   0.0   -0.00011918035012310456
-5.132438272180474e-05   1.3356191101860043e-05   -3.5117322518062966e-07
-5.132438272180474e-05   1.3356191101860043e-05   -3.5117322518062966e-07
-5.132438272180474e-05   1.3356191101860043e-05   -3.5117322518062966e-07
-5.132438272180474e-05   1.3356191101860043e-05   -3.5117322518062966e-07
-5.0278768635736184e-05   0.0   -0.00011058815293852363
-5.0278768635736184e-05   0.0   -0.00011058815293852363
-5.0278768635736184e-05   0.0   -0.00011058815293852363
-5.0278768635736184e-05   0.0   -0.00011058815293852363
-0.00011777381673097837   1.5536840697245727e-05   -7.418510531467012e-06
-0.00011777381673097837   1.5536840697245727e-05   -7.418510531467012e-06
-0.00011777381673097837   1.5536840697245727e-05   -7.418510531467012e-06
-0.00011777381673097837   1.5536840697245727e-05   -7.418510531467012e-06
-8.404621434981282e-05   7.160164320484038e-06   -5.860517534068633e-05
-8.404621434981282e-05   7.160164320484038e-06   -5.860517534068633e-05
-8.404621434981282e-05   7.160164320484038e-06   -5.860517534068633e-05
-8.404621434981282e-05   7.160164320484038e-06   -5.860517534068633e-05
-5.4541393967517855e-05   0.0   -0.00010615627222540821
-5.4541393967517855e-05   0.0   -0.00010615627222540821
-5.4541393967517855e-05   0.0   -0.00010615627222540821
-5.4541393967517855e-05   0.0   -0.00010615627222540821
7.145913065764516e-06   -9.773774144553613e-07   -3.9305202852773615e-06
7.145913065764516e-06   -9.773774144553613e-07   -3.9305202852773615e-06
7.145913065764516e-06   -9.773774144553613e-07   -3.9305202852773615e-06
7.145913065764516e-06   -9.773774144553613e-07   -3.9305202852773615e-06
8.455021258481029e-06   0.0   -0.00010862577887698865
8.455021258481029e-06   0.0   -0.00010862577887698865
8.455021258481029e-06   0.0   -0.00010862577887698865
8.455021258481029e-06   0.0   -0.00010862577887698865
-5.247623317216748e-05   1.9311900129973805e-06   -8.232402167039754e-06
-5.247623317216748e-05   1.9311900129973805e-06   -8.232402167039754e-06
-5.247623317216748e-05   1.9311900129973805e-06   -8.232402167039754e-06
-5.247623317216748e-05   1.9311900129973805e-06   -8.232402167039754e-06
-2.304318635451832e-05   -2.0579222096506693e-06   -5.489401286286597e-05
-2.304318635451832e-05   -2.0579222096506693e-06   -5.489401286286597e-05
-2.304318635451832e-05   -2.0579222096506693e-06   -5.489401286286597e-05
-2.304318635451832e-05   -2.0579222096506693e-06   -5.489401286286597e-05
-5.2476233172167566e-05   0.0   -0.00010978449288478746
-5.2476233172167566e-05   0.0   -0.00010978449288478746
-5.2476233172167566e-05   0.0   -0.00010978449288478746
-5.2476233172167566e-05   0.0   -0.00010978449288478746
8.455021258481042e-06   1.9311900129973805e-06   -7.0736881592413185e-06
8.455021258481042e-06   1.9311900129973805e-06   -7.0736881592413185e-06
8.455021258481042e-06   1.9311900129973805e-06   -7.0736881592413185e-06
8.455021258481042e-06   1.9311900129973805e-06   -7.0736881592413185e-06
9.485663279450616e-06   0.0   -0.00010847187761043891
9.485663279450616e-06   0.0   -0.00010847187761043891
9.485663279450616e-06   0.0   -0.00010847187761043891
9.485663279450616e-06   0.0   -0.00010847187761043891
-5.1324382721804564e-05   4.491263085915732e-06   -9.816558793229586e-06
-5.1324382721804564e-05   4.491263085915732e-06   -9.816558793229586e-06
-5.1324382721804564e-05   4.491263085915732e-06   -9.816558793229586e-06
-5.1324382721804564e-05   4.491263085915732e-06   -9.816558793229586e-06
-2.149528494635843e-05   1.093846061956969e-06   -5.749327153793131e-05
-2.149528494635843e-05   1.093846061956969e-06   -5.749327153793131e-05
-2.149528494635843e-05   1.093846061956969e-06   -5.749327153793131e-05
-2.149528494635843e-05   1.093846061956969e-06   -5.749327153793131e-05
-5.132438272180474e-05   0.0   -0.00011116663546198854
-5.132438272180474e-05   0.0   -0.00011116663546198854
-5.132438272180474e-05   0.0   -0.00011116663546198854
-5.132438272180474e-05   0.0   -0.00011116663546198854
9.485663279450633e-06   4.491263085915732e-06   -7.121800941680148e-06
9.485663279450633e-06   4.491263085915732e-06   -7.121800941680148e-06
9.485663279450633e-06   4.491263085915732e-06   -7.121800941680148e-06
9.485663279450633e-06   4.491263085915732e-06   -7.121800941680148e-06
1.0878899688204118e-05   0.0   -0.00010611356602799859
1.0878899688204118e-05   0.0   -0.00010611356602799859
1.0878899688204118e-05   0.0   -0.00010611356602799859
1.0878899688204118e-05   0.0   -0.00010611356602799859
-5.0278768635736055e-05   7.457644850874867e-06   -8.658705731956433e-06
-5.0278768635736055e-05   7.457644850874867e-06   -8.658705731956433e-06
-5.0278768635736055e-05   7.457644850874867e-06   -8.658705731956433e-06
-5.0278768635736055e-05   7.457644850874867e-06   -8.658705731956433e-06
-2.0222741516800267e-05   4.210891194991463e-06   -5.680403206998612e-05
-2.0222741516800267e-05   4.210891194991463e-06   -5.680403206998612e-05
-2.0222741516800267e-05   4.210891194991463e-06   -5.680403206998612e-05
-2.0222741516800267e-05   4.210891194991463e-06   -5.680403206998612e-05
7.1459130657645285e-06   0.0   -0.00010674269867408141
7.1459130657645285e-06   0.0   -0.00010674269867408141
7.1459130657645285e-06   0.0   -0.00010674269867408141
7.1459130657645285e-06   0.0   -0.00010674269867408141
7.408988574679864e-05   -8.689883624321727e-06   -3.8334104695083877e-07
7.408988574679864e-05   -8.689883624321727e-06   -3.8334104695083877e-07
7.408988574679864e-05   -8.689883624321727e-06   -3.8334104695083877e-07
7.408988574679864e-05   -8.689883624321727e-06   -3.8334104695083877e-07
7.419589039170975e-05   0.0   -0.00011255970517822567
7.419589039170975e-05   0.0   -0.00011255970517822567
7.419589039170975e-05   0.0   -0.00011255970517822567
7.419589039170975e-05   0.0   -0.00011255970517822567
8.455021258481057e-06   -6.556543835394425e-06   9.423363450587691e-07
8.455021258481057e-06   -6.556543835394425e-06   9.423363450587691e-07
8.455021258481057e-06   -6.556543835394425e-06   9.423363450587691e-07
8.455021258481057e-06   -6.556543835394425e-06   9.423363450587691e-07
4.067090172873714e-05   -4.847505420120228e-06   -5.3776220821199164e-05
4.067090172873714e-05   -4.847505420120228e-06   -5.3776220821199164e-05
4.067090172873714e-05   -4.847505420120228e-06   -5.3776220821199164e-05
4.067090172873714e-05   -4.847505420120228e-06   -5.3776220821199164e-05
8.455021258481057e-06   0.0   -0.00010862577887698903
8.455021258481057e-06   0.0   -0.00010862577887698903
8.455021258481057e-06   0.0   -0.00010862577887698903
8.455021258481057e-06   0.0   -0.00010862577887698903
7.419589039170975e-05   -6.556543835394425e-06   -2.9915899561778895e-06
7.419589039170975e-05   -6.556543835394425e-06   -2.9915899561778895e-06
7.419589039170975e-05   -6.556543835394425e-06   -2.9915899561778895e-06
7.419589039170975e-05   -6.556543835394425e-06   -2.9915899561778895e-06
7.385593822332903e-05   0.0   -0.00011095221068476872
7.385593822332903e-05   0.0   -0.00011095221068476872
7.385593822332903e-05   0.0   -0.00011095221068476872
7.385593822332903e-05   0.0   -0.00011095221068476872
9.485663279450633e-06   -4.1338884572160505e-06   -1.1880860373084316e-06
9.485663279450633e-06   -4.1338884572160505e-06   -1.1880860373084316e-06
9.485663279450633e-06   -4.1338884572160505e-06   -1.1880860373084316e-06
9.485663279450633e-06   -4.1338884572160505e-06   -1.1880860373084316e-06
4.1155479740905044e-05   -1.9386931731497464e-06   -5.528823064350553e-05
4.1155479740905044e-05   -1.9386931731497464e-06   -5.528823064350553e-05
4.1155479740905044e-05   -1.9386931731497464e-06   -5.528823064350553e-05
4.1155479740905044e-05   -1.9386931731497464e-06   -5.528823064350553e-05
9.485663279450625e-06   0.0   -0.000108471877610439
9.485663279450625e-06   0.0   -0.000108471877610439
9.485663279450625e-06   0.0   -0.000108471877610439
9.485663279450625e-06   0.0   -0.000108471877610439
7.385593822332903e-05   -4.1338884572160505e-06   -3.668419111638074e-06
7.385593822332903e-05   -4.1338884572160505e-06   -3.668419111638074e-06
7.385593822332903e-05   -4.1338884572160505e-06   -3.668419111638074e-06
7.385593822332903e-05   -4.1338884572160505e-06   -3.668419111638074e-06
7.526499162172065e-05   0.0   -0.00010663978332640357
7.526499162172065e-05   0.0   -0.00010663978332640357
7.526499162172065e-05   0.0   -0.00010663978332640357
7.526499162172065e-05   0.0   -0.00010663978332640357
1.0878899688204138e-05   -8.77028830674649e-07   1.1965871945287523e-06
1.0878899688204138e-05   -8.77028830674649e-07   1.1965871945287523e-06
1.0878899688204138e-05   -8.77028830674649e-07   1.1965871945287523e-06
1.0878899688204138e-05   -8.77028830674649e-07   1.1965871945287523e-06
4.2375327450585615e-05   1.5267452366962724e-06   -5.2739723516529564e-05
4.2375327450585615e-05   1.5267452366962724e-06   -5.2739723516529564e-05
4.2375327450585615e-05   1.5267452366962724e-06   -5.2739723516529564e-05
4.2375327450585615e-05   1.5267452366962724e-06   -5.2739723516529564e-05
7.408988574679864e-05   0.0   -0.00011195662884867444
7.408988574679864e-05   0.0   -0.00011195662884867444
7.408988574679864e-05   0.0   -0.00011195662884867444
7.408988574679864e-05   0.0   -0.00011195662884867444
0.000167132401478979   -2.201149883433837e-05   2.9907331404357377e-05
0.000167132401478979   -2.201149883433837e-05   2.9907331404357377e-05
0.000167132401478979   -2.201149883433837e-05   2.9907331404357377e-05
0.000167132401478979   -2.201149883433837e-05   2.9907331404357377e-05
0.00015693086265523262   0.0   -0.00012380483191392692
0.00015693086265523262   0.0   -0.00012380483191392692
0.00015693086265523262   0.0   -0.00012380483191392692
0.00015693086265523262   0.0   -0.00012380483191392692
7.419589039170975e-05   -1.874187789283543e-05   2.5331915260979113e-05
7.419589039170975e-05   -1.874187789283543e-05   2.5331915260979113e-05
7.419589039170975e-05   -1.874187789283543e-05   2.5331915260979113e-05
7.419589039170975e-05   -1.874187789283543e-05   2.5331915260979113e-05
0.00011551037420101563   -9.873502554377079e-06   -4.884658295760565e-05
0.00011551037420101563   -9.873502554377079e-06   -4.884658295760565e-05
0.00011551037420101563   -9.873502554377079e-06   -4.884658295760565e-05
0.00011551037420101563   -9.873502554377079e-06   -4.884658295760565e-05
7.419589039170968e-05   0.0   -0.00011255970517822558
7.419589039170968e-05   0.0   -0.00011255970517822558
7.419589039170968e-05   0.0   -0.00011255970517822558
7.419589039170968e-05   0.0   -0.00011255970517822558
0.00015693086265523208   -1.8741877892835374e-05   1.4086788525277802e-05
0.00015693086265523208   -1.8741877892835374e-05   1.4086788525277802e-05
0.00015693086265523208   -1.8741877892835374e-05   1.4086788525277802e-05
0.00015693086265523208   -1.8741877892835374e-05   1.4086788525277802e-05
0.00015221650584612225   0.0   -0.000121230618546553
0.00015221650584612225   0.0   -0.000121230618546553
0.00015221650584612225   0.0   -0.000121230618546553
0.00015221650584612225   0.0   -0.000121230618546553
7.385593822332903e-05   -1.7130679769640446e-05   1.9648735353219952e-05
7.385593822332903e-05   -1.7130679769640446e-05   1.9648735353219952e-05
7.385593822332903e-05   -1.7130679769640446e-05   1.9648735353219952e-05
7.385593822332903e-05   -1.7130679769640446e-05   1.9648735353219952e-05
0.00011320619811891594   -7.2257611402727704e-06   -5.187798231704549e-05
0.00011320619811891594   -7.2257611402727704e-06   -5.187798231704549e-05
0.00011320619811891594   -7.2257611402727704e-06   -5.187798231704549e-05
0.00011320619811891594   -7.2257611402727704e-06   -5.187798231704549e-05
7.385593822332903e-05   0.0   -0.00011095221068476872
7.385593822332903e-05   0.0   -0.00011095221068476872
7.385593822332903e-05   0.0   -0.00011095221068476872
7.385593822332903e-05   0.0   -0.00011095221068476872
0.00015221650584612174   -1.713067976964042e-05   9.370327491435636e-06
0.00015221650584612174   -1.713067976964042e-05   9.370327491435636e-06
0.00015221650584612174   -1.713067976964042e-05   9.370327491435636e-06
0.00015221650584612174   -1.713067976964042e-05   9.370327491435636e-06
0.00014521365852966962   0.0   -0.00011463799735430085
0.00014521365852966962   0.0   -0.00011463799735430085
0.00014521365852966962   0.0   -0.00011463799735430085
0.00014521365852966962   0.0   -0.00011463799735430085
7.526499162172065e-05   -1.3330356713162463e-05   9.941328186845123e-06
7.526499162172065e-05   -1.3330356713162463e-05   9.941328186845123e-06
7.526499162172065e-05   -1.3330356713162463e-05   9.941328186845123e-06
7.526499162172065e-05   -1.3330356713162463e-05   9.941328186845123e-06
0.00010953479837649946   -3.0714888912769474e-06   -5.333033709758413e-05
0.00010953479837649946   -3.0714888912769474e-06   -5.333033709758413e-05
0.00010953479837649946   -3.0714888912769474e-06   -5.333033709758413e-05
0.00010953479837649946   -3.0714888912769474e-06   -5.333033709758413e-05
-0.00016352781097122616   2.0889194890093304e-05   -0.00010712266365014831
-0.00016352781097122616   2.0889194890093304e-05   -0.00010712266365014831
-0.00016352781097122616   2.0889194890093304e-05   -0.00010712266365014831
-0.00016352781097122616   2.0889194890093304e-05   -0.00010712266365014831
-0.00010472094159085791   1.8796934326032518e-05   -1.0366571021304231e-05
-0.00010472094159085791   1.8796934326032518e-05   -1.0366571021304231e-05
-0.00010472094159085791   1.8796934326032518e-05   -1.0366571021304231e-05
-0.00010472094159085791   1.8796934326032518e-05   -1.0366571021304231e-05
-0.00010736673318724719   2.50516572649553e-05   -8.994944059620495e-05
-0.00010736673318724719   2.50516572649553e-05   -8.994944059620495e-05
-0.00010736673318724719   2.50516572649553e-05   -8.994944059620495e-05
-0.00010736673318724719   2.50516572649553e-05   -8.994944059620495e-05
-0.00016532098771686535   2.255000268316595e-05   8.141976368899171e-06
-0.00016532098771686535   2.255000268316595e-05   8.141976368899171e-06
-0.00016532098771686535   2.255000268316595e-05   8.141976368899171e-06
-0.00016532098771686535   2.255000268316595e-05   8.141976368899171e-06
-0.00012987904121222887   2.181413732523245e-05   -5.0486415257402334e-05
-0.00012987904121222887   2.181413732523245e-05   -5.0486415257402334e-05
-0.00012987904121222887   2.181413732523245e-05   -5.0486415257402334e-05
-0.00012987904121222887   2.181413732523245e-05   -5.0486415257402334e-05
-0.00016532098771686535   2.50516572649553e-05   -8.844844784713137e-05
-0.00016532098771686535   2.50516572649553e-05   -8.844844784713137e-05
-0.00016532098771686535   2.50516572649553e-05   -8.844844784713137e-05
-0.00016532098771686535   2.50516572649553e-05   -8.844844784713137e-05
-0.00010736673318724753   2.255000268316606e-05   6.640983619825649e-06
-0.00010736673318724753   2.255000268316606e-05   6.640983619825649e-06
-0.00010736673318724753   2.255000268316606e-05   6.640983619825649e-06
-0.00010736673318724753   2.255000268316606e-05   6.640983619825649e-06
-0.00010793261851684734   2.6834595911103687e-05   -8.085778378753421e-05
-0.00010793261851684734   2.6834595911103687e-05   -8.085778378753421e-05
-0.00010793261851684734   2.6834595911103687e-05   -8.085778378753421e-05
-0.00010793261851684734   2.6834595911103687e-05   -8.085778378753421e-05
-0.00016650428854777656   2.424345569099857e-05   1.8316350396076946e-05
-0.00016650428854777656   2.424345569099857e-05   1.8316350396076946e-05
-0.00016650428854777656   2.424345569099857e-05   1.8316350396076946e-05
-0.00016650428854777656   2.424345569099857e-05   1.8316350396076946e-05
-0.00013371291044714307   2.4174533666267606e-05   -3.629459322347303e-05
-0.00013371291044714307   2.4174533666267606e-05   -3.629459322347303e-05
-0.00013371291044714307   2.4174533666267606e-05   -3.629459322347303e-05
-0.00013371291044714307   2.4174533666267606e-05   -3.629459322347303e-05
-0.00016650428854777627   2.6834595911103687e-05   -7.930309965547107e-05
-0.00016650428854777627   2.6834595911103687e-05   -7.930309965547107e-05
-0.00016650428854777627   2.6834595911103687e-05   -7.930309965547107e-05
-0.00016650428854777627   2.6834595911103687e-05   -7.930309965547107e-05
-0.00010793261851684754   2.424345569099857e-05   1.676166626401386e-05
-0.00010793261851684754   2.424345569099857e-05   1.676166626401386e-05
-0.00010793261851684754   2.424345569099857e-05   1.676166626401386e-05
-0.00010793261851684754   2.424345569099857e-05   1.676166626401386e-05
-0.00010733234030353448   3.0556117614666294e-05   -5.9708024841712676e-05
-0.00010733234030353448   3.0556117614666294e-05   -5.9708024841712676e-05
-0.00010733234030353448   3.0556117614666294e-05   -5.9708024841712676e-05
-0.00010733234030353448   3.0556117614666294e-05   -5.9708024841712676e-05
-0.00016191608971210134   2.558435670707473e-05   3.424794738378649e-05
-0.00016191608971210134   2.558435670707473e-05   3.424794738378649e-05
-0.00016191608971210134   2.558435670707473e-05   3.424794738378649e-05
-0.00016191608971210134   2.558435670707473e-05   3.424794738378649e-05
-0.00013025286618597174   2.6509451775228636e-05   -1.9079148867321707e-05
-0.00013025286618597174   2.6509451775228636e-05   -1.9079148867321707e-05
-0.00013025286618597174   2.6509451775228636e-05   -1.9079148867321707e-05
-0.00013025286618597174   2.6509451775228636e-05   -1.9079148867321707e-05
-0.00010472094159085791   7.667983768674074e-06   -0.00011365329587412765
-0.00010472094159085791   7.667983768674074e-06   -0.00011365329587412765
-0.00010472094159085791   7.667983768674074e-06   -0.00011365329587412765
-0.00010472094159085791   7.667983768674074e-06   -0.00011365329587412765
-4.959186941176918e-05   8.746137783457943e-06   -2.112461650010922e-05
-4.959186941176918e-05   8.746137783457943e-06   -2.112461650010922e-05
-4.959186941176918e-05   8.746137783457943e-06   -2.112461650010922e-05
-4.959186941176918e-05   8.746137783457943e-06   -2.112461650010922e-05
-5.078839749013341e-05   1.0905482158350428e-05   -0.00011348733131383835
-5.078839749013341e-05   1.0905482158350428e-05   -0.00011348733131383835
-5.078839749013341e-05   1.0905482158350428e-05   -0.00011348733131383835
-5.078839749013341e-05   1.0905482158350428e-05   -0.00011348733131383835
-0.00010736673318724719   1.219757703387937e-05   -1.9965362077299068e-05
-0.00010736673318724719   1.219757703387937e-05   -1.9965362077299068e-05
-0.00010736673318724719   1.219757703387937e-05   -1.9965362077299068e-05
-0.00010736673318724719   1.219757703387937e-05   -1.9965362077299068e-05
-7.78978002007101e-05   9.822621931015194e-06   -6.765527732647644e-05
-7.78978002007101e-05   9.822621931015194e-06   -6.765527732647644e-05
-7.78978002007101e-05   9.822621931015194e-06   -6.765527732647644e-05
-7.78978002007101e-05   9.822621931015194e-06   -6.765527732647644e-05
-0.0001073667331872471   1.0905482158350428e-05   -0.00011426258823915548
-0.0001073667331872471   1.0905482158350428e-05   -0.00011426258823915548
-0.0001073667331872471   1.0905482158350428e-05   -0.00011426258823915548
-0.0001073667331872471   1.0905482158350428e-05   -0.00011426258823915548
-5.078839749013349e-05   1.219757703387937e-05   -1.919010515198182e-05
-5.078839749013349e-05   1.219757703387937e-05   -1.919010515198182e-05
-5.078839749013349e-05   1.219757703387937e-05   -1.919010515198182e-05
-5.078839749013349e-05   1.219757703387937e-05   -1.919010515198182e-05
-5.1173851261672175e-05   1.3356191101859989e-05   -0.00011136123392087993
-5.1173851261672175e-05   1.3356191101859989e-05   -0.00011136123392087993
-5.1173851261672175e-05   1.3356191101859989e-05   -0.00011136123392087993
-5.1173851261672175e-05   1.3356191101859989e-05   -0.00011136123392087993
-0.00010793261851684734   1.5053131732613322e-05   -1.7781452874040106e-05
-0.00010793261851684734   1.5053131732613322e-05   -1.7781452874040106e-05
-0.00010793261851684734   1.5053131732613322e-05   -1.7781452874040106e-05
-0.00010793261851684734   1.5053131732613322e-05   -1.7781452874040106e-05
-7.851893961540039e-05   1.246154131461473e-05   -6.524929679231891e-05
-7.851893961540039e-05   1.246154131461473e-05   -6.524929679231891e-05
-7.851893961540039e-05   1.246154131461473e-05   -6.524929679231891e-05
-7.851893961540039e-05   1.246154131461473e-05   -6.524929679231891e-05
-0.00010793261851684734   1.3356191101859989e-05   -0.00011237939829933195
-0.00010793261851684734   1.3356191101859989e-05   -0.00011237939829933195
-0.00010793261851684734   1.3356191101859989e-05   -0.00011237939829933195
-0.00010793261851684734   1.3356191101859989e-05   -0.00011237939829933195
-5.117385126167235e-05   1.505313173261343e-05   -1.6763288495588145e-05
-5.117385126167235e-05   1.505313173261343e-05   -1.6763288495588145e-05
-5.117385126167235e-05   1.505313173261343e-05   -1.6763288495588145e-05
-5.117385126167235e-05   1.505313173261343e-05   -1.6763288495588145e-05
-5.106188886302515e-05   1.55368406972457e-05   -0.00011021893181164248
-5.106188886302515e-05   1.55368406972457e-05   -0.00011021893181164248
-5.106188886302515e-05   1.55368406972457e-05   -0.00011021893181164248
-5.106188886302515e-05   1.55368406972457e-05   -0.00011021893181164248
-0.0001073323403035344   1.8124480284275463e-05   -1.7987429829678268e-05
-0.0001073323403035344   1.8124480284275463e-05   -1.7987429829678268e-05
-0.0001073323403035344   1.8124480284275463e-05   -1.7987429829678268e-05
-0.0001073323403035344   1.8124480284275463e-05   -1.7987429829678268e-05
-7.899436831335751e-05   1.4850000815463916e-05   -6.325269546535316e-05
-7.899436831335751e-05   1.4850000815463916e-05   -6.325269546535316e-05
-7.899436831335751e-05   1.4850000815463916e-05   -6.325269546535316e-05
-7.899436831335751e-05   1.4850000815463916e-05   -6.325269546535316e-05
-4.95918694117691e-05   -9.773774144553342e-07   -0.000118982280817111
-4.95918694117691e-05   -9.773774144553342e-07   -0.000118982280817111
-4.95918694117691e-05   -9.773774144553342e-07   -0.000118982280817111
-4.95918694117691e-05   -9.773774144553342e-07   -0.000118982280817111
4.8437899270909e-06   -2.574304220486238e-07   -2.782421372356689e-05
4.8437899270909e-06   -2.574304220486238e-07   -2.782421372356689e-05
4.8437899270909e-06   -2.574304220486238e-07   -2.782421372356689e-05
4.8437899270909e-06   -2.574304220486238e-07   -2.782421372356689e-05
4.607528893691406e-06   1.9311900129973805e-06   -0.0001196517226923549
4.607528893691406e-06   1.9311900129973805e-06   -0.0001196517226923549
4.607528893691406e-06   1.9311900129973805e-06   -0.0001196517226923549
4.607528893691406e-06   1.9311900129973805e-06   -0.0001196517226923549
-5.078839749013341e-05   2.9219757524626827e-06   -2.7919650162992293e-05
-5.078839749013341e-05   2.9219757524626827e-06   -2.7919650162992293e-05
-5.078839749013341e-05   2.9219757524626827e-06   -2.7919650162992293e-05
-5.078839749013341e-05   2.9219757524626827e-06   -2.7919650162992293e-05
-2.287019656035573e-05   9.691111291146694e-07   -7.32782662719466e-05
-2.287019656035573e-05   9.691111291146694e-07   -7.32782662719466e-05
-2.287019656035573e-05   9.691111291146694e-07   -7.32782662719466e-05
-2.287019656035573e-05   9.691111291146694e-07   -7.32782662719466e-05
-5.078839749013341e-05   1.9311900129973805e-06   -0.0001202461941360339
-5.078839749013341e-05   1.9311900129973805e-06   -0.0001202461941360339
-5.078839749013341e-05   1.9311900129973805e-06   -0.0001202461941360339
-5.078839749013341e-05   1.9311900129973805e-06   -0.0001202461941360339
4.607528893691406e-06   2.9219757524626827e-06   -2.7325178719313193e-05
4.607528893691406e-06   2.9219757524626827e-06   -2.7325178719313193e-05
4.607528893691406e-06   2.9219757524626827e-06   -2.7325178719313193e-05
4.607528893691406e-06   2.9219757524626827e-06   -2.7325178719313193e-05
4.289306377275012e-06   4.491263085915732e-06   -0.00011990452251441286
4.289306377275012e-06   4.491263085915732e-06   -0.00011990452251441286
4.289306377275012e-06   4.491263085915732e-06   -0.00011990452251441286
4.289306377275012e-06   4.491263085915732e-06   -0.00011990452251441286
-5.1173851261672175e-05   6.028091376775765e-06   -2.8388023424017026e-05
-5.1173851261672175e-05   6.028091376775765e-06   -2.8388023424017026e-05
-5.1173851261672175e-05   6.028091376775765e-06   -2.8388023424017026e-05
-5.1173851261672175e-05   6.028091376775765e-06   -2.8388023424017026e-05
-2.3310149771125822e-05   3.664297941631501e-06   -7.340924984717417e-05
-2.3310149771125822e-05   3.664297941631501e-06   -7.340924984717417e-05
-2.3310149771125822e-05   3.664297941631501e-06   -7.340924984717417e-05
-2.3310149771125822e-05   3.664297941631501e-06   -7.340924984717417e-05
-5.1173851261672175e-05   4.491263085915732e-06   -0.00012082661948892889
-5.1173851261672175e-05   4.491263085915732e-06   -0.00012082661948892889
-5.1173851261672175e-05   4.491263085915732e-06   -0.00012082661948892889
-5.1173851261672175e-05   4.491263085915732e-06   -0.00012082661948892889
4.28930637727502e-06   6.028091376775765e-06   -2.7465926449501054e-05
4.28930637727502e-06   6.028091376775765e-06   -2.7465926449501054e-05
4.28930637727502e-06   6.028091376775765e-06   -2.7465926449501054e-05
4.28930637727502e-06   6.028091376775765e-06   -2.7465926449501054e-05
3.6626077214079953e-06   7.457644850874894e-06   -0.00011969691747397882
3.6626077214079953e-06   7.457644850874894e-06   -0.00011969691747397882
3.6626077214079953e-06   7.457644850874894e-06   -0.00011969691747397882
3.6626077214079953e-06   7.457644850874894e-06   -0.00011969691747397882
-5.106188886302521e-05   9.264834778375803e-06   -2.957373712309086e-05
-5.106188886302521e-05   9.264834778375803e-06   -2.957373712309086e-05
-5.106188886302521e-05   9.264834778375803e-06   -2.957373712309086e-05
-5.106188886302521e-05   9.264834778375803e-06   -2.957373712309086e-05
-2.3581810608789595e-05   6.433063532680118e-06   -7.367480479939932e-05
-2.3581810608789595e-05   6.433063532680118e-06   -7.367480479939932e-05
-2.3581810608789595e-05   6.433063532680118e-06   -7.367480479939932e-05
-2.3581810608789595e-05   6.433063532680118e-06   -7.367480479939932e-05
4.8437899270909e-06   -8.689883624321673e-06   -0.00010978920320874744
4.8437899270909e-06   -8.689883624321673e-06   -0.00010978920320874744
4.8437899270909e-06   -8.689883624321673e-06   -0.00010978920320874744
4.8437899270909e-06   -8.689883624321673e-06   -0.00010978920320874744
6.0941129202489444e-05   -8.935039161918888e-06   -1.6440731072308212e-05
6.0941129202489444e-05   -8.935039161918888e-06   -1.6440731072308212e-05
6.0941129202489444e-05   -8.935039161918888e-06   -1.6440731072308212e-05
6.0941129202489444e-05   -8.935039161918888e-06   -1.6440731072308212e-05
6.142581300890707e-05   -6.556543835394371e-06   -0.0001113307645107072
6.142581300890707e-05   -6.556543835394371e-06   -0.0001113307645107072
6.142581300890707e-05   -6.556543835394371e-06   -0.0001113307645107072
6.142581300890707e-05   -6.556543835394371e-06   -0.0001113307645107072
4.607528893691406e-06   -6.048321039815643e-06   -1.693855799602816e-05
4.607528893691406e-06   -6.048321039815643e-06   -1.693855799602816e-05
4.607528893691406e-06   -6.048321039815643e-06   -1.693855799602816e-05
4.607528893691406e-06   -6.048321039815643e-06   -1.693855799602816e-05
3.253324969409632e-05   -7.236870998428367e-06   -6.276829602153562e-05
3.253324969409632e-05   -7.236870998428367e-06   -6.276829602153562e-05
3.253324969409632e-05   -7.236870998428367e-06   -6.276829602153562e-05
3.253324969409632e-05   -7.236870998428367e-06   -6.276829602153562e-05
4.6075288936913974e-06   -6.556543835394398e-06   -0.00011163569818805464
4.6075288936913974e-06   -6.556543835394398e-06   -0.00011163569818805464
4.6075288936913974e-06   -6.556543835394398e-06   -0.00011163569818805464
4.6075288936913974e-06   -6.556543835394398e-06   -0.00011163569818805464
6.142581300890715e-05   -6.048321039815643e-06   -1.6633624318680847e-05
6.142581300890715e-05   -6.048321039815643e-06   -1.6633624318680847e-05
6.142581300890715e-05   -6.048321039815643e-06   -1.6633624318680847e-05
6.142581300890715e-05   -6.048321039815643e-06   -1.6633624318680847e-05
6.110657238626272e-05   -4.1338884572160505e-06   -0.00011342207456996228
6.110657238626272e-05   -4.1338884572160505e-06   -0.00011342207456996228
6.110657238626272e-05   -4.1338884572160505e-06   -0.00011342207456996228
6.110657238626272e-05   -4.1338884572160505e-06   -0.00011342207456996228
4.289306377275012e-06   -3.2193333904181887e-06   -1.927536426172833e-05
4.289306377275012e-06   -3.2193333904181887e-06   -1.927536426172833e-05
4.289306377275012e-06   -3.2193333904181887e-06   -1.927536426172833e-05
4.289306377275012e-06   -3.2193333904181887e-06   -1.927536426172833e-05
3.217175354530196e-05   -4.930260090463972e-06   -6.471955352174558e-05
3.217175354530196e-05   -4.930260090463972e-06   -6.471955352174558e-05
3.217175354530196e-05   -4.930260090463972e-06   -6.471955352174558e-05
3.217175354530196e-05   -4.930260090463972e-06   -6.471955352174558e-05
4.289306377275008e-06   -4.133888457216023e-06   -0.00011397080761004101
4.289306377275008e-06   -4.133888457216023e-06   -0.00011397080761004101
4.289306377275008e-06   -4.133888457216023e-06   -0.00011397080761004101
4.289306377275008e-06   -4.133888457216023e-06   -0.00011397080761004101
6.110657238626292e-05   -3.2193333904181887e-06   -1.8726631221649653e-05
6.110657238626292e-05   -3.2193333904181887e-06   -1.8726631221649653e-05
6.110657238626292e-05   -3.2193333904181887e-06   -1.8726631221649653e-05
6.110657238626292e-05   -3.2193333904181887e-06   -1.8726631221649653e-05
5.930797704094974e-05   -8.77028830674649e-07   -0.00011362115109140401
5.930797704094974e-05   -8.77028830674649e-07   -0.00011362115109140401
5.930797704094974e-05   -8.77028830674649e-07   -0.00011362115109140401
5.930797704094974e-05   -8.77028830674649e-07   -0.00011362115109140401
3.6626077214079953e-06   2.814051136825965e-07   -2.157392925878229e-05
3.6626077214079953e-06   2.814051136825965e-07   -2.157392925878229e-05
3.6626077214079953e-06   2.814051136825965e-07   -2.157392925878229e-05
3.6626077214079953e-06   2.814051136825965e-07   -2.157392925878229e-05
3.180655020393148e-05   -2.2360462529118436e-06   -6.697002924303125e-05
3.180655020393148e-05   -2.2360462529118436e-06   -6.697002924303125e-05
3.180655020393148e-05   -2.2360462529118436e-06   -6.697002924303125e-05
3.180655020393148e-05   -2.2360462529118436e-06   -6.697002924303125e-05
6.0941129202489444e-05   -2.201149883433837e-05   -6.643872477939454e-05
6.0941129202489444e-05   -2.201149883433837e-05   -6.643872477939454e-05
6.0941129202489444e-05   -2.201149883433837e-05   -6.643872477939454e-05
6.0941129202489444e-05   -2.201149883433837e-05   -6.643872477939454e-05
0.00011633227257139281   -1.661758718606303e-05   2.9116194491076168e-05
0.00011633227257139281   -1.661758718606303e-05   2.9116194491076168e-05
0.00011633227257139281   -1.661758718606303e-05   2.9116194491076168e-05
0.00011633227257139281   -1.661758718606303e-05   2.9116194491076168e-05
0.00012071945171416784   -1.87418778928354e-05   -8.08136063489779e-05
0.00012071945171416784   -1.87418778928354e-05   -8.08136063489779e-05
0.00012071945171416784   -1.87418778928354e-05   -8.08136063489779e-05
0.00012071945171416784   -1.87418778928354e-05   -8.08136063489779e-05
6.142581300890727e-05   -1.5085789651880853e-05   1.5815471881883934e-05
6.142581300890727e-05   -1.5085789651880853e-05   1.5815471881883934e-05
6.142581300890727e-05   -1.5085789651880853e-05   1.5815471881883934e-05
6.142581300890727e-05   -1.5085789651880853e-05   1.5815471881883934e-05
8.567651872399968e-05   -1.8039723742881294e-05   -2.2830010522003296e-05
8.567651872399968e-05   -1.8039723742881294e-05   -2.2830010522003296e-05
8.567651872399968e-05   -1.8039723742881294e-05   -2.2830010522003296e-05
8.567651872399968e-05   -1.8039723742881294e-05   -2.2830010522003296e-05
6.14258130089071e-05   -1.8741877892835374e-05   -8.300725929355031e-05
6.14258130089071e-05   -1.8741877892835374e-05   -8.300725929355031e-05
6.14258130089071e-05   -1.8741877892835374e-05   -8.300725929355031e-05
6.14258130089071e-05   -1.8741877892835374e-05   -8.300725929355031e-05
0.00012071945171416784   -1.5085789651880853e-05   1.8009124826456717e-05
0.00012071945171416784   -1.5085789651880853e-05   1.8009124826456717e-05
0.00012071945171416784   -1.5085789651880853e-05   1.8009124826456717e-05
0.00012071945171416784   -1.5085789651880853e-05   1.8009124826456717e-05
0.00012024165941323099   -1.7130679769640446e-05   -8.790100990435785e-05
0.00012024165941323099   -1.7130679769640446e-05   -8.790100990435785e-05
0.00012024165941323099   -1.7130679769640446e-05   -8.790100990435785e-05
0.00012024165941323099   -1.7130679769640446e-05   -8.790100990435785e-05
6.110657238626292e-05   -1.3457496101729064e-05   8.453558273175337e-06
6.110657238626292e-05   -1.3457496101729064e-05   8.453558273175337e-06
6.110657238626292e-05   -1.3457496101729064e-05   8.453558273175337e-06
6.110657238626292e-05   -1.3457496101729064e-05   8.453558273175337e-06
8.864653389070417e-05   -1.593884233923044e-05   -3.5957569825059244e-05
8.864653389070417e-05   -1.593884233923044e-05   -3.5957569825059244e-05
8.864653389070417e-05   -1.593884233923044e-05   -3.5957569825059244e-05
8.864653389070417e-05   -1.593884233923044e-05   -3.5957569825059244e-05
6.110657238626281e-05   -1.713067976964042e-05   -9.010492010510455e-05
6.110657238626281e-05   -1.713067976964042e-05   -9.010492010510455e-05
6.110657238626281e-05   -1.713067976964042e-05   -9.010492010510455e-05
6.110657238626281e-05   -1.713067976964042e-05   -9.010492010510455e-05
0.00012024165941323099   -1.3457496101729064e-05   1.0657468473922052e-05
0.00012024165941323099   -1.3457496101729064e-05   1.0657468473922052e-05
0.00012024165941323099   -1.3457496101729064e-05   1.0657468473922052e-05
0.00012024165941323099   -1.3457496101729064e-05   1.0657468473922052e-05
0.00011948440936199024   -1.3330356713162463e-05   -0.00010232349641947874
0.00011948440936199024   -1.3330356713162463e-05   -0.00010232349641947874
0.00011948440936199024   -1.3330356713162463e-05   -0.00010232349641947874
0.00011948440936199024   -1.3330356713162463e-05   -0.00010232349641947874
5.9307977040949956e-05   -9.952529411154918e-06   -4.056138932282836e-06
5.9307977040949956e-05   -9.952529411154918e-06   -4.056138932282836e-06
5.9307977040949956e-05   -9.952529411154918e-06   -4.056138932282836e-06
5.9307977040949956e-05   -9.952529411154918e-06   -4.056138932282836e-06
8.608954051670458e-05   -1.3729469732763188e-05   -4.6425913865575584e-05
8.608954051670458e-05   -1.3729469732763188e-05   -4.6425913865575584e-05
8.608954051670458e-05   -1.3729469732763188e-05   -4.6425913865575584e-05
8.608954051670458e-05   -1.3729469732763188e-05   -4.6425913865575584e-05
-0.00013042285615484043   1.8796934326032627e-05   -8.99041902661265e-05
-0.00013042285615484043   1.8796934326032627e-05   -8.99041902661265e-05
-0.00013042285615484043   1.8796934326032627e-05   -8.99041902661265e-05
-0.00013042285615484043   1.8796934326032627e-05   -8.99041902661265e-05
-8.546590821397024e-05   1.4376448089724152e-05   -1.7628235439794615e-05
-8.546590821397024e-05   1.4376448089724152e-05   -1.7628235439794615e-05
-8.546590821397024e-05   1.4376448089724152e-05   -1.7628235439794615e-05
-8.546590821397024e-05   1.4376448089724152e-05   -1.7628235439794615e-05
-8.588605106907044e-05   2.255000268316595e-05   -7.464059126663792e-05
-8.588605106907044e-05   2.255000268316595e-05   -7.464059126663792e-05
-8.588605106907044e-05   2.255000268316595e-05   -7.464059126663792e-05
-8.588605106907044e-05   2.255000268316595e-05   -7.464059126663792e-05
-0.00012846700052797832   1.7383966052614795e-05   -5.72720190127377e-07
-0.00012846700052797832   1.7383966052614795e-05   -5.72720190127377e-07
-0.00012846700052797832   1.7383966052614795e-05   -5.72720190127377e-07
-0.00012846700052797832   1.7383966052614795e-05   -5.72720190127377e-07
-0.00010301253017032258   1.9110013666303683e-05   -4.403246602110056e-05
-0.00010301253017032258   1.9110013666303683e-05   -4.403246602110056e-05
-0.00010301253017032258   1.9110013666303683e-05   -4.403246602110056e-05
-0.00010301253017032258   1.9110013666303683e-05   -4.403246602110056e-05
-0.00012846700052797832   2.255000268316595e-05   -7.15409692883072e-05
-0.00012846700052797832   2.255000268316595e-05   -7.15409692883072e-05
-0.00012846700052797832   2.255000268316595e-05   -7.15409692883072e-05
-0.00012846700052797832   2.255000268316595e-05   -7.15409692883072e-05
-8.588605106907044e-05   1.7383966052614795e-05   -3.672342168457767e-06
-8.588605106907044e-05   1.7383966052614795e-05   -3.672342168457767e-06
-8.588605106907044e-05   1.7383966052614795e-05   -3.672342168457767e-06
-8.588605106907044e-05   1.7383966052614795e-05   -3.672342168457767e-06
-8.580645958203043e-05   2.424345569099857e-05   -6.385071320224223e-05
-8.580645958203043e-05   2.424345569099857e-05   -6.385071320224223e-05
-8.580645958203043e-05   2.424345569099857e-05   -6.385071320224223e-05
-8.580645958203043e-05   2.424345569099857e-05   -6.385071320224223e-05
-0.00012655667407123747   1.870406000864912e-05   7.389948355845575e-06
-0.00012655667407123747   1.870406000864912e-05   7.389948355845575e-06
-0.00012655667407123747   1.870406000864912e-05   7.389948355845575e-06
-0.00012655667407123747   1.870406000864912e-05   7.389948355845575e-06
-0.0001039141296346355   2.0853608091112225e-05   -3.1637354554634616e-05
-0.0001039141296346355   2.0853608091112225e-05   -3.1637354554634616e-05
-0.0001039141296346355   2.0853608091112225e-05   -3.1637354554634616e-05
-0.0001039141296346355   2.0853608091112225e-05   -3.1637354554634616e-05
-0.00012655667407123747   2.424345569099857e-05   -6.052707579283262e-05
-0.00012655667407123747   2.424345569099857e-05   -6.052707579283262e-05
-0.00012655667407123747   2.424345569099857e-05   -6.052707579283262e-05
-0.00012655667407123747   2.424345569099857e-05   -6.052707579283262e-05
-8.580645958203059e-05   1.870406000864912e-05   4.0663109464364575e-06
-8.580645958203059e-05   1.870406000864912e-05   4.0663109464364575e-06
-8.580645958203059e-05   1.870406000864912e-05   4.0663109464364575e-06
-8.580645958203059e-05   1.870406000864912e-05   4.0663109464364575e-06
-8.589938311064931e-05   2.558435670707473e-05   -4.873081590112561e-05
-8.589938311064931e-05   2.558435670707473e-05   -4.873081590112561e-05
-8.589938311064931e-05   2.558435670707473e-05   -4.873081590112561e-05
-8.589938311064931e-05   2.558435670707473e-05   -4.873081590112561e-05
-0.00012405667972993195   1.999921895989745e-05   1.8215761112651122e-05
-0.00012405667972993195   1.999921895989745e-05   1.8215761112651122e-05
-0.00012405667972993195   1.999921895989745e-05   1.8215761112651122e-05
-0.00012405667972993195   1.999921895989745e-05   1.8215761112651122e-05
-0.0001015565406624407   2.1767767418507875e-05   -2.0345599741665573e-05
-0.0001015565406624407   2.1767767418507875e-05   -2.0345599741665573e-05
-0.0001015565406624407   2.1767767418507875e-05   -2.0345599741665573e-05
-0.0001015565406624407   2.1767767418507875e-05   -2.0345599741665573e-05
-8.546590821397024e-05   8.746137783458051e-06   -0.00010396141989558685
-8.546590821397024e-05   8.746137783458051e-06   -0.00010396141989558685
-8.546590821397024e-05   8.746137783458051e-06   -0.00010396141989558685
-8.546590821397024e-05   8.746137783458051e-06   -0.00010396141989558685
-4.34575730187451e-05   7.1633683223924684e-06   -3.4897189580184235e-05
-4.34575730187451e-05   7.1633683223924684e-06   -3.4897189580184235e-05
-4.34575730187451e-05   7.1633683223924684e-06   -3.4897189580184235e-05
-4.34575730187451e-05   7.1633683223924684e-06   -3.4897189580184235e-05
-4.399125740033635e-05   1.219757703387937e-05   -0.00010249340114920765
-4.399125740033635e-05   1.219757703387937e-05   -0.00010249340114920765
-4.399125740033635e-05   1.219757703387937e-05   -0.00010249340114920765
-4.399125740033635e-05   1.219757703387937e-05   -0.00010249340114920765
-8.588605106907028e-05   1.0120136724804402e-05   -3.142228084920579e-05
-8.588605106907028e-05   1.0120136724804402e-05   -3.142228084920579e-05
-8.588605106907028e-05   1.0120136724804402e-05   -3.142228084920579e-05
-8.588605106907028e-05   1.0120136724804402e-05   -3.142228084920579e-05
-6.414708170835514e-05   1.0079925533989804e-05   -6.762976973590922e-05
-6.414708170835514e-05   1.0079925533989804e-05   -6.762976973590922e-05
-6.414708170835514e-05   1.0079925533989804e-05   -6.762976973590922e-05
-6.414708170835514e-05   1.0079925533989804e-05   -6.762976973590922e-05
-8.588605106907036e-05   1.219757703387937e-05   -0.00010124693696376242
-8.588605106907036e-05   1.219757703387937e-05   -0.00010124693696376242
-8.588605106907036e-05   1.219757703387937e-05   -0.00010124693696376242
-8.588605106907036e-05   1.219757703387937e-05   -0.00010124693696376242
-4.399125740033643e-05   1.012013672480462e-05   -3.266874503465069e-05
-4.399125740033643e-05   1.012013672480462e-05   -3.266874503465069e-05
-4.399125740033643e-05   1.012013672480462e-05   -3.266874503465069e-05
-4.399125740033643e-05   1.012013672480462e-05   -3.266874503465069e-05
-4.4339362028742254e-05   1.5053131732613322e-05   -9.97784957245929e-05
-4.4339362028742254e-05   1.5053131732613322e-05   -9.97784957245929e-05
-4.4339362028742254e-05   1.5053131732613322e-05   -9.97784957245929e-05
-4.4339362028742254e-05   1.5053131732613322e-05   -9.97784957245929e-05
-8.580645958203043e-05   1.2745359425451845e-05   -2.9282003084816306e-05
-8.580645958203043e-05   1.2745359425451845e-05   -2.9282003084816306e-05
-8.580645958203043e-05   1.2745359425451845e-05   -2.9282003084816306e-05
-8.580645958203043e-05   1.2745359425451845e-05   -2.9282003084816306e-05
-6.427113816081624e-05   1.2511365448971204e-05   -6.503380906761703e-05
-6.427113816081624e-05   1.2511365448971204e-05   -6.503380906761703e-05
-6.427113816081624e-05   1.2511365448971204e-05   -6.503380906761703e-05
-6.427113816081624e-05   1.2511365448971204e-05   -6.503380906761703e-05
-8.580645958203043e-05   1.505313173261343e-05   -9.839383234029625e-05
-8.580645958203043e-05   1.505313173261343e-05   -9.839383234029625e-05
-8.580645958203043e-05   1.505313173261343e-05   -9.839383234029625e-05
-8.580645958203043e-05   1.505313173261343e-05   -9.839383234029625e-05
-4.433936202874242e-05   1.2745359425452062e-05   -3.066666646911272e-05
-4.433936202874242e-05   1.2745359425452062e-05   -3.066666646911272e-05
-4.433936202874242e-05   1.2745359425452062e-05   -3.066666646911272e-05
-4.433936202874242e-05   1.2745359425452062e-05   -3.066666646911272e-05
-4.478763139214968e-05   1.8124480284275463e-05   -9.953608812960843e-05
-4.478763139214968e-05   1.8124480284275463e-05   -9.953608812960843e-05
-4.478763139214968e-05   1.8124480284275463e-05   -9.953608812960843e-05
-4.478763139214968e-05   1.8124480284275463e-05   -9.953608812960843e-05
-8.589938311064923e-05   1.5536227684987206e-05   -2.9463550372536254e-05
-8.589938311064923e-05   1.5536227684987206e-05   -2.9463550372536254e-05
-8.589938311064923e-05   1.5536227684987206e-05   -2.9463550372536254e-05
-8.589938311064923e-05   1.5536227684987206e-05   -2.9463550372536254e-05
-6.503831801784406e-05   1.4918238769446104e-05   -6.386119884455266e-05
-6.503831801784406e-05   1.4918238769446104e-05   -6.386119884455266e-05
-6.503831801784406e-05   1.4918238769446104e-05   -6.386119884455266e-05
-6.503831801784406e-05   1.4918238769446104e-05   -6.386119884455266e-05
-4.3457573018745044e-05   -2.574304220486238e-07   -0.00011204264699112785
-4.3457573018745044e-05   -2.574304220486238e-07   -0.00011204264699112785
-4.3457573018745044e-05   -2.574304220486238e-07   -0.00011204264699112785
-4.3457573018745044e-05   -2.574304220486238e-07   -0.00011204264699112785
-1.92545666219139e-06   3.803642070177547e-07   -4.243977628609868e-05
-1.92545666219139e-06   3.803642070177547e-07   -4.243977628609868e-05
-1.92545666219139e-06   3.803642070177547e-07   -4.243977628609868e-05
-1.92545666219139e-06   3.803642070177547e-07   -4.243977628609868e-05
-2.3544078912727427e-06   2.9219757524626827e-06   -0.00011100249621167561
-2.3544078912727427e-06   2.9219757524626827e-06   -0.00011100249621167561
-2.3544078912727427e-06   2.9219757524626827e-06   -0.00011100249621167561
-2.3544078912727427e-06   2.9219757524626827e-06   -0.00011100249621167561
-4.399125740033635e-05   3.289392333366819e-06   -4.182819697844554e-05
-4.399125740033635e-05   3.289392333366819e-06   -4.182819697844554e-05
-4.399125740033635e-05   3.289392333366819e-06   -4.182819697844554e-05
-4.399125740033635e-05   3.289392333366819e-06   -4.182819697844554e-05
-2.280388323384337e-05   1.915433811512982e-06   -7.63161121428215e-05
-2.280388323384337e-05   1.915433811512982e-06   -7.63161121428215e-05
-2.280388323384337e-05   1.915433811512982e-06   -7.63161121428215e-05
-2.280388323384337e-05   1.915433811512982e-06   -7.63161121428215e-05
-4.399125740033635e-05   2.9219757524626827e-06   -0.00011122294616021817
-4.399125740033635e-05   2.9219757524626827e-06   -0.00011122294616021817
-4.399125740033635e-05   2.9219757524626827e-06   -0.00011122294616021817
-4.399125740033635e-05   2.9219757524626827e-06   -0.00011122294616021817
-2.354407891272746e-06   3.289392333366819e-06   -4.1607747029902763e-05
-2.354407891272746e-06   3.289392333366819e-06   -4.1607747029902763e-05
-2.354407891272746e-06   3.289392333366819e-06   -4.1607747029902763e-05
-2.354407891272746e-06   3.289392333366819e-06   -4.1607747029902763e-05
-2.6664007571569854e-06   6.028091376775765e-06   -0.0001113063259555356
-2.6664007571569854e-06   6.028091376775765e-06   -0.0001113063259555356
-2.6664007571569854e-06   6.028091376775765e-06   -0.0001113063259555356
-2.6664007571569854e-06   6.028091376775765e-06   -0.0001113063259555356
-4.433936202874232e-05   6.189599205919669e-06   -4.194829520038002e-05
-4.433936202874232e-05   6.189599205919669e-06   -4.194829520038002e-05
-4.433936202874232e-05   6.189599205919669e-06   -4.194829520038002e-05
-4.433936202874232e-05   6.189599205919669e-06   -4.194829520038002e-05
-2.33558176658821e-05   4.480518699453572e-06   -7.589542083460016e-05
-2.33558176658821e-05   4.480518699453572e-06   -7.589542083460016e-05
-2.33558176658821e-05   4.480518699453572e-06   -7.589542083460016e-05
-2.33558176658821e-05   4.480518699453572e-06   -7.589542083460016e-05
-4.433936202874232e-05   6.028091376775765e-06   -0.00011140323065302201
-4.433936202874232e-05   6.028091376775765e-06   -0.00011140323065302201
-4.433936202874232e-05   6.028091376775765e-06   -0.00011140323065302201
-4.433936202874232e-05   6.028091376775765e-06   -0.00011140323065302201
-2.666400757156992e-06   6.189599205919669e-06   -4.185139050289329e-05
-2.666400757156992e-06   6.189599205919669e-06   -4.185139050289329e-05
-2.666400757156992e-06   6.189599205919669e-06   -4.185139050289329e-05
-2.666400757156992e-06   6.189599205919669e-06   -4.185139050289329e-05
-3.1532645535524777e-06   9.264834778375803e-06   -0.00011273944594606615
-3.1532645535524777e-06   9.264834778375803e-06   -0.00011273944594606615
-3.1532645535524777e-06   9.264834778375803e-06   -0.00011273944594606615
-3.1532645535524777e-06   9.264834778375803e-06   -0.00011273944594606615
-4.478763139214963e-05   9.157390160329914e-06   -4.328436777757704e-05
-4.478763139214963e-05   9.157390160329914e-06   -4.328436777757704e-05
-4.478763139214963e-05   9.157390160329914e-06   -4.328436777757704e-05
-4.478763139214963e-05   9.157390160329914e-06   -4.328436777757704e-05
-2.3941832657061898e-05   7.076059683135236e-06   -7.677856738307255e-05
-2.3941832657061898e-05   7.076059683135236e-06   -7.677856738307255e-05
-2.3941832657061898e-05   7.076059683135236e-06   -7.677856738307255e-05
-2.3941832657061898e-05   7.076059683135236e-06   -7.677856738307255e-05
-1.925456662191395e-06   -8.935039161918996e-06   -0.00010012939423987102
-1.925456662191395e-06   -8.935039161918996e-06   -0.00010012939423987102
-1.925456662191395e-06   -8.935039161918996e-06   -0.00010012939423987102
-1.925456662191395e-06   -8.935039161918996e-06   -0.00010012939423987102
3.9407443947165905e-05   -5.999954526406505e-06   -2.948017577630163e-05
3.9407443947165905e-05   -5.999954526406505e-06   -2.948017577630163e-05
3.9407443947165905e-05   -5.999954526406505e-06   -2.948017577630163e-05
3.9407443947165905e-05   -5.999954526406505e-06   -2.948017577630163e-05
3.9371378390866044e-05   -6.048321039815643e-06   -9.898820613449152e-05
3.9371378390866044e-05   -6.048321039815643e-06   -9.898820613449152e-05
3.9371378390866044e-05   -6.048321039815643e-06   -9.898820613449152e-05
3.9371378390866044e-05   -6.048321039815643e-06   -9.898820613449152e-05
-2.354407891272746e-06   -3.335538783316716e-06   -3.1072898351492794e-05
-2.354407891272746e-06   -3.335538783316716e-06   -3.1072898351492794e-05
-2.354407891272746e-06   -3.335538783316716e-06   -3.1072898351492794e-05
-2.354407891272746e-06   -3.335538783316716e-06   -3.1072898351492794e-05
1.8481881510343193e-05   -5.871025140844984e-06   -6.427875553966902e-05
1.8481881510343193e-05   -5.871025140844984e-06   -6.427875553966902e-05
1.8481881510343193e-05   -5.871025140844984e-06   -6.427875553966902e-05
1.8481881510343193e-05   -5.871025140844984e-06   -6.427875553966902e-05
-2.354407891272746e-06   -6.048321039815643e-06   -0.00010061587548839068
-2.354407891272746e-06   -6.048321039815643e-06   -0.00010061587548839068
-2.354407891272746e-06   -6.048321039815643e-06   -0.00010061587548839068
-2.354407891272746e-06   -6.048321039815643e-06   -0.00010061587548839068
3.9371378390866044e-05   -3.335538783316716e-06   -2.9445228997593362e-05
3.9371378390866044e-05   -3.335538783316716e-06   -2.9445228997593362e-05
3.9371378390866044e-05   -3.335538783316716e-06   -2.9445228997593362e-05
3.9371378390866044e-05   -3.335538783316716e-06   -2.9445228997593362e-05
3.954898926735427e-05   -3.2193333904181887e-06   -0.00010161354602931336
3.954898926735427e-05   -3.2193333904181887e-06   -0.00010161354602931336
3.954898926735427e-05   -3.2193333904181887e-06   -0.00010161354602931336
3.954898926735427e-05   -3.2193333904181887e-06   -0.00010161354602931336
-2.6664007571569955e-06   -7.156371596686497e-07   -3.2756780393578084e-05
-2.6664007571569955e-06   -7.156371596686497e-07   -3.2756780393578084e-05
-2.6664007571569955e-06   -7.156371596686497e-07   -3.2756780393578084e-05
-2.6664007571569955e-06   -7.156371596686497e-07   -3.2756780393578084e-05
1.79114845402516e-05   -3.560202255359921e-06   -6.534651683184374e-05
1.79114845402516e-05   -3.560202255359921e-06   -6.534651683184374e-05
1.79114845402516e-05   -3.560202255359921e-06   -6.534651683184374e-05
1.79114845402516e-05   -3.560202255359921e-06   -6.534651683184374e-05
-2.666400757156987e-06   -3.2193333904181887e-06   -0.00010311576376776272
-2.666400757156987e-06   -3.2193333904181887e-06   -0.00010311576376776272
-2.666400757156987e-06   -3.2193333904181887e-06   -0.00010311576376776272
-2.666400757156987e-06   -3.2193333904181887e-06   -0.00010311576376776272
3.954898926735427e-05   -7.156371596686497e-07   -3.125456265512777e-05
3.954898926735427e-05   -7.156371596686497e-07   -3.125456265512777e-05
3.954898926735427e-05   -7.156371596686497e-07   -3.125456265512777e-05
3.954898926735427e-05   -7.156371596686497e-07   -3.125456265512777e-05
3.923869745241275e-05   2.8140511368270494e-07   -0.00010458310807237727
3.923869745241275e-05   2.8140511368270494e-07   -0.00010458310807237727
3.923869745241275e-05   2.8140511368270494e-07   -0.00010458310807237727
3.923869745241275e-05   2.8140511368270494e-07   -0.00010458310807237727
-3.1532645535524828e-06   2.3494783901515087e-06   -3.517068202831668e-05
-3.1532645535524828e-06   2.3494783901515087e-06   -3.517068202831668e-05
-3.1532645535524828e-06   2.3494783901515087e-06   -3.517068202831668e-05
-3.1532645535524828e-06   2.3494783901515087e-06   -3.517068202831668e-05
1.7708108497723884e-05   -1.0860848091458946e-06   -6.787829919419834e-05
1.7708108497723884e-05   -1.0860848091458946e-06   -6.787829919419834e-05
1.7708108497723884e-05   -1.0860848091458946e-06   -6.787829919419834e-05
1.7708108497723884e-05   -1.0860848091458946e-06   -6.787829919419834e-05
3.9407443947165824e-05   -1.6617587186062923e-05   -5.6047764884144616e-05
3.9407443947165824e-05   -1.6617587186062923e-05   -5.6047764884144616e-05
3.9407443947165824e-05   -1.6617587186062923e-05   -5.6047764884144616e-05
3.9407443947165824e-05   -1.6617587186062923e-05   -5.6047764884144616e-05
7.815150204487951e-05   -1.0895075865440798e-05   1.1959172071084891e-05
7.815150204487951e-05   -1.0895075865440798e-05   1.1959172071084891e-05
7.815150204487951e-05   -1.0895075865440798e-05   1.1959172071084891e-05
7.815150204487951e-05   -1.0895075865440798e-05   1.1959172071084891e-05
8.07653084823517e-05   -1.5085789651880853e-05   -6.310539380758465e-05
8.07653084823517e-05   -1.5085789651880853e-05   -6.310539380758465e-05
8.07653084823517e-05   -1.5085789651880853e-05   -6.310539380758465e-05
8.07653084823517e-05   -1.5085789651880853e-05   -6.310539380758465e-05
3.937137839086599e-05   -9.362929441311197e-06   2.4507735518832256e-06
3.937137839086599e-05   -9.362929441311197e-06   2.4507735518832256e-06
3.937137839086599e-05   -9.362929441311197e-06   2.4507735518832256e-06
3.937137839086599e-05   -9.362929441311197e-06   2.4507735518832256e-06
5.688385214860838e-05   -1.2837145671420807e-05   -2.4652152972955003e-05
5.688385214860838e-05   -1.2837145671420807e-05   -2.4652152972955003e-05
5.688385214860838e-05   -1.2837145671420807e-05   -2.4652152972955003e-05
5.688385214860838e-05   -1.2837145671420807e-05   -2.4652152972955003e-05
3.9371378390865936e-05   -1.5085789651880961e-05   -6.653910993392628e-05
3.9371378390865936e-05   -1.5085789651880961e-05   -6.653910993392628e-05
3.9371378390865936e-05   -1.5085789651880961e-05   -6.653910993392628e-05
3.9371378390865936e-05   -1.5085789651880961e-05   -6.653910993392628e-05
8.07653084823517e-05   -9.362929441311197e-06   5.884489678225214e-06
8.07653084823517e-05   -9.362929441311197e-06   5.884489678225214e-06
8.07653084823517e-05   -9.362929441311197e-06   5.884489678225214e-06
8.07653084823517e-05   -9.362929441311197e-06   5.884489678225214e-06
8.277033376213086e-05   -1.3457496101729064e-05   -7.118597471322614e-05
8.277033376213086e-05   -1.3457496101729064e-05   -7.118597471322614e-05
8.277033376213086e-05   -1.3457496101729064e-05   -7.118597471322614e-05
8.277033376213086e-05   -1.3457496101729064e-05   -7.118597471322614e-05
3.9548989267354105e-05   -8.045193066292264e-06   -2.3977823765275073e-06
3.9548989267354105e-05   -8.045193066292264e-06   -2.3977823765275073e-06
3.9548989267354105e-05   -8.045193066292264e-06   -2.3977823765275073e-06
3.9548989267354105e-05   -8.045193066292264e-06   -2.3977823765275073e-06
5.8804377916987175e-05   -1.1848257527578864e-05   -3.2208258115810125e-05
5.8804377916987175e-05   -1.1848257527578864e-05   -3.2208258115810125e-05
5.8804377916987175e-05   -1.1848257527578864e-05   -3.2208258115810125e-05
5.8804377916987175e-05   -1.1848257527578864e-05   -3.2208258115810125e-05
3.9548989267354186e-05   -1.3457496101729064e-05   -7.443335653448824e-05
3.9548989267354186e-05   -1.3457496101729064e-05   -7.443335653448824e-05
3.9548989267354186e-05   -1.3457496101729064e-05   -7.443335653448824e-05
3.9548989267354186e-05   -1.3457496101729064e-05   -7.443335653448824e-05
8.27703337621307e-05   -8.045193066292047e-06   8.495994447352013e-07
8.27703337621307e-05   -8.045193066292047e-06   8.495994447352013e-07
8.27703337621307e-05   -8.045193066292047e-06   8.495994447352013e-07
8.27703337621307e-05   -8.045193066292047e-06   8.495994447352013e-07
8.490357199645031e-05   -9.952529411154918e-06   -8.492525798570543e-05
8.490357199645031e-05   -9.952529411154918e-06   -8.492525798570543e-05
8.490357199645031e-05   -9.952529411154918e-06   -8.492525798570543e-05
8.490357199645031e-05   -9.952529411154918e-06   -8.492525798570543e-05
3.923869745241259e-05   -5.227329199844043e-06   -1.1652253872429551e-05
3.923869745241259e-05   -5.227329199844043e-06   -1.1652253872429551e-05
3.923869745241259e-05   -5.227329199844043e-06   -1.1652253872429551e-05
3.923869745241259e-05   -5.227329199844043e-06   -1.1652253872429551e-05
5.854100292151636e-05   -1.0211381436939422e-05   -4.0832331645344845e-05
5.854100292151636e-05   -1.0211381436939422e-05   -4.0832331645344845e-05
5.854100292151636e-05   -1.0211381436939422e-05   -4.0832331645344845e-05
5.854100292151636e-05   -1.0211381436939422e-05   -4.0832331645344845e-05
-9.385554488005308e-05   1.4376448089724152e-05   -7.13194285785802e-05
-9.385554488005308e-05   1.4376448089724152e-05   -7.13194285785802e-05
-9.385554488005308e-05   1.4376448089724152e-05   -7.13194285785802e-05
-9.385554488005308e-05   1.4376448089724152e-05   -7.13194285785802e-05
-6.385528746840247e-05   9.157964911286594e-06   -2.4450089466224933e-05
-6.385528746840247e-05   9.157964911286594e-06   -2.4450089466224933e-05
-6.385528746840247e-05   9.157964911286594e-06   -2.4450089466224933e-05
-6.385528746840247e-05   9.157964911286594e-06   -2.4450089466224933e-05
-6.362384854820377e-05   1.7383966052614795e-05   -6.058634009670563e-05
-6.362384854820377e-05   1.7383966052614795e-05   -6.058634009670563e-05
-6.362384854820377e-05   1.7383966052614795e-05   -6.058634009670563e-05
-6.362384854820377e-05   1.7383966052614795e-05   -6.058634009670563e-05
-9.10604401961815e-05   1.1650241020729835e-05   -1.1418452330945288e-05
-9.10604401961815e-05   1.1650241020729835e-05   -1.1418452330945288e-05
-9.10604401961815e-05   1.1650241020729835e-05   -1.1418452330945288e-05
-9.10604401961815e-05   1.1650241020729835e-05   -1.1418452330945288e-05
-7.478577251347656e-05   1.3841324693142929e-05   -3.985754867223473e-05
-7.478577251347656e-05   1.3841324693142929e-05   -3.985754867223473e-05
-7.478577251347656e-05   1.3841324693142929e-05   -3.985754867223473e-05
-7.478577251347656e-05   1.3841324693142929e-05   -3.985754867223473e-05
-9.10604401961815e-05   1.7383966052614795e-05   -5.7146105077574786e-05
-9.10604401961815e-05   1.7383966052614795e-05   -5.7146105077574786e-05
-9.10604401961815e-05   1.7383966052614795e-05   -5.7146105077574786e-05
-9.10604401961815e-05   1.7383966052614795e-05   -5.7146105077574786e-05
-6.362384854820388e-05   1.1650241020729835e-05   -1.4858687350076303e-05
-6.362384854820388e-05   1.1650241020729835e-05   -1.4858687350076303e-05
-6.362384854820388e-05   1.1650241020729835e-05   -1.4858687350076303e-05
-6.362384854820388e-05   1.1650241020729835e-05   -1.4858687350076303e-05
-6.314201395164482e-05   1.870406000864912e-05   -5.2830149539917796e-05
-6.314201395164482e-05   1.870406000864912e-05   -5.2830149539917796e-05
-6.314201395164482e-05   1.870406000864912e-05   -5.2830149539917796e-05
-6.314201395164482e-05   1.870406000864912e-05   -5.2830149539917796e-05
-8.89689110144784e-05   1.2809769081674992e-05   -6.248746545677204e-06
-8.89689110144784e-05   1.2809769081674992e-05   -6.248746545677204e-06
-8.89689110144784e-05   1.2809769081674992e-05   -6.248746545677204e-06
-8.89689110144784e-05   1.2809769081674992e-05   -6.248746545677204e-06
-7.479399413839482e-05   1.5231662268906047e-05   -3.1326743918155516e-05
-7.479399413839482e-05   1.5231662268906047e-05   -3.1326743918155516e-05
-7.479399413839482e-05   1.5231662268906047e-05   -3.1326743918155516e-05
-7.479399413839482e-05   1.5231662268906047e-05   -3.1326743918155516e-05
-8.89689110144784e-05   1.870406000864912e-05   -4.929357498373332e-05
-8.89689110144784e-05   1.870406000864912e-05   -4.929357498373332e-05
-8.89689110144784e-05   1.870406000864912e-05   -4.929357498373332e-05
-8.89689110144784e-05   1.870406000864912e-05   -4.929357498373332e-05
-6.314201395164493e-05   1.2809769081674992e-05   -9.785321101861638e-06
-6.314201395164493e-05   1.2809769081674992e-05   -9.785321101861638e-06
-6.314201395164493e-05   1.2809769081674992e-05   -9.785321101861638e-06
-6.314201395164493e-05   1.2809769081674992e-05   -9.785321101861638e-06
-6.294775403211506e-05   1.999921895989745e-05   -4.208727308184913e-05
-6.294775403211506e-05   1.999921895989745e-05   -4.208727308184913e-05
-6.294775403211506e-05   1.999921895989745e-05   -4.208727308184913e-05
-6.294775403211506e-05   1.999921895989745e-05   -4.208727308184913e-05
-8.622986232713456e-05   1.4265262198908052e-05   1.5661479977734788e-07
-8.622986232713456e-05   1.4265262198908052e-05   1.5661479977734788e-07
-8.622986232713456e-05   1.4265262198908052e-05   1.5661479977734788e-07
-8.622986232713456e-05   1.4265262198908052e-05   1.5661479977734788e-07
-7.258330352975635e-05   1.5981810531564373e-05   -2.36175788621136e-05
-7.258330352975635e-05   1.5981810531564373e-05   -2.36175788621136e-05
-7.258330352975635e-05   1.5981810531564373e-05   -2.36175788621136e-05
-7.258330352975635e-05   1.5981810531564373e-05   -2.36175788621136e-05
-6.385528746840236e-05   7.1633683223924684e-06   -9.076981094939302e-05
-6.385528746840236e-05   7.1633683223924684e-06   -9.076981094939302e-05
-6.385528746840236e-05   7.1633683223924684e-06   -9.076981094939302e-05
-6.385528746840236e-05   7.1633683223924684e-06   -9.076981094939302e-05
-3.667857925347047e-05   4.72643208555769e-06   -4.693745899994069e-05
-3.667857925347047e-05   4.72643208555769e-06   -4.693745899994069e-05
-3.667857925347047e-05   4.72643208555769e-06   -4.693745899994069e-05
-3.667857925347047e-05   4.72643208555769e-06   -4.693745899994069e-05
-3.669590747956225e-05   1.0120136724804402e-05   -8.999449700702877e-05
-3.669590747956225e-05   1.0120136724804402e-05   -8.999449700702877e-05
-3.669590747956225e-05   1.0120136724804402e-05   -8.999449700702877e-05
-3.669590747956225e-05   1.0120136724804402e-05   -8.999449700702877e-05
-6.362384854820377e-05   7.356439675512607e-06   -4.345637699638418e-05
-6.362384854820377e-05   7.356439675512607e-06   -4.345637699638418e-05
-6.362384854820377e-05   7.356439675512607e-06   -4.345637699638418e-05
-6.362384854820377e-05   7.356439675512607e-06   -4.345637699638418e-05
-4.975086713842976e-05   7.830263210144772e-06   -6.686230680012063e-05
-4.975086713842976e-05   7.830263210144772e-06   -6.686230680012063e-05
-4.975086713842976e-05   7.830263210144772e-06   -6.686230680012063e-05
-4.975086713842976e-05   7.830263210144772e-06   -6.686230680012063e-05
-6.362384854820372e-05   1.0120136724804402e-05   -8.833627877745311e-05
-6.362384854820372e-05   1.0120136724804402e-05   -8.833627877745311e-05
-6.362384854820372e-05   1.0120136724804402e-05   -8.833627877745311e-05
-6.362384854820372e-05   1.0120136724804402e-05   -8.833627877745311e-05
-3.669590747956225e-05   7.356439675512607e-06   -4.511459522595952e-05
-3.669590747956225e-05   7.356439675512607e-06   -4.511459522595952e-05
-3.669590747956225e-05   7.356439675512607e-06   -4.511459522595952e-05
-3.669590747956225e-05   7.356439675512607e-06   -4.511459522595952e-05
-3.666801266389926e-05   1.2745359425452062e-05   -8.797694906132196e-05
-3.666801266389926e-05   1.2745359425452062e-05   -8.797694906132196e-05
-3.666801266389926e-05   1.2745359425452062e-05   -8.797694906132196e-05
-3.666801266389926e-05   1.2745359425452062e-05   -8.797694906132196e-05
-6.314201395164482e-05   9.7478836085321e-06   -4.205512809159423e-05
-6.314201395164482e-05   9.7478836085321e-06   -4.205512809159423e-05
-6.314201395164482e-05   9.7478836085321e-06   -4.205512809159423e-05
-6.314201395164482e-05   9.7478836085321e-06   -4.205512809159423e-05
-4.951821027568434e-05   9.98852192088482e-06   -6.490585053893928e-05
-4.951821027568434e-05   9.98852192088482e-06   -6.490585053893928e-05
-4.951821027568434e-05   9.98852192088482e-06   -6.490585053893928e-05
-4.951821027568434e-05   9.98852192088482e-06   -6.490585053893928e-05
-6.314201395164482e-05   1.2745359425452062e-05   -8.617846357116996e-05
-6.314201395164482e-05   1.2745359425452062e-05   -8.617846357116996e-05
-6.314201395164482e-05   1.2745359425452062e-05   -8.617846357116996e-05
-6.314201395164482e-05   1.2745359425452062e-05   -8.617846357116996e-05
-3.6668012663899316e-05   9.7478836085321e-06   -4.38536135817458e-05
-3.6668012663899316e-05   9.7478836085321e-06   -4.38536135817458e-05
-3.6668012663899316e-05   9.7478836085321e-06   -4.38536135817458e-05
-3.6668012663899316e-05   9.7478836085321e-06   -4.38536135817458e-05
-3.669621733290451e-05   1.5536227684987422e-05   -8.83309694105351e-05
-3.669621733290451e-05   1.5536227684987422e-05   -8.83309694105351e-05
-3.669621733290451e-05   1.5536227684987422e-05   -8.83309694105351e-05
-3.669621733290451e-05   1.5536227684987422e-05   -8.83309694105351e-05
-6.294775403211511e-05   1.2343781865312674e-05   -4.266294075337901e-05
-6.294775403211511e-05   1.2343781865312674e-05   -4.266294075337901e-05
-6.294775403211511e-05   1.2343781865312674e-05   -4.266294075337901e-05
-6.294775403211511e-05   1.2343781865312674e-05   -4.266294075337901e-05
-4.983806109042289e-05   1.2121887156160737e-05   -6.437929216404148e-05
-4.983806109042289e-05   1.2121887156160737e-05   -6.437929216404148e-05
-4.983806109042289e-05   1.2121887156160737e-05   -6.437929216404148e-05
-4.983806109042289e-05   1.2121887156160737e-05   -6.437929216404148e-05
-3.6678579253470416e-05   3.803642070175379e-07   -0.00010015723617484837
-3.6678579253470416e-05   3.803642070175379e-07   -0.00010015723617484837
-3.6678579253470416e-05   3.803642070175379e-07   -0.00010015723617484837
-3.6678579253470416e-05   3.803642070175379e-07   -0.00010015723617484837
-9.887091592184135e-06   8.085755805831239e-07   -5.5247829915231936e-05
-9.887091592184135e-06   8.085755805831239e-07   -5.5247829915231936e-05
-9.887091592184135e-06   8.085755805831239e-07   -5.5247829915231936e-05
-9.887091592184135e-06   8.085755805831239e-07   -5.5247829915231936e-05
-9.905037642828022e-06   3.289392333366819e-06   -9.905693018143723e-05
-9.905037642828022e-06   3.289392333366819e-06   -9.905693018143723e-05
-9.905037642828022e-06   3.289392333366819e-06   -9.905693018143723e-05
-9.905037642828022e-06   3.289392333366819e-06   -9.905693018143723e-05
-3.6695907479562226e-05   3.4510902823434685e-06   -5.450249922293301e-05
-3.6695907479562226e-05   3.4510902823434685e-06   -5.450249922293301e-05
-3.6695907479562226e-05   3.4510902823434685e-06   -5.450249922293301e-05
-3.6695907479562226e-05   3.4510902823434685e-06   -5.450249922293301e-05
-2.3137334650728717e-05   2.3227060496442287e-06   -7.642309006470265e-05
-2.3137334650728717e-05   2.3227060496442287e-06   -7.642309006470265e-05
-2.3137334650728717e-05   2.3227060496442287e-06   -7.642309006470265e-05
-2.3137334650728717e-05   2.3227060496442287e-06   -7.642309006470265e-05
-3.6695907479562226e-05   3.289392333366819e-06   -9.915394895082324e-05
-3.6695907479562226e-05   3.289392333366819e-06   -9.915394895082324e-05
-3.6695907479562226e-05   3.289392333366819e-06   -9.915394895082324e-05
-3.6695907479562226e-05   3.289392333366819e-06   -9.915394895082324e-05
-9.905037642828022e-06   3.4510902823434685e-06   -5.440548045354695e-05
-9.905037642828022e-06   3.4510902823434685e-06   -5.440548045354695e-05
-9.905037642828022e-06   3.4510902823434685e-06   -5.440548045354695e-05
-9.905037642828022e-06   3.4510902823434685e-06   -5.440548045354695e-05
-9.869207252826905e-06   6.189599205919669e-06   -9.931112233237907e-05
-9.869207252826905e-06   6.189599205919669e-06   -9.931112233237907e-05
-9.869207252826905e-06   6.189599205919669e-06   -9.931112233237907e-05
-9.869207252826905e-06   6.189599205919669e-06   -9.931112233237907e-05
-3.666801266389926e-05   6.102024972935846e-06   -5.459390210746834e-05
-3.666801266389926e-05   6.102024972935846e-06   -5.459390210746834e-05
-3.666801266389926e-05   6.102024972935846e-06   -5.459390210746834e-05
-3.666801266389926e-05   6.102024972935846e-06   -5.459390210746834e-05
-2.3291490072069143e-05   4.633331023553818e-06   -7.600689005755597e-05
-2.3291490072069143e-05   4.633331023553818e-06   -7.600689005755597e-05
-2.3291490072069143e-05   4.633331023553818e-06   -7.600689005755597e-05
-2.3291490072069143e-05   4.633331023553818e-06   -7.600689005755597e-05
-3.666801266389926e-05   6.189599205919669e-06   -9.92585777925888e-05
-3.666801266389926e-05   6.189599205919669e-06   -9.92585777925888e-05
-3.666801266389926e-05   6.189599205919669e-06   -9.92585777925888e-05
-3.666801266389926e-05   6.189599205919669e-06   -9.92585777925888e-05
-9.869207252826922e-06   6.102024972935629e-06   -5.464644664725834e-05
-9.869207252826922e-06   6.102024972935629e-06   -5.464644664725834e-05
-9.869207252826922e-06   6.102024972935629e-06   -5.464644664725834e-05
-9.869207252826922e-06   6.102024972935629e-06   -5.464644664725834e-05
-9.884401830317962e-06   9.157390160329914e-06   -0.00010081368357796154
-9.884401830317962e-06   9.157390160329914e-06   -0.00010081368357796154
-9.884401830317962e-06   9.157390160329914e-06   -0.00010081368357796154
-9.884401830317962e-06   9.157390160329914e-06   -0.00010081368357796154
-3.669621733290448e-05   8.799309623732559e-06   -5.591247608502522e-05
-3.669621733290448e-05   8.799309623732559e-06   -5.591247608502522e-05
-3.669621733290448e-05   8.799309623732559e-06   -5.591247608502522e-05
-3.669621733290448e-05   8.799309623732559e-06   -5.591247608502522e-05
-2.3491023829517192e-05   6.974285924227089e-06   -7.682611770430079e-05
-2.3491023829517192e-05   6.974285924227089e-06   -7.682611770430079e-05
-2.3491023829517192e-05   6.974285924227089e-06   -7.682611770430079e-05
-2.3491023829517192e-05   6.974285924227089e-06   -7.682611770430079e-05
-9.887091592184116e-06   -5.999954526406505e-06   -8.870175962221946e-05
-9.887091592184116e-06   -5.999954526406505e-06   -8.870175962221946e-05
-9.887091592184116e-06   -5.999954526406505e-06   -8.870175962221946e-05
-9.887091592184116e-06   -5.999954526406505e-06   -8.870175962221946e-05
1.652613178858346e-05   -2.7759252587812675e-06   -4.27453030936981e-05
1.652613178858346e-05   -2.7759252587812675e-06   -4.27453030936981e-05
1.652613178858346e-05   -2.7759252587812675e-06   -4.27453030936981e-05
1.652613178858346e-05   -2.7759252587812675e-06   -4.27453030936981e-05
1.67422120340182e-05   -3.335538783316716e-06   -8.669399456374093e-05
1.67422120340182e-05   -3.335538783316716e-06   -8.669399456374093e-05
1.67422120340182e-05   -3.335538783316716e-06   -8.669399456374093e-05
1.67422120340182e-05   -3.335538783316716e-06   -8.669399456374093e-05
-9.905037642828022e-06   -2.8872721783996386e-07   -4.410999870828326e-05
-9.905037642828022e-06   -2.8872721783996386e-07   -4.410999870828326e-05
-9.905037642828022e-06   -2.8872721783996386e-07   -4.410999870828326e-05
-9.905037642828022e-06   -2.8872721783996386e-07   -4.410999870828326e-05
3.382923703313698e-06   -2.8706187794537603e-06   -6.470746601488462e-05
3.382923703313698e-06   -2.8706187794537603e-06   -6.470746601488462e-05
3.382923703313698e-06   -2.8706187794537603e-06   -6.470746601488462e-05
3.382923703313698e-06   -2.8706187794537603e-06   -6.470746601488462e-05
-9.905037642828022e-06   -3.335538783316716e-06   -8.852208150302693e-05
-9.905037642828022e-06   -3.335538783316716e-06   -8.852208150302693e-05
-9.905037642828022e-06   -3.335538783316716e-06   -8.852208150302693e-05
-9.905037642828022e-06   -3.335538783316716e-06   -8.852208150302693e-05
1.6742212034018256e-05   -2.8872721783996386e-07   -4.228191176899746e-05
1.6742212034018256e-05   -2.8872721783996386e-07   -4.228191176899746e-05
1.6742212034018256e-05   -2.8872721783996386e-07   -4.228191176899746e-05
1.6742212034018256e-05   -2.8872721783996386e-07   -4.228191176899746e-05
1.7248568872752e-05   -7.156371596684329e-07   -8.852371087981581e-05
1.7248568872752e-05   -7.156371596684329e-07   -8.852371087981581e-05
1.7248568872752e-05   -7.156371596684329e-07   -8.852371087981581e-05
1.7248568872752e-05   -7.156371596684329e-07   -8.852371087981581e-05
-9.869207252826922e-06   2.1056984124106625e-06   -4.5020218680431855e-05
-9.869207252826922e-06   2.1056984124106625e-06   -4.5020218680431855e-05
-9.869207252826922e-06   2.1056984124106625e-06   -4.5020218680431855e-05
-9.869207252826922e-06   2.1056984124106625e-06   -4.5020218680431855e-05
3.2307613383590884e-06   -8.019339060309945e-07   -6.510892027467702e-05
3.2307613383590884e-06   -8.019339060309945e-07   -6.510892027467702e-05
3.2307613383590884e-06   -8.019339060309945e-07   -6.510892027467702e-05
3.2307613383590884e-06   -8.019339060309945e-07   -6.510892027467702e-05
-9.869207252826913e-06   -7.156371596686497e-07   -9.021651222306307e-05
-9.869207252826913e-06   -7.156371596686497e-07   -9.021651222306307e-05
-9.869207252826913e-06   -7.156371596686497e-07   -9.021651222306307e-05
-9.869207252826913e-06   -7.156371596686497e-07   -9.021651222306307e-05
1.7248568872752027e-05   2.1056984124108793e-06   -4.332741733718414e-05
1.7248568872752027e-05   2.1056984124108793e-06   -4.332741733718414e-05
1.7248568872752027e-05   2.1056984124108793e-06   -4.332741733718414e-05
1.7248568872752027e-05   2.1056984124108793e-06   -4.332741733718414e-05
1.7495648963098992e-05   2.3494783901515087e-06   -9.113408050946063e-05
1.7495648963098992e-05   2.3494783901515087e-06   -9.113408050946063e-05
1.7495648963098992e-05   2.3494783901515087e-06   -9.113408050946063e-05
1.7495648963098992e-05   2.3494783901515087e-06   -9.113408050946063e-05
-9.884401830317946e-06   4.8518959708391315e-06   -4.700211306884477e-05
-9.884401830317946e-06   4.8518959708391315e-06   -4.700211306884477e-05
-9.884401830317946e-06   4.8518959708391315e-06   -4.700211306884477e-05
-9.884401830317946e-06   4.8518959708391315e-06   -4.700211306884477e-05
3.323466995959043e-06   1.4127077631793418e-06   -6.695171485471052e-05
3.323466995959043e-06   1.4127077631793418e-06   -6.695171485471052e-05
3.323466995959043e-06   1.4127077631793418e-06   -6.695171485471052e-05
3.323466995959043e-06   1.4127077631793418e-06   -6.695171485471052e-05
1.6526131788583407e-05   -1.0895075865440798e-05   -4.876150100663074e-05
1.6526131788583407e-05   -1.0895075865440798e-05   -4.876150100663074e-05
1.6526131788583407e-05   -1.0895075865440798e-05   -4.876150100663074e-05
1.6526131788583407e-05   -1.0895075865440798e-05   -4.876150100663074e-05
4.0028126718114846e-05   -5.111173748102412e-06   -6.121168187008582e-06
4.0028126718114846e-05   -5.111173748102412e-06   -6.121168187008582e-06
4.0028126718114846e-05   -5.111173748102412e-06   -6.121168187008582e-06
4.0028126718114846e-05   -5.111173748102412e-06   -6.121168187008582e-06
4.280416345347007e-05   -9.362929441311197e-06   -5.1237546411614344e-05
4.280416345347007e-05   -9.362929441311197e-06   -5.1237546411614344e-05
4.280416345347007e-05   -9.362929441311197e-06   -5.1237546411614344e-05
4.280416345347007e-05   -9.362929441311197e-06   -5.1237546411614344e-05
1.67422120340182e-05   -3.42885343689427e-06   -1.1361406315178214e-05
1.67422120340182e-05   -3.42885343689427e-06   -1.1361406315178214e-05
1.67422120340182e-05   -3.42885343689427e-06   -1.1361406315178214e-05
1.67422120340182e-05   -3.42885343689427e-06   -1.1361406315178214e-05
2.7787559551762343e-05   -6.976851409572302e-06   -2.764152006114488e-05
2.7787559551762343e-05   -6.976851409572302e-06   -2.764152006114488e-05
2.7787559551762343e-05   -6.976851409572302e-06   -2.764152006114488e-05
2.7787559551762343e-05   -6.976851409572302e-06   -2.764152006114488e-05
1.67422120340182e-05   -9.362929441311197e-06   -5.479799201426412e-05
1.67422120340182e-05   -9.362929441311197e-06   -5.479799201426412e-05
1.67422120340182e-05   -9.362929441311197e-06   -5.479799201426412e-05
1.67422120340182e-05   -9.362929441311197e-06   -5.479799201426412e-05
4.280416345346991e-05   -3.42885343689427e-06   -7.800960712527841e-06
4.280416345346991e-05   -3.42885343689427e-06   -7.800960712527841e-06
4.280416345346991e-05   -3.42885343689427e-06   -7.800960712527841e-06
4.280416345346991e-05   -3.42885343689427e-06   -7.800960712527841e-06
4.493909560284294e-05   -8.045193066292047e-06   -5.6199037918202265e-05
4.493909560284294e-05   -8.045193066292047e-06   -5.6199037918202265e-05
4.493909560284294e-05   -8.045193066292047e-06   -5.6199037918202265e-05
4.493909560284294e-05   -8.045193066292047e-06   -5.6199037918202265e-05
1.7248568872752027e-05   -2.2653719279372257e-06   -1.3516052717730393e-05
1.7248568872752027e-05   -2.2653719279372257e-06   -1.3516052717730393e-05
1.7248568872752027e-05   -2.2653719279372257e-06   -1.3516052717730393e-05
1.7248568872752027e-05   -2.2653719279372257e-06   -1.3516052717730393e-05
2.9487882860564668e-05   -6.113902401900682e-06   -3.1605791079706604e-05
2.9487882860564668e-05   -6.113902401900682e-06   -3.1605791079706604e-05
2.9487882860564668e-05   -6.113902401900682e-06   -3.1605791079706604e-05
2.9487882860564668e-05   -6.113902401900682e-06   -3.1605791079706604e-05
1.7248568872752e-05   -8.045193066292047e-06   -5.9666930601215006e-05
1.7248568872752e-05   -8.045193066292047e-06   -5.9666930601215006e-05
1.7248568872752e-05   -8.045193066292047e-06   -5.9666930601215006e-05
1.7248568872752e-05   -8.045193066292047e-06   -5.9666930601215006e-05
4.493909560284283e-05   -2.2653719279372257e-06   -1.0048160034717164e-05
4.493909560284283e-05   -2.2653719279372257e-06   -1.0048160034717164e-05
4.493909560284283e-05   -2.2653719279372257e-06   -1.0048160034717164e-05
4.493909560284283e-05   -2.2653719279372257e-06   -1.0048160034717164e-05
4.7773716791196525e-05   -5.227329199844043e-06   -6.57046398119026e-05
4.7773716791196525e-05   -5.227329199844043e-06   -6.57046398119026e-05
4.7773716791196525e-05   -5.227329199844043e-06   -6.57046398119026e-05
4.7773716791196525e-05   -5.227329199844043e-06   -6.57046398119026e-05
1.7495648963099047e-05   2.576497940996389e-08   -1.8393049939292242e-05
1.7495648963099047e-05   2.576497940996389e-08   -1.8393049939292242e-05
1.7495648963099047e-05   2.576497940996389e-08   -1.8393049939292242e-05
1.7495648963099047e-05   2.576497940996389e-08   -1.8393049939292242e-05
3.0047630146218875e-05   -4.824594681542569e-06   -3.6402802781253956e-05
3.0047630146218875e-05   -4.824594681542569e-06   -3.6402802781253956e-05
3.0047630146218875e-05   -4.824594681542569e-06   -3.6402802781253956e-05
3.0047630146218875e-05   -4.824594681542569e-06   -3.6402802781253956e-05
-5.6926302192793253e-05   9.157964911286594e-06   -5.327418463072723e-05
-5.6926302192793253e-05   9.157964911286594e-06   -5.327418463072723e-05
-5.6926302192793253e-05   9.157964911286594e-06   -5.327418463072723e-05
-5.6926302192793253e-05   9.157964911286594e-06   -5.327418463072723e-05
-4.196986685104276e-05   3.741837614736499e-06   -3.1596468772406635e-05
-4.196986685104276e-05   3.741837614736499e-06   -3.1596468772406635e-05
-4.196986685104276e-05   3.741837614736499e-06   -3.1596468772406635e-05
-4.196986685104276e-05   3.741837614736499e-06   -3.1596468772406635e-05
-4.134906349846971e-05   1.1650241020729835e-05   -4.6997051136282286e-05
-4.134906349846971e-05   1.1650241020729835e-05   -4.6997051136282286e-05
-4.134906349846971e-05   1.1650241020729835e-05   -4.6997051136282286e-05
-4.134906349846971e-05   1.1650241020729835e-05   -4.6997051136282286e-05
-5.384090266394813e-05   5.817934233058944e-06   -2.2677935121215515e-05
-5.384090266394813e-05   5.817934233058944e-06   -2.2677935121215515e-05
-5.384090266394813e-05   5.817934233058944e-06   -2.2677935121215515e-05
-5.384090266394813e-05   5.817934233058944e-06   -2.2677935121215515e-05
-4.64655915268162e-05   8.212571659112471e-06   -3.6406902805402814e-05
-4.64655915268162e-05   8.212571659112471e-06   -3.6406902805402814e-05
-4.64655915268162e-05   8.212571659112471e-06   -3.6406902805402814e-05
-4.64655915268162e-05   8.212571659112471e-06   -3.6406902805402814e-05
-5.384090266394813e-05   1.1650241020729835e-05   -4.349766706367988e-05
-5.384090266394813e-05   1.1650241020729835e-05   -4.349766706367988e-05
-5.384090266394813e-05   1.1650241020729835e-05   -4.349766706367988e-05
-5.384090266394813e-05   1.1650241020729835e-05   -4.349766706367988e-05
-4.134906349846976e-05   5.817934233059378e-06   -2.617731919381792e-05
-4.134906349846976e-05   5.817934233059378e-06   -2.617731919381792e-05
-4.134906349846976e-05   5.817934233059378e-06   -2.617731919381792e-05
-4.134906349846976e-05   5.817934233059378e-06   -2.617731919381792e-05
-4.046411019889161e-05   1.2809769081674992e-05   -4.196729988163424e-05
-4.046411019889161e-05   1.2809769081674992e-05   -4.196729988163424e-05
-4.046411019889161e-05   1.2809769081674992e-05   -4.196729988163424e-05
-4.046411019889161e-05   1.2809769081674992e-05   -4.196729988163424e-05
-5.1376646542221566e-05   6.864928681485534e-06   -2.021283506930399e-05
-5.1376646542221566e-05   6.864928681485534e-06   -2.021283506930399e-05
-5.1376646542221566e-05   6.864928681485534e-06   -2.021283506930399e-05
-5.1376646542221566e-05   6.864928681485534e-06   -2.021283506930399e-05
-4.565012078847354e-05   9.332017583612e-06   -3.1237298000159636e-05
-4.565012078847354e-05   9.332017583612e-06   -3.1237298000159636e-05
-4.565012078847354e-05   9.332017583612e-06   -3.1237298000159636e-05
-4.565012078847354e-05   9.332017583612e-06   -3.1237298000159636e-05
-5.137664654222146e-05   1.2809769081674992e-05   -3.840039564152048e-05
-5.137664654222146e-05   1.2809769081674992e-05   -3.840039564152048e-05
-5.137664654222146e-05   1.2809769081674992e-05   -3.840039564152048e-05
-5.137664654222146e-05   1.2809769081674992e-05   -3.840039564152048e-05
-4.046411019889172e-05   6.864928681485534e-06   -2.3779739309417373e-05
-4.046411019889172e-05   6.864928681485534e-06   -2.3779739309417373e-05
-4.046411019889172e-05   6.864928681485534e-06   -2.3779739309417373e-05
-4.046411019889172e-05   6.864928681485534e-06   -2.3779739309417373e-05
-3.9858379427193044e-05   1.4265262198908052e-05   -3.551058415877115e-05
-3.9858379427193044e-05   1.4265262198908052e-05   -3.551058415877115e-05
-3.9858379427193044e-05   1.4265262198908052e-05   -3.551058415877115e-05
-3.9858379427193044e-05   1.4265262198908052e-05   -3.551058415877115e-05
-4.8238002963441485e-05   8.522454563474492e-06   -1.80988603504296e-05
-4.8238002963441485e-05   8.522454563474492e-06   -1.80988603504296e-05
-4.8238002963441485e-05   8.522454563474492e-06   -1.80988603504296e-05
-4.8238002963441485e-05   8.522454563474492e-06   -1.80988603504296e-05
-4.351487837507399e-05   1.0105040182489117e-05   -2.6920286035785708e-05
-4.351487837507399e-05   1.0105040182489117e-05   -2.6920286035785708e-05
-4.351487837507399e-05   1.0105040182489117e-05   -2.6920286035785708e-05
-4.351487837507399e-05   1.0105040182489117e-05   -2.6920286035785708e-05
-4.196986685104276e-05   4.72643208555769e-06   -7.754906880027223e-05
-4.196986685104276e-05   4.72643208555769e-06   -7.754906880027223e-05
-4.196986685104276e-05   4.72643208555769e-06   -7.754906880027223e-05
-4.196986685104276e-05   4.72643208555769e-06   -7.754906880027223e-05
-2.982527084774753e-05   2.1377104339310136e-06   -5.8861308452422896e-05
-2.982527084774753e-05   2.1377104339310136e-06   -5.8861308452422896e-05
-2.982527084774753e-05   2.1377104339310136e-06   -5.8861308452422896e-05
-2.982527084774753e-05   2.1377104339310136e-06   -5.8861308452422896e-05
-2.9416382426319552e-05   7.356439675512607e-06   -7.729827828629977e-05
-2.9416382426319552e-05   7.356439675512607e-06   -7.729827828629977e-05
-2.9416382426319552e-05   7.356439675512607e-06   -7.729827828629977e-05
-2.9416382426319552e-05   7.356439675512607e-06   -7.729827828629977e-05
-4.134906349846976e-05   4.5172105026638e-06   -5.570693899567265e-05
-4.134906349846976e-05   4.5172105026638e-06   -5.570693899567265e-05
-4.134906349846976e-05   4.5172105026638e-06   -5.570693899567265e-05
-4.134906349846976e-05   4.5172105026638e-06   -5.570693899567265e-05
-3.52927778762738e-05   5.138353635490266e-06   -6.617343424569706e-05
-3.52927778762738e-05   5.138353635490266e-06   -6.617343424569706e-05
-3.52927778762738e-05   5.138353635490266e-06   -6.617343424569706e-05
-3.52927778762738e-05   5.138353635490266e-06   -6.617343424569706e-05
-4.134906349846965e-05   7.35643967551239e-06   -7.559474078258979e-05
-4.134906349846965e-05   7.35643967551239e-06   -7.559474078258979e-05
-4.134906349846965e-05   7.35643967551239e-06   -7.559474078258979e-05
-4.134906349846965e-05   7.35643967551239e-06   -7.559474078258979e-05
-2.9416382426319552e-05   4.5172105026633665e-06   -5.7410476499382304e-05
-2.9416382426319552e-05   4.5172105026633665e-06   -5.7410476499382304e-05
-2.9416382426319552e-05   4.5172105026633665e-06   -5.7410476499382304e-05
-2.9416382426319552e-05   4.5172105026633665e-06   -5.7410476499382304e-05
-2.8965131834379776e-05   9.7478836085321e-06   -7.604895869096884e-05
-2.8965131834379776e-05   9.7478836085321e-06   -7.604895869096884e-05
-2.8965131834379776e-05   9.7478836085321e-06   -7.604895869096884e-05
-2.8965131834379776e-05   9.7478836085321e-06   -7.604895869096884e-05
-4.046411019889177e-05   6.728130575861437e-06   -5.507214293051278e-05
-4.046411019889177e-05   6.728130575861437e-06   -5.507214293051278e-05
-4.046411019889177e-05   6.728130575861437e-06   -5.507214293051278e-05
-4.046411019889177e-05   6.728130575861437e-06   -5.507214293051278e-05
-3.475634722650561e-05   7.060451051932055e-06   -6.478447350346465e-05
-3.475634722650561e-05   7.060451051932055e-06   -6.478447350346465e-05
-3.475634722650561e-05   7.060451051932055e-06   -6.478447350346465e-05
-3.475634722650561e-05   7.060451051932055e-06   -6.478447350346465e-05
-4.046411019889161e-05   9.7478836085321e-06   -7.423710687136636e-05
-4.046411019889161e-05   9.7478836085321e-06   -7.423710687136636e-05
-4.046411019889161e-05   9.7478836085321e-06   -7.423710687136636e-05
-4.046411019889161e-05   9.7478836085321e-06   -7.423710687136636e-05
-2.896513183437972e-05   6.728130575861437e-06   -5.6883994750115156e-05
-2.896513183437972e-05   6.728130575861437e-06   -5.6883994750115156e-05
-2.896513183437972e-05   6.728130575861437e-06   -5.6883994750115156e-05
-2.896513183437972e-05   6.728130575861437e-06   -5.6883994750115156e-05
-2.8562888400144237e-05   1.2343781865312674e-05   -7.678609298139376e-05
-2.8562888400144237e-05   1.2343781865312674e-05   -7.678609298139376e-05
-2.8562888400144237e-05   1.2343781865312674e-05   -7.678609298139376e-05
-2.8562888400144237e-05   1.2343781865312674e-05   -7.678609298139376e-05
-3.985837942719315e-05   9.183236321879448e-06   -5.606394727691844e-05
-3.985837942719315e-05   9.183236321879448e-06   -5.606394727691844e-05
-3.985837942719315e-05   9.183236321879448e-06   -5.606394727691844e-05
-3.985837942719315e-05   9.183236321879448e-06   -5.606394727691844e-05
-3.454367704193369e-05   9.005504707498314e-06   -6.481514561705636e-05
-3.454367704193369e-05   9.005504707498314e-06   -6.481514561705636e-05
-3.454367704193369e-05   9.005504707498314e-06   -6.481514561705636e-05
-3.454367704193369e-05   9.005504707498314e-06   -6.481514561705636e-05
-2.982527084774742e-05   8.08575580582907e-07   -8.766959953067865e-05
-2.982527084774742e-05   8.08575580582907e-07   -8.766959953067865e-05
-2.982527084774742e-05   8.08575580582907e-07   -8.766959953067865e-05
-2.982527084774742e-05   8.08575580582907e-07   -8.766959953067865e-05
-1.7997486436416382e-05   1.2181764809473562e-06   -6.771086497157517e-05
-1.7997486436416382e-05   1.2181764809473562e-06   -6.771086497157517e-05
-1.7997486436416382e-05   1.2181764809473562e-06   -6.771086497157517e-05
-1.7997486436416382e-05   1.2181764809473562e-06   -6.771086497157517e-05
-1.7598420078844272e-05   3.4510902823434685e-06   -8.65728973559693e-05
-1.7598420078844272e-05   3.4510902823434685e-06   -8.65728973559693e-05
-1.7598420078844272e-05   3.4510902823434685e-06   -8.65728973559693e-05
-1.7598420078844272e-05   3.4510902823434685e-06   -8.65728973559693e-05
-2.9416382426319552e-05   3.6398984945167946e-06   -6.698957837081369e-05
-2.9416382426319552e-05   3.6398984945167946e-06   -6.698957837081369e-05
-2.9416382426319552e-05   3.6398984945167946e-06   -6.698957837081369e-05
-2.9416382426319552e-05   3.6398984945167946e-06   -6.698957837081369e-05
-2.3557680578151447e-05   2.61551561831809e-06   -7.613945172537664e-05
-2.3557680578151447e-05   2.61551561831809e-06   -7.613945172537664e-05
-2.3557680578151447e-05   2.61551561831809e-06   -7.613945172537664e-05
-2.3557680578151447e-05   2.61551561831809e-06   -7.613945172537664e-05
-2.9416382426319498e-05   3.4510902823436853e-06   -8.668618228327299e-05
-2.9416382426319498e-05   3.4510902823436853e-06   -8.668618228327299e-05
-2.9416382426319498e-05   3.4510902823436853e-06   -8.668618228327299e-05
-2.9416382426319498e-05   3.4510902823436853e-06   -8.668618228327299e-05
-1.7598420078844272e-05   3.6398984945172283e-06   -6.687629344351016e-05
-1.7598420078844272e-05   3.6398984945172283e-06   -6.687629344351016e-05
-1.7598420078844272e-05   3.6398984945172283e-06   -6.687629344351016e-05
-1.7598420078844272e-05   3.6398984945172283e-06   -6.687629344351016e-05
-1.7150471180789386e-05   6.102024972935846e-06   -8.680071005653239e-05
-1.7150471180789386e-05   6.102024972935846e-06   -8.680071005653239e-05
-1.7150471180789386e-05   6.102024972935846e-06   -8.680071005653239e-05
-1.7150471180789386e-05   6.102024972935846e-06   -8.680071005653239e-05
-2.896513183437972e-05   6.0829202398666495e-06   -6.709814612737363e-05
-2.896513183437972e-05   6.0829202398666495e-06   -6.709814612737363e-05
-2.896513183437972e-05   6.0829202398666495e-06   -6.709814612737363e-05
-2.896513183437972e-05   6.0829202398666495e-06   -6.709814612737363e-05
-2.3288391722259967e-05   4.694909257438838e-06   -7.572657305811672e-05
-2.3288391722259967e-05   4.694909257438838e-06   -7.572657305811672e-05
-2.3288391722259967e-05   4.694909257438838e-06   -7.572657305811672e-05
-2.3288391722259967e-05   4.694909257438838e-06   -7.572657305811672e-05
-2.8965131834379667e-05   6.102024972935629e-06   -8.678924721669079e-05
-2.8965131834379667e-05   6.102024972935629e-06   -8.678924721669079e-05
-2.8965131834379667e-05   6.102024972935629e-06   -8.678924721669079e-05
-2.8965131834379667e-05   6.102024972935629e-06   -8.678924721669079e-05
-1.7150471180789413e-05   6.0829202398666495e-06   -6.710960896721507e-05
-1.7150471180789413e-05   6.0829202398666495e-06   -6.710960896721507e-05
-1.7150471180789413e-05   6.0829202398666495e-06   -6.710960896721507e-05
-1.7150471180789413e-05   6.0829202398666495e-06   -6.710960896721507e-05
-1.6747726170187208e-05   8.799309623732775e-06   -8.826211863281232e-05
-1.6747726170187208e-05   8.799309623732775e-06   -8.826211863281232e-05
-1.6747726170187208e-05   8.799309623732775e-06   -8.826211863281232e-05
-1.6747726170187208e-05   8.799309623732775e-06   -8.826211863281232e-05
-2.8562888400144264e-05   8.562713271104225e-06   -6.842822377130622e-05
-2.8562888400144264e-05   8.562713271104225e-06   -6.842822377130622e-05
-2.8562888400144264e-05   8.562713271104225e-06   -6.842822377130622e-05
-2.8562888400144264e-05   8.562713271104225e-06   -6.842822377130622e-05
-2.3064740538934944e-05   6.801917608930969e-06   -7.653532614268531e-05
-2.3064740538934944e-05   6.801917608930969e-06   -7.653532614268531e-05
-2.3064740538934944e-05   6.801917608930969e-06   -7.653532614268531e-05
-2.3064740538934944e-05   6.801917608930969e-06   -7.653532614268531e-05
-1.799748643641632e-05   -2.7759252587810507e-06   -7.685572972950167e-05
-1.799748643641632e-05   -2.7759252587810507e-06   -7.685572972950167e-05
-1.799748643641632e-05   -2.7759252587810507e-06   -7.685572972950167e-05
-1.799748643641632e-05   -2.7759252587810507e-06   -7.685572972950167e-05
-6.5141740867646425e-06   5.081531544810433e-07   -5.5746428765458215e-05
-6.5141740867646425e-06   5.081531544810433e-07   -5.5746428765458215e-05
-6.5141740867646425e-06   5.081531544810433e-07   -5.5746428765458215e-05
-6.5141740867646425e-06   5.081531544810433e-07   -5.5746428765458215e-05
-5.92038183763944e-06   -2.8872721783996386e-07   -7.439264198869045e-05
-5.92038183763944e-06   -2.8872721783996386e-07   -7.439264198869045e-05
-5.92038183763944e-06   -2.8872721783996386e-07   -7.439264198869045e-05
-5.92038183763944e-06   -2.8872721783996386e-07   -7.439264198869045e-05
-1.7598420078844245e-05   2.8525621521848475e-06   -5.6814018542030326e-05
-1.7598420078844245e-05   2.8525621521848475e-06   -5.6814018542030326e-05
-1.7598420078844245e-05   2.8525621521848475e-06   -5.6814018542030326e-05
-1.7598420078844245e-05   2.8525621521848475e-06   -5.6814018542030326e-05
-1.1886557506591891e-05   3.192006833743592e-07   -6.481377261449944e-05
-1.1886557506591891e-05   3.192006833743592e-07   -6.481377261449944e-05
-1.1886557506591891e-05   3.192006833743592e-07   -6.481377261449944e-05
-1.1886557506591891e-05   3.192006833743592e-07   -6.481377261449944e-05
-1.759842007884421e-05   -2.887272178401807e-07   -7.62774156107056e-05
-1.759842007884421e-05   -2.887272178401807e-07   -7.62774156107056e-05
-1.759842007884421e-05   -2.887272178401807e-07   -7.62774156107056e-05
-1.759842007884421e-05   -2.887272178401807e-07   -7.62774156107056e-05
-5.920381837639467e-06   2.8525621521848475e-06   -5.492924492001591e-05
-5.920381837639467e-06   2.8525621521848475e-06   -5.492924492001591e-05
-5.920381837639467e-06   2.8525621521848475e-06   -5.492924492001591e-05
-5.920381837639467e-06   2.8525621521848475e-06   -5.492924492001591e-05
-5.04277578467055e-06   2.1056984124108793e-06   -7.539996256985572e-05
-5.04277578467055e-06   2.1056984124108793e-06   -7.539996256985572e-05
-5.04277578467055e-06   2.1056984124108793e-06   -7.539996256985572e-05
-5.04277578467055e-06   2.1056984124108793e-06   -7.539996256985572e-05
-1.7150471180789386e-05   5.063230945493661e-06   -5.699498976284083e-05
-1.7150471180789386e-05   5.063230945493661e-06   -5.699498976284083e-05
-1.7150471180789386e-05   5.063230945493661e-06   -5.699498976284083e-05
-1.7150471180789386e-05   5.063230945493661e-06   -5.699498976284083e-05
-1.1526338983993962e-05   2.211199387539258e-06   -6.465732448939399e-05
-1.1526338983993962e-05   2.211199387539258e-06   -6.465732448939399e-05
-1.1526338983993962e-05   2.211199387539258e-06   -6.465732448939399e-05
-1.1526338983993962e-05   2.211199387539258e-06   -6.465732448939399e-05
-1.7150471180789342e-05   2.1056984124108793e-06   -7.717448208970534e-05
-1.7150471180789342e-05   2.1056984124108793e-06   -7.717448208970534e-05
-1.7150471180789342e-05   2.1056984124108793e-06   -7.717448208970534e-05
-1.7150471180789342e-05   2.1056984124108793e-06   -7.717448208970534e-05
-5.042775784670577e-06   5.063230945494095e-06   -5.522047024299117e-05
-5.042775784670577e-06   5.063230945494095e-06   -5.522047024299117e-05
-5.042775784670577e-06   5.063230945494095e-06   -5.522047024299117e-05
-5.042775784670577e-06   5.063230945494095e-06   -5.522047024299117e-05
-4.429352628298111e-06   4.851895970838915e-06   -7.7509217177906e-05
-4.429352628298111e-06   4.851895970838915e-06   -7.7509217177906e-05
-4.429352628298111e-06   4.851895970838915e-06   -7.7509217177906e-05
-4.429352628298111e-06   4.851895970838915e-06   -7.7509217177906e-05
-1.6747726170187208e-05   7.56471283211782e-06   -5.8606284724857956e-05
-1.6747726170187208e-05   7.56471283211782e-06   -5.8606284724857956e-05
-1.6747726170187208e-05   7.56471283211782e-06   -5.8606284724857956e-05
-1.6747726170187208e-05   7.56471283211782e-06   -5.8606284724857956e-05
-1.1148528429801746e-05   4.196008299395607e-06   -6.591705823920065e-05
-1.1148528429801746e-05   4.196008299395607e-06   -6.591705823920065e-05
-1.1148528429801746e-05   4.196008299395607e-06   -6.591705823920065e-05
-1.1148528429801746e-05   4.196008299395607e-06   -6.591705823920065e-05
-6.514174086764615e-06   -5.1111737481026286e-06   -4.173148904525756e-05
-6.514174086764615e-06   -5.1111737481026286e-06   -4.173148904525756e-05
-6.514174086764615e-06   -5.1111737481026286e-06   -4.173148904525756e-05
-6.514174086764615e-06   -5.1111737481026286e-06   -4.173148904525756e-05
2.030995443535956e-06   6.906275017699685e-07   -2.4008459078166382e-05
2.030995443535956e-06   6.906275017699685e-07   -2.4008459078166382e-05
2.030995443535956e-06   6.906275017699685e-07   -2.4008459078166382e-05
2.030995443535956e-06   6.906275017699685e-07   -2.4008459078166382e-05
5.1381630774307e-06   -3.42885343689427e-06   -3.9889721065954325e-05
5.1381630774307e-06   -3.42885343689427e-06   -3.9889721065954325e-05
5.1381630774307e-06   -3.42885343689427e-06   -3.9889721065954325e-05
5.1381630774307e-06   -3.42885343689427e-06   -3.9889721065954325e-05
-5.92038183763944e-06   2.5418390113014083e-06   -2.5041228343087067e-05
-5.92038183763944e-06   2.5418390113014083e-06   -2.5041228343087067e-05
-5.92038183763944e-06   2.5418390113014083e-06   -2.5041228343087067e-05
-5.92038183763944e-06   2.5418390113014083e-06   -2.5041228343087067e-05
-1.2856153289711653e-06   -1.0751796533465738e-06   -3.0595627992080065e-05
-1.2856153289711653e-06   -1.0751796533465738e-06   -3.0595627992080065e-05
-1.2856153289711653e-06   -1.0751796533465738e-06   -3.0595627992080065e-05
-1.2856153289711653e-06   -1.0751796533465738e-06   -3.0595627992080065e-05
-5.92038183763944e-06   -3.42885343689427e-06   -4.347213653487078e-05
-5.92038183763944e-06   -3.42885343689427e-06   -4.347213653487078e-05
-5.92038183763944e-06   -3.42885343689427e-06   -4.347213653487078e-05
-5.92038183763944e-06   -3.42885343689427e-06   -4.347213653487078e-05
5.1381630774307e-06   2.5418390113009746e-06   -2.1458812874170126e-05
5.1381630774307e-06   2.5418390113009746e-06   -2.1458812874170126e-05
5.1381630774307e-06   2.5418390113009746e-06   -2.1458812874170126e-05
5.1381630774307e-06   2.5418390113009746e-06   -2.1458812874170126e-05
7.5909709941483945e-06   -2.2653719279372257e-06   -4.2079039538470576e-05
7.5909709941483945e-06   -2.2653719279372257e-06   -4.2079039538470576e-05
7.5909709941483945e-06   -2.2653719279372257e-06   -4.2079039538470576e-05
7.5909709941483945e-06   -2.2653719279372257e-06   -4.2079039538470576e-05
-5.042775784670577e-06   3.5838920919486345e-06   -2.4532353319036857e-05
-5.042775784670577e-06   3.5838920919486345e-06   -2.4532353319036857e-05
-5.042775784670577e-06   3.5838920919486345e-06   -2.4532353319036857e-05
-5.042775784670577e-06   3.5838920919486345e-06   -2.4532353319036857e-05
2.968112757081642e-07   -1.9041156723098931e-07   -3.11670828908266e-05
2.968112757081642e-07   -1.9041156723098931e-07   -3.11670828908266e-05
2.968112757081642e-07   -1.9041156723098931e-07   -3.11670828908266e-05
2.968112757081642e-07   -1.9041156723098931e-07   -3.11670828908266e-05
-5.04277578467055e-06   -2.2653719279372257e-06   -4.5588597950402135e-05
-5.04277578467055e-06   -2.2653719279372257e-06   -4.5588597950402135e-05
-5.04277578467055e-06   -2.2653719279372257e-06   -4.5588597950402135e-05
-5.04277578467055e-06   -2.2653719279372257e-06   -4.5588597950402135e-05
7.59097099414834e-06   3.5838920919486345e-06   -2.1022794907105298e-05
7.59097099414834e-06   3.5838920919486345e-06   -2.1022794907105298e-05
7.59097099414834e-06   3.5838920919486345e-06   -2.1022794907105298e-05
7.59097099414834e-06   3.5838920919486345e-06   -2.1022794907105298e-05
1.0682238764826951e-05   2.576497940996389e-08   -4.7155338558893273e-05
1.0682238764826951e-05   2.576497940996389e-08   -4.7155338558893273e-05
1.0682238764826951e-05   2.576497940996389e-08   -4.7155338558893273e-05
1.0682238764826951e-05   2.576497940996389e-08   -4.7155338558893273e-05
-4.429352628298138e-06   5.436208375864896e-06   -2.521561894155733e-05
-4.429352628298138e-06   5.436208375864896e-06   -2.521561894155733e-05
-4.429352628298138e-06   5.436208375864896e-06   -2.521561894155733e-05
-4.429352628298138e-06   5.436208375864896e-06   -2.521561894155733e-05
1.649989353326068e-06   8.238630651935877e-07   -3.258044839119531e-05
1.649989353326068e-06   8.238630651935877e-07   -3.258044839119531e-05
1.649989353326068e-06   8.238630651935877e-07   -3.258044839119531e-05
1.649989353326068e-06   8.238630651935877e-07   -3.258044839119531e-05
-1.994857510916959e-05   3.741837614736499e-06   -3.559940989920885e-05
-1.994857510916959e-05   3.741837614736499e-06   -3.559940989920885e-05
-1.994857510916959e-05   3.741837614736499e-06   -3.559940989920885e-05
-1.994857510916959e-05   3.741837614736499e-06   -3.559940989920885e-05
-2.0104409823257317e-05   -1.7232137243658116e-06   -3.9138165226149796e-05
-2.0104409823257317e-05   -1.7232137243658116e-06   -3.9138165226149796e-05
-2.0104409823257317e-05   -1.7232137243658116e-06   -3.9138165226149796e-05
-2.0104409823257317e-05   -1.7232137243658116e-06   -3.9138165226149796e-05
-1.9090876183237924e-05   5.817934233058944e-06   -3.344547802502365e-05
-1.9090876183237924e-05   5.817934233058944e-06   -3.344547802502365e-05
-1.9090876183237924e-05   5.817934233058944e-06   -3.344547802502365e-05
-1.9090876183237924e-05   5.817934233058944e-06   -3.344547802502365e-05
-1.648339520525727e-05   -4.152494390832415e-08   -3.42756041488109e-05
-1.648339520525727e-05   -4.152494390832415e-08   -3.42756041488109e-05
-1.648339520525727e-05   -4.152494390832415e-08   -3.42756041488109e-05
-1.648339520525727e-05   -4.152494390832415e-08   -3.42756041488109e-05
-1.8079932415524484e-05   2.575403511608128e-06   -3.3184865871677e-05
-1.8079932415524484e-05   2.575403511608128e-06   -3.3184865871677e-05
-1.8079932415524484e-05   2.575403511608128e-06   -3.3184865871677e-05
-1.8079932415524484e-05   2.575403511608128e-06   -3.3184865871677e-05
-1.648339520525727e-05   5.817934233058944e-06   -2.99298025188432e-05
-1.648339520525727e-05   5.817934233058944e-06   -2.99298025188432e-05
-1.648339520525727e-05   5.817934233058944e-06   -2.99298025188432e-05
-1.648339520525727e-05   5.817934233058944e-06   -2.99298025188432e-05
-1.9090876183237978e-05   -4.152494390832415e-08   -3.7791279654991673e-05
-1.9090876183237978e-05   -4.152494390832415e-08   -3.7791279654991673e-05
-1.9090876183237978e-05   -4.152494390832415e-08   -3.7791279654991673e-05
-1.9090876183237978e-05   -4.152494390832415e-08   -3.7791279654991673e-05
-1.7813717740157767e-05   6.864928681485968e-06   -3.1038678332781164e-05
-1.7813717740157767e-05   6.864928681485968e-06   -3.1038678332781164e-05
-1.7813717740157767e-05   6.864928681485968e-06   -3.1038678332781164e-05
-1.7813717740157767e-05   6.864928681485968e-06   -3.1038678332781164e-05
-1.3614073611097912e-05   9.075309972093881e-07   -3.446364660398128e-05
-1.3614073611097912e-05   9.075309972093881e-07   -3.446364660398128e-05
-1.3614073611097912e-05   9.075309972093881e-07   -3.446364660398128e-05
-1.3614073611097912e-05   9.075309972093881e-07   -3.446364660398128e-05
-1.6435822240835397e-05   3.437550968233942e-06   -3.127874420370141e-05
-1.6435822240835397e-05   3.437550968233942e-06   -3.127874420370141e-05
-1.6435822240835397e-05   3.437550968233942e-06   -3.127874420370141e-05
-1.6435822240835397e-05   3.437550968233942e-06   -3.127874420370141e-05
-1.3614073611097912e-05   6.864928681485968e-06   -2.7464239722215216e-05
-1.3614073611097912e-05   6.864928681485968e-06   -2.7464239722215216e-05
-1.3614073611097912e-05   6.864928681485968e-06   -2.7464239722215216e-05
-1.3614073611097912e-05   6.864928681485968e-06   -2.7464239722215216e-05
-1.7813717740157767e-05   9.075309972098218e-07   -3.803808521454701e-05
-1.7813717740157767e-05   9.075309972098218e-07   -3.803808521454701e-05
-1.7813717740157767e-05   9.075309972098218e-07   -3.803808521454701e-05
-1.7813717740157767e-05   9.075309972098218e-07   -3.803808521454701e-05
-1.681443422356393e-05   8.522454563474492e-06   -2.8796301651737646e-05
-1.681443422356393e-05   8.522454563474492e-06   -2.8796301651737646e-05
-1.681443422356393e-05   8.522454563474492e-06   -2.8796301651737646e-05
-1.681443422356393e-05   8.522454563474492e-06   -2.8796301651737646e-05
-1.007138809860648e-05   2.8011420891926007e-06   -3.660192437543062e-05
-1.007138809860648e-05   2.8011420891926007e-06   -3.660192437543062e-05
-1.007138809860648e-05   2.8011420891926007e-06   -3.660192437543062e-05
-1.007138809860648e-05   2.8011420891926007e-06   -3.660192437543062e-05
-1.437807571123828e-05   4.260922775398048e-06   -3.0299980099435003e-05
-1.437807571123828e-05   4.260922775398048e-06   -3.0299980099435003e-05
-1.437807571123828e-05   4.260922775398048e-06   -3.0299980099435003e-05
-1.437807571123828e-05   4.260922775398048e-06   -3.0299980099435003e-05
-2.0104409823257262e-05   2.13771043393058e-06   -6.459004739171035e-05
-2.0104409823257262e-05   2.13771043393058e-06   -6.459004739171035e-05
-2.0104409823257262e-05   2.13771043393058e-06   -6.459004739171035e-05
-2.0104409823257262e-05   2.13771043393058e-06   -6.459004739171035e-05
-2.3077396533632382e-05   -3.8064890889180983e-07   -7.105604084802907e-05
-2.3077396533632382e-05   -3.8064890889180983e-07   -7.105604084802907e-05
-2.3077396533632382e-05   -3.8064890889180983e-07   -7.105604084802907e-05
-2.3077396533632382e-05   -3.8064890889180983e-07   -7.105604084802907e-05
-2.2256001593165282e-05   4.5172105026638e-06   -6.464157481134028e-05
-2.2256001593165282e-05   4.5172105026638e-06   -6.464157481134028e-05
-2.2256001593165282e-05   4.5172105026638e-06   -6.464157481134028e-05
-2.2256001593165282e-05   4.5172105026638e-06   -6.464157481134028e-05
-1.9090876183238032e-05   1.739748861894104e-06   -6.825030684342399e-05
-1.9090876183238032e-05   1.739748861894104e-06   -6.825030684342399e-05
-1.9090876183238032e-05   1.739748861894104e-06   -6.825030684342399e-05
-1.9090876183238032e-05   1.739748861894104e-06   -6.825030684342399e-05
-2.088581641137648e-05   2.4667729051743373e-06   -6.569495422249576e-05
-2.088581641137648e-05   2.4667729051743373e-06   -6.569495422249576e-05
-2.088581641137648e-05   2.4667729051743373e-06   -6.569495422249576e-05
-2.088581641137648e-05   2.4667729051743373e-06   -6.569495422249576e-05
-1.9090876183237924e-05   4.5172105026638e-06   -6.297509782687838e-05
-1.9090876183237924e-05   4.5172105026638e-06   -6.297509782687838e-05
-1.9090876183237924e-05   4.5172105026638e-06   -6.297509782687838e-05
-1.9090876183237924e-05   4.5172105026638e-06   -6.297509782687838e-05
-2.22560015931652e-05   1.7397488618936703e-06   -6.9916783827886e-05
-2.22560015931652e-05   1.7397488618936703e-06   -6.9916783827886e-05
-2.22560015931652e-05   1.7397488618936703e-06   -6.9916783827886e-05
-2.22560015931652e-05   1.7397488618936703e-06   -6.9916783827886e-05
-2.1401932525459162e-05   6.728130575861437e-06   -6.410012083749809e-05
-2.1401932525459162e-05   6.728130575861437e-06   -6.410012083749809e-05
-2.1401932525459162e-05   6.728130575861437e-06   -6.410012083749809e-05
-2.1401932525459162e-05   6.728130575861437e-06   -6.410012083749809e-05
-1.781371774015782e-05   3.7797324364922946e-06   -6.831143992937813e-05
-1.781371774015782e-05   3.7797324364922946e-06   -6.831143992937813e-05
-1.781371774015782e-05   3.7797324364922946e-06   -6.831143992937813e-05
-1.781371774015782e-05   3.7797324364922946e-06   -6.831143992937813e-05
-2.0062505268248504e-05   4.174320569022734e-06   -6.480021359541246e-05
-2.0062505268248504e-05   4.174320569022734e-06   -6.480021359541246e-05
-2.0062505268248504e-05   4.174320569022734e-06   -6.480021359541246e-05
-2.0062505268248504e-05   4.174320569022734e-06   -6.480021359541246e-05
-1.7813717740157767e-05   6.728130575861437e-06   -6.233108195387608e-05
-1.7813717740157767e-05   6.728130575861437e-06   -6.233108195387608e-05
-1.7813717740157767e-05   6.728130575861437e-06   -6.233108195387608e-05
-1.7813717740157767e-05   6.728130575861437e-06   -6.233108195387608e-05
-2.1401932525459108e-05   3.779732436491861e-06   -7.008047881299959e-05
-2.1401932525459108e-05   3.779732436491861e-06   -7.008047881299959e-05
-2.1401932525459108e-05   3.779732436491861e-06   -7.008047881299959e-05
-2.1401932525459108e-05   3.779732436491861e-06   -7.008047881299959e-05
-2.0596687358955917e-05   9.183236321879448e-06   -6.516105808281958e-05
-2.0596687358955917e-05   9.183236321879448e-06   -6.516105808281958e-05
-2.0596687358955917e-05   9.183236321879448e-06   -6.516105808281958e-05
-2.0596687358955917e-05   9.183236321879448e-06   -6.516105808281958e-05
-1.6814434223563985e-05   6.107646178791018e-06   -6.961945922261906e-05
-1.6814434223563985e-05   6.107646178791018e-06   -6.961945922261906e-05
-1.6814434223563985e-05   6.107646178791018e-06   -6.961945922261906e-05
-1.6814434223563985e-05   6.107646178791018e-06   -6.961945922261906e-05
-1.9337123960704177e-05   5.963818372382336e-06   -6.53286796435408e-05
-1.9337123960704177e-05   5.963818372382336e-06   -6.53286796435408e-05
-1.9337123960704177e-05   5.963818372382336e-06   -6.53286796435408e-05
-1.9337123960704177e-05   5.963818372382336e-06   -6.53286796435408e-05
-2.30773965336323e-05   1.21817648094779e-06   -7.51963800567745e-05
-2.30773965336323e-05   1.21817648094779e-06   -7.51963800567745e-05
-2.30773965336323e-05   1.21817648094779e-06   -7.51963800567745e-05
-2.30773965336323e-05   1.21817648094779e-06   -7.51963800567745e-05
-2.621981696657674e-05   1.7481877988669361e-06   -8.011574065426401e-05
-2.621981696657674e-05   1.7481877988669361e-06   -8.011574065426401e-05
-2.621981696657674e-05   1.7481877988669361e-06   -8.011574065426401e-05
-2.621981696657674e-05   1.7481877988669361e-06   -8.011574065426401e-05
-2.5411996645097358e-05   3.6398984945167946e-06   -7.404189007177513e-05
-2.5411996645097358e-05   3.6398984945167946e-06   -7.404189007177513e-05
-2.5411996645097358e-05   3.6398984945167946e-06   -7.404189007177513e-05
-2.5411996645097358e-05   3.6398984945167946e-06   -7.404189007177513e-05
-2.22560015931652e-05   3.937876179512488e-06   -7.948066843599226e-05
-2.22560015931652e-05   3.937876179512488e-06   -7.948066843599226e-05
-2.22560015931652e-05   3.937876179512488e-06   -7.948066843599226e-05
-2.22560015931652e-05   3.937876179512488e-06   -7.948066843599226e-05
-2.40954427361483e-05   2.9765184385182643e-06   -7.583811855309155e-05
-2.40954427361483e-05   2.9765184385182643e-06   -7.583811855309155e-05
-2.40954427361483e-05   2.9765184385182643e-06   -7.583811855309155e-05
-2.40954427361483e-05   2.9765184385182643e-06   -7.583811855309155e-05
-2.2256001593165173e-05   3.6398984945167946e-06   -7.422067668277216e-05
-2.2256001593165173e-05   3.6398984945167946e-06   -7.422067668277216e-05
-2.2256001593165173e-05   3.6398984945167946e-06   -7.422067668277216e-05
-2.2256001593165173e-05   3.6398984945167946e-06   -7.422067668277216e-05
-2.5411996645097405e-05   3.937876179512488e-06   -7.930188182499556e-05
-2.5411996645097405e-05   3.937876179512488e-06   -7.930188182499556e-05
-2.5411996645097405e-05   3.937876179512488e-06   -7.930188182499556e-05
-2.5411996645097405e-05   3.937876179512488e-06   -7.930188182499556e-05
-2.4563230949453777e-05   6.0829202398666495e-06   -7.425842138494192e-05
-2.4563230949453777e-05   6.0829202398666495e-06   -7.425842138494192e-05
-2.4563230949453777e-05   6.0829202398666495e-06   -7.425842138494192e-05
-2.4563230949453777e-05   6.0829202398666495e-06   -7.425842138494192e-05
-2.1401932525459162e-05   6.1760049562238975e-06   -7.958310292141373e-05
-2.1401932525459162e-05   6.1760049562238975e-06   -7.958310292141373e-05
-2.1401932525459162e-05   6.1760049562238975e-06   -7.958310292141373e-05
-2.1401932525459162e-05   6.1760049562238975e-06   -7.958310292141373e-05
-2.34162320369575e-05   4.848332575516177e-06   -7.542933364049274e-05
-2.34162320369575e-05   4.848332575516177e-06   -7.542933364049274e-05
-2.34162320369575e-05   4.848332575516177e-06   -7.542933364049274e-05
-2.34162320369575e-05   4.848332575516177e-06   -7.542933364049274e-05
-2.1401932525459108e-05   6.0829202398666495e-06   -7.431427221475618e-05
-2.1401932525459108e-05   6.0829202398666495e-06   -7.431427221475618e-05
-2.1401932525459108e-05   6.0829202398666495e-06   -7.431427221475618e-05
-2.1401932525459108e-05   6.0829202398666495e-06   -7.431427221475618e-05
-2.4563230949453777e-05   6.1760049562238975e-06   -7.952725209159936e-05
-2.4563230949453777e-05   6.1760049562238975e-06   -7.952725209159936e-05
-2.4563230949453777e-05   6.1760049562238975e-06   -7.952725209159936e-05
-2.4563230949453777e-05   6.1760049562238975e-06   -7.952725209159936e-05
-2.376250039376529e-05   8.562713271104225e-06   -7.569965870710539e-05
-2.376250039376529e-05   8.562713271104225e-06   -7.569965870710539e-05
-2.376250039376529e-05   8.562713271104225e-06   -7.569965870710539e-05
-2.376250039376529e-05   8.562713271104225e-06   -7.569965870710539e-05
-2.0596687358955944e-05   8.444960844507503e-06   -8.090536230916269e-05
-2.0596687358955944e-05   8.444960844507503e-06   -8.090536230916269e-05
-2.0596687358955944e-05   8.444960844507503e-06   -8.090536230916269e-05
-2.0596687358955944e-05   8.444960844507503e-06   -8.090536230916269e-05
-2.279027720808037e-05   6.746274535383758e-06   -7.623016744181448e-05
-2.279027720808037e-05   6.746274535383758e-06   -7.623016744181448e-05
-2.279027720808037e-05   6.746274535383758e-06   -7.623016744181448e-05
-2.279027720808037e-05   6.746274535383758e-06   -7.623016744181448e-05
-2.621981696657665e-05   5.081531544810433e-07   -6.488438410786343e-05
-2.621981696657665e-05   5.081531544810433e-07   -6.488438410786343e-05
-2.621981696657665e-05   5.081531544810433e-07   -6.488438410786343e-05
-2.621981696657665e-05   5.081531544810433e-07   -6.488438410786343e-05
-2.952971053691344e-05   3.88966139351285e-06   -6.837196844833911e-05
-2.952971053691344e-05   3.88966139351285e-06   -6.837196844833911e-05
-2.952971053691344e-05   3.88966139351285e-06   -6.837196844833911e-05
-2.952971053691344e-05   3.88966139351285e-06   -6.837196844833911e-05
-2.8553981974342453e-05   2.8525621521848475e-06   -6.203971594661976e-05
-2.8553981974342453e-05   2.8525621521848475e-06   -6.203971594661976e-05
-2.8553981974342453e-05   2.8525621521848475e-06   -6.203971594661976e-05
-2.8553981974342453e-05   2.8525621521848475e-06   -6.203971594661976e-05
-2.5411996645097358e-05   6.085727524978487e-06   -6.921625738570355e-05
-2.5411996645097358e-05   6.085727524978487e-06   -6.921625738570355e-05
-2.5411996645097358e-05   6.085727524978487e-06   -6.921625738570355e-05
-2.5411996645097358e-05   6.085727524978487e-06   -6.921625738570355e-05
-2.721715989424706e-05   3.579415631556164e-06   -6.470386483440184e-05
-2.721715989424706e-05   3.579415631556164e-06   -6.470386483440184e-05
-2.721715989424706e-05   3.579415631556164e-06   -6.470386483440184e-05
-2.721715989424706e-05   3.579415631556164e-06   -6.470386483440184e-05
-2.5411996645097313e-05   2.8525621521848475e-06   -6.397961517029538e-05
-2.5411996645097313e-05   2.8525621521848475e-06   -6.397961517029538e-05
-2.5411996645097313e-05   2.8525621521848475e-06   -6.397961517029538e-05
-2.5411996645097313e-05   2.8525621521848475e-06   -6.397961517029538e-05
-2.8553981974342453e-05   6.085727524978487e-06   -6.727635816202804e-05
-2.8553981974342453e-05   6.085727524978487e-06   -6.727635816202804e-05
-2.8553981974342453e-05   6.085727524978487e-06   -6.727635816202804e-05
-2.8553981974342453e-05   6.085727524978487e-06   -6.727635816202804e-05
-2.7296978054178504e-05   5.063230945493661e-06   -6.231402139501505e-05
-2.7296978054178504e-05   5.063230945493661e-06   -6.231402139501505e-05
-2.7296978054178504e-05   5.063230945493661e-06   -6.231402139501505e-05
-2.7296978054178504e-05   5.063230945493661e-06   -6.231402139501505e-05
-2.456323094945373e-05   8.112865588081036e-06   -6.870004735510838e-05
-2.456323094945373e-05   8.112865588081036e-06   -6.870004735510838e-05
-2.456323094945373e-05   8.112865588081036e-06   -6.870004735510838e-05
-2.456323094945373e-05   8.112865588081036e-06   -6.870004735510838e-05
-2.634539982441748e-05   5.320648235959333e-06   -6.405443548556343e-05
-2.634539982441748e-05   5.320648235959333e-06   -6.405443548556343e-05
-2.634539982441748e-05   5.320648235959333e-06   -6.405443548556343e-05
-2.634539982441748e-05   5.320648235959333e-06   -6.405443548556343e-05
-2.456323094945367e-05   5.063230945493661e-06   -6.4143802180567e-05
-2.456323094945367e-05   5.063230945493661e-06   -6.4143802180567e-05
-2.456323094945367e-05   5.063230945493661e-06   -6.4143802180567e-05
-2.456323094945367e-05   5.063230945493661e-06   -6.4143802180567e-05
-2.7296978054178558e-05   8.11286558808147e-06   -6.687026656955605e-05
-2.7296978054178558e-05   8.11286558808147e-06   -6.687026656955605e-05
-2.7296978054178558e-05   8.11286558808147e-06   -6.687026656955605e-05
-2.7296978054178558e-05   8.11286558808147e-06   -6.687026656955605e-05
-2.6308486504982438e-05   7.56471283211782e-06   -6.404262741023861e-05
-2.6308486504982438e-05   7.56471283211782e-06   -6.404262741023861e-05
-2.6308486504982438e-05   7.56471283211782e-06   -6.404262741023861e-05
-2.6308486504982438e-05   7.56471283211782e-06   -6.404262741023861e-05
-2.376250039376529e-05   1.0386603563520159e-05   -6.997907203444152e-05
-2.376250039376529e-05   1.0386603563520159e-05   -6.997907203444152e-05
-2.376250039376529e-05   1.0386603563520159e-05   -6.997907203444152e-05
-2.376250039376529e-05   1.0386603563520159e-05   -6.997907203444152e-05
-2.568913617959091e-05   7.1018326762268234e-06   -6.479714985902201e-05
-2.568913617959091e-05   7.1018326762268234e-06   -6.479714985902201e-05
-2.568913617959091e-05   7.1018326762268234e-06   -6.479714985902201e-05
-2.568913617959091e-05   7.1018326762268234e-06   -6.479714985902201e-05
-2.952971053691333e-05   6.906275017699685e-07   -3.4598590227076466e-05
-2.952971053691333e-05   6.906275017699685e-07   -3.4598590227076466e-05
-2.952971053691333e-05   6.906275017699685e-07   -3.4598590227076466e-05
-2.952971053691333e-05   6.906275017699685e-07   -3.4598590227076466e-05
-3.569014830390703e-05   6.528714519378996e-06   -4.1363134294833924e-05
-3.569014830390703e-05   6.528714519378996e-06   -4.1363134294833924e-05
-3.569014830390703e-05   6.528714519378996e-06   -4.1363134294833924e-05
-3.569014830390703e-05   6.528714519378996e-06   -4.1363134294833924e-05
-3.2249900212873736e-05   2.5418390113014083e-06   -2.8566031787236306e-05
-3.2249900212873736e-05   2.5418390113014083e-06   -2.8566031787236306e-05
-3.2249900212873736e-05   2.5418390113014083e-06   -2.8566031787236306e-05
-3.2249900212873736e-05   2.5418390113014083e-06   -2.8566031787236306e-05
-2.85539819743424e-05   8.517951648725954e-06   -3.831156310057655e-05
-2.85539819743424e-05   8.517951648725954e-06   -3.831156310057655e-05
-2.85539819743424e-05   8.517951648725954e-06   -3.831156310057655e-05
-2.85539819743424e-05   8.517951648725954e-06   -3.831156310057655e-05
-3.0230727506812984e-05   4.8125934339554935e-06   -3.329377228426366e-05
-3.0230727506812984e-05   4.8125934339554935e-06   -3.329377228426366e-05
-3.0230727506812984e-05   4.8125934339554935e-06   -3.329377228426366e-05
-3.0230727506812984e-05   4.8125934339554935e-06   -3.329377228426366e-05
-2.8553981974342317e-05   2.5418390113009746e-06   -3.215169936969086e-05
-2.8553981974342317e-05   2.5418390113009746e-06   -3.215169936969086e-05
-2.8553981974342317e-05   2.5418390113009746e-06   -3.215169936969086e-05
-2.8553981974342317e-05   2.5418390113009746e-06   -3.215169936969086e-05
-3.224990021287368e-05   8.517951648726388e-06   -3.4725895518122104e-05
-3.224990021287368e-05   8.517951648726388e-06   -3.4725895518122104e-05
-3.224990021287368e-05   8.517951648726388e-06   -3.4725895518122104e-05
-3.224990021287368e-05   8.517951648726388e-06   -3.4725895518122104e-05
-2.9451736928498313e-05   3.5838920919486345e-06   -2.8118886984184605e-05
-2.9451736928498313e-05   3.5838920919486345e-06   -2.8118886984184605e-05
-2.9451736928498313e-05   3.5838920919486345e-06   -2.8118886984184605e-05
-2.9451736928498313e-05   3.5838920919486345e-06   -2.8118886984184605e-05
-2.7296978054178504e-05   9.4289212367424e-06   -3.5217169261593496e-05
-2.7296978054178504e-05   9.4289212367424e-06   -3.5217169261593496e-05
-2.7296978054178504e-05   9.4289212367424e-06   -3.5217169261593496e-05
-2.7296978054178504e-05   9.4289212367424e-06   -3.5217169261593496e-05
-2.875374182209228e-05   5.731549124744946e-06   -3.0570806381206004e-05
-2.875374182209228e-05   5.731549124744946e-06   -3.0570806381206004e-05
-2.875374182209228e-05   5.731549124744946e-06   -3.0570806381206004e-05
-2.875374182209228e-05   5.731549124744946e-06   -3.0570806381206004e-05
-2.7296978054178504e-05   3.5838920919486345e-06   -3.1625904471060734e-05
-2.7296978054178504e-05   3.5838920919486345e-06   -3.1625904471060734e-05
-2.7296978054178504e-05   3.5838920919486345e-06   -3.1625904471060734e-05
-2.7296978054178504e-05   3.5838920919486345e-06   -3.1625904471060734e-05
-2.9451736928498313e-05   9.4289212367424e-06   -3.171015177471726e-05
-2.9451736928498313e-05   9.4289212367424e-06   -3.171015177471726e-05
-2.9451736928498313e-05   9.4289212367424e-06   -3.171015177471726e-05
-2.9451736928498313e-05   9.4289212367424e-06   -3.171015177471726e-05
-2.603368888103285e-05   5.436208375864896e-06   -2.9034243507638363e-05
-2.603368888103285e-05   5.436208375864896e-06   -2.9034243507638363e-05
-2.603368888103285e-05   5.436208375864896e-06   -2.9034243507638363e-05
-2.603368888103285e-05   5.436208375864896e-06   -2.9034243507638363e-05
-2.6308486504982384e-05   1.0845222102643347e-05   -3.1821655703788974e-05
-2.6308486504982384e-05   1.0845222102643347e-05   -3.1821655703788974e-05
-2.6308486504982384e-05   1.0845222102643347e-05   -3.1821655703788974e-05
-2.6308486504982384e-05   1.0845222102643347e-05   -3.1821655703788974e-05
-2.659615329720471e-05   6.4776005634227356e-06   -2.8721638126553008e-05
-2.659615329720471e-05   6.4776005634227356e-06   -2.8721638126553008e-05
-2.659615329720471e-05   6.4776005634227356e-06   -2.8721638126553008e-05
-2.659615329720471e-05   6.4776005634227356e-06   -2.8721638126553008e-05
1.7395140590037244e-05   -1.723213724365378e-06   -1.8129305495720276e-05
1.7395140590037244e-05   -1.723213724365378e-06   -1.8129305495720276e-05
1.7395140590037244e-05   -1.723213724365378e-06   -1.8129305495720276e-05
1.7395140590037244e-05   -1.723213724365378e-06   -1.8129305495720276e-05
1.7641109878730452e-06   -7.296032085996572e-06   -4.7524712516305466e-05
1.7641109878730452e-06   -7.296032085996572e-06   -4.7524712516305466e-05
1.7641109878730452e-06   -7.296032085996572e-06   -4.7524712516305466e-05
1.7641109878730452e-06   -7.296032085996572e-06   -4.7524712516305466e-05
3.155194276807823e-06   -4.152494390832415e-08   -2.00044646562602e-05
3.155194276807823e-06   -4.152494390832415e-08   -2.00044646562602e-05
3.155194276807823e-06   -4.152494390832415e-08   -2.00044646562602e-05
3.155194276807823e-06   -4.152494390832415e-08   -2.00044646562602e-05
2.1259892856930244e-05   -5.993000434403092e-06   -4.660807699550075e-05
2.1259892856930244e-05   -5.993000434403092e-06   -4.660807699550075e-05
2.1259892856930244e-05   -5.993000434403092e-06   -4.660807699550075e-05
2.1259892856930244e-05   -5.993000434403092e-06   -4.660807699550075e-05
1.0489137532155234e-05   -3.0393633532891165e-06   -3.0429000369544025e-05
1.0489137532155234e-05   -3.0393633532891165e-06   -3.0429000369544025e-05
1.0489137532155234e-05   -3.0393633532891165e-06   -3.0429000369544025e-05
1.0489137532155234e-05   -3.0393633532891165e-06   -3.0429000369544025e-05
2.1259892856930352e-05   -4.152494390832415e-08   -1.643357936196351e-05
2.1259892856930352e-05   -4.152494390832415e-08   -1.643357936196351e-05
2.1259892856930352e-05   -4.152494390832415e-08   -1.643357936196351e-05
2.1259892856930352e-05   -4.152494390832415e-08   -1.643357936196351e-05
3.1551942768077686e-06   -5.993000434403092e-06   -5.0178962289797874e-05
3.1551942768077686e-06   -5.993000434403092e-06   -5.0178962289797874e-05
3.1551942768077686e-06   -5.993000434403092e-06   -5.0178962289797874e-05
3.1551942768077686e-06   -5.993000434403092e-06   -5.0178962289797874e-05
4.793856704188879e-06   9.075309972093881e-07   -2.0149561928305224e-05
4.793856704188879e-06   9.075309972093881e-07   -2.0149561928305224e-05
4.793856704188879e-06   9.075309972093881e-07   -2.0149561928305224e-05
4.793856704188879e-06   9.075309972093881e-07   -2.0149561928305224e-05
2.4530587810952728e-05   -5.126926801724604e-06   -4.9423439093550844e-05
2.4530587810952728e-05   -5.126926801724604e-06   -4.9423439093550844e-05
2.4530587810952728e-05   -5.126926801724604e-06   -4.9423439093550844e-05
2.4530587810952728e-05   -5.126926801724604e-06   -4.9423439093550844e-05
1.2943527436892055e-05   -2.4321287128924694e-06   -3.172855065675063e-05
1.2943527436892055e-05   -2.4321287128924694e-06   -3.172855065675063e-05
1.2943527436892055e-05   -2.4321287128924694e-06   -3.172855065675063e-05
1.2943527436892055e-05   -2.4321287128924694e-06   -3.172855065675063e-05
2.4530587810952837e-05   9.075309972093881e-07   -1.6528887248944265e-05
2.4530587810952837e-05   9.075309972093881e-07   -1.6528887248944265e-05
2.4530587810952837e-05   9.075309972093881e-07   -1.6528887248944265e-05
2.4530587810952837e-05   9.075309972093881e-07   -1.6528887248944265e-05
4.7938567041888244e-06   -5.1269268017250375e-06   -5.30441137729118e-05
4.7938567041888244e-06   -5.1269268017250375e-06   -5.30441137729118e-05
4.7938567041888244e-06   -5.1269268017250375e-06   -5.30441137729118e-05
4.7938567041888244e-06   -5.1269268017250375e-06   -5.30441137729118e-05
6.145856195524245e-06   2.8011420891926007e-06   -2.205710175297044e-05
6.145856195524245e-06   2.8011420891926007e-06   -2.205710175297044e-05
6.145856195524245e-06   2.8011420891926007e-06   -2.205710175297044e-05
6.145856195524245e-06   2.8011420891926007e-06   -2.205710175297044e-05
2.845917095043338e-05   -2.942065948013245e-06   -5.580003485549561e-05
2.845917095043338e-05   -2.942065948013245e-06   -5.580003485549561e-05
2.845917095043338e-05   -2.942065948013245e-06   -5.580003485549561e-05
2.845917095043338e-05   -2.942065948013245e-06   -5.580003485549561e-05
1.4902699211382384e-05   -1.542723343888469e-06   -3.404552085288677e-05
1.4902699211382384e-05   -1.542723343888469e-06   -3.404552085288677e-05
1.4902699211382384e-05   -1.542723343888469e-06   -3.404552085288677e-05
1.4902699211382384e-05   -1.542723343888469e-06   -3.404552085288677e-05
1.7641109878730452e-06   -3.8064890889180983e-07   -5.187985652888461e-05
1.7641109878730452e-06   -3.8064890889180983e-07   -5.187985652888461e-05
1.7641109878730452e-06   -3.8064890889180983e-07   -5.187985652888461e-05
1.7641109878730452e-06   -3.8064890889180983e-07   -5.187985652888461e-05
-1.6526136945780153e-05   -2.896777848723428e-06   -8.387328044887218e-05
-1.6526136945780153e-05   -2.896777848723428e-06   -8.387328044887218e-05
-1.6526136945780153e-05   -2.896777848723428e-06   -8.387328044887218e-05
-1.6526136945780153e-05   -2.896777848723428e-06   -8.387328044887218e-05
-1.530362555941518e-05   1.7397488618936703e-06   -5.217523939302776e-05
-1.530362555941518e-05   1.7397488618936703e-06   -5.217523939302776e-05
-1.530362555941518e-05   1.7397488618936703e-06   -5.217523939302776e-05
-1.530362555941518e-05   1.7397488618936703e-06   -5.217523939302776e-05
3.1551942768077686e-06   -1.1131637186645622e-06   -8.122819157173084e-05
3.1551942768077686e-06   -1.1131637186645622e-06   -8.122819157173084e-05
3.1551942768077686e-06   -1.1131637186645622e-06   -8.122819157173084e-05
3.1551942768077686e-06   -1.1131637186645622e-06   -8.122819157173084e-05
-6.571437338712325e-06   -1.1749115211507136e-07   -6.561454241912727e-05
-6.571437338712325e-06   -1.1749115211507136e-07   -6.561454241912727e-05
-6.571437338712325e-06   -1.1749115211507136e-07   -6.561454241912727e-05
-6.571437338712325e-06   -1.1749115211507136e-07   -6.561454241912727e-05
3.155194276807823e-06   1.739748861894104e-06   -5.04634918446923e-05
3.155194276807823e-06   1.739748861894104e-06   -5.04634918446923e-05
3.155194276807823e-06   1.739748861894104e-06   -5.04634918446923e-05
3.155194276807823e-06   1.739748861894104e-06   -5.04634918446923e-05
-1.530362555941518e-05   -1.113163718664996e-06   -8.293993912006641e-05
-1.530362555941518e-05   -1.113163718664996e-06   -8.293993912006641e-05
-1.530362555941518e-05   -1.113163718664996e-06   -8.293993912006641e-05
-1.530362555941518e-05   -1.113163718664996e-06   -8.293993912006641e-05
-1.4074237756837372e-05   3.779732436491861e-06   -5.2252631906210545e-05
-1.4074237756837372e-05   3.779732436491861e-06   -5.2252631906210545e-05
-1.4074237756837372e-05   3.779732436491861e-06   -5.2252631906210545e-05
-1.4074237756837372e-05   3.779732436491861e-06   -5.2252631906210545e-05
4.793856704188879e-06   7.302069980350337e-07   -8.186974074484669e-05
4.793856704188879e-06   7.302069980350337e-07   -8.186974074484669e-05
4.793856704188879e-06   7.302069980350337e-07   -8.186974074484669e-05
4.793856704188879e-06   7.302069980350337e-07   -8.186974074484669e-05
-5.4871673416017675e-06   1.3455839356683007e-06   -6.51039268311092e-05
-5.4871673416017675e-06   1.3455839356683007e-06   -6.51039268311092e-05
-5.4871673416017675e-06   1.3455839356683007e-06   -6.51039268311092e-05
-5.4871673416017675e-06   1.3455839356683007e-06   -6.51039268311092e-05
4.793856704188879e-06   3.7797324364922946e-06   -5.042291664313623e-05
4.793856704188879e-06   3.7797324364922946e-06   -5.042291664313623e-05
4.793856704188879e-06   3.7797324364922946e-06   -5.042291664313623e-05
4.793856704188879e-06   3.7797324364922946e-06   -5.042291664313623e-05
-1.4074237756837372e-05   7.302069980350337e-07   -8.36994560079211e-05
-1.4074237756837372e-05   7.302069980350337e-07   -8.36994560079211e-05
-1.4074237756837372e-05   7.302069980350337e-07   -8.36994560079211e-05
-1.4074237756837372e-05   7.302069980350337e-07   -8.36994560079211e-05
-1.2898784641288396e-05   6.107646178790584e-06   -5.35593548620047e-05
-1.2898784641288396e-05   6.107646178790584e-06   -5.35593548620047e-05
-1.2898784641288396e-05   6.107646178790584e-06   -5.35593548620047e-05
-1.2898784641288396e-05   6.107646178790584e-06   -5.35593548620047e-05
6.145856195524245e-06   2.9118032680991446e-06   -8.338291717694443e-05
6.145856195524245e-06   2.9118032680991446e-06   -8.338291717694443e-05
6.145856195524245e-06   2.9118032680991446e-06   -8.338291717694443e-05
6.145856195524245e-06   2.9118032680991446e-06   -8.338291717694443e-05
-4.281404554742376e-06   2.9659368646728183e-06   -6.603662941777908e-05
-4.281404554742376e-06   2.9659368646728183e-06   -6.603662941777908e-05
-4.281404554742376e-06   2.9659368646728183e-06   -6.603662941777908e-05
-4.281404554742376e-06   2.9659368646728183e-06   -6.603662941777908e-05
-1.652613694578018e-05   1.7481877988665025e-06   -6.276724048977006e-05
-1.652613694578018e-05   1.7481877988665025e-06   -6.276724048977006e-05
-1.652613694578018e-05   1.7481877988665025e-06   -6.276724048977006e-05
-1.652613694578018e-05   1.7481877988665025e-06   -6.276724048977006e-05
-3.466177862567466e-05   2.2043861856641846e-06   -9.271959092418242e-05
-3.466177862567466e-05   2.2043861856641846e-06   -9.271959092418242e-05
-3.466177862567466e-05   2.2043861856641846e-06   -9.271959092418242e-05
-3.466177862567466e-05   2.2043861856641846e-06   -9.271959092418242e-05
-3.3430070198442914e-05   3.937876179512488e-06   -6.164806755338398e-05
-3.3430070198442914e-05   3.937876179512488e-06   -6.164806755338398e-05
-3.3430070198442914e-05   3.937876179512488e-06   -6.164806755338398e-05
-3.3430070198442914e-05   3.937876179512488e-06   -6.164806755338398e-05
-1.530362555941518e-05   4.089636925763088e-06   -9.194986506618082e-05
-1.530362555941518e-05   4.089636925763088e-06   -9.194986506618082e-05
-1.530362555941518e-05   4.089636925763088e-06   -9.194986506618082e-05
-1.530362555941518e-05   4.089636925763088e-06   -9.194986506618082e-05
-2.4835637028388913e-05   3.3799357036148198e-06   -7.563735855126922e-05
-2.4835637028388913e-05   3.3799357036148198e-06   -7.563735855126922e-05
-2.4835637028388913e-05   3.3799357036148198e-06   -7.563735855126922e-05
-2.4835637028388913e-05   3.3799357036148198e-06   -7.563735855126922e-05
-1.530362555941518e-05   3.937876179512488e-06   -6.173912400113456e-05
-1.530362555941518e-05   3.937876179512488e-06   -6.173912400113456e-05
-1.530362555941518e-05   3.937876179512488e-06   -6.173912400113456e-05
-1.530362555941518e-05   3.937876179512488e-06   -6.173912400113456e-05
-3.3430070198442914e-05   4.089636925763522e-06   -9.185880861843046e-05
-3.3430070198442914e-05   4.089636925763522e-06   -9.185880861843046e-05
-3.3430070198442914e-05   4.089636925763522e-06   -9.185880861843046e-05
-3.3430070198442914e-05   4.089636925763522e-06   -9.185880861843046e-05
-3.2179295520963526e-05   6.1760049562238975e-06   -6.180899474871222e-05
-3.2179295520963526e-05   6.1760049562238975e-06   -6.180899474871222e-05
-3.2179295520963526e-05   6.1760049562238975e-06   -6.180899474871222e-05
-3.2179295520963526e-05   6.1760049562238975e-06   -6.180899474871222e-05
-1.4074237756837399e-05   6.086440399410281e-06   -9.193035228816782e-05
-1.4074237756837399e-05   6.086440399410281e-06   -9.193035228816782e-05
-1.4074237756837399e-05   6.086440399410281e-06   -9.193035228816782e-05
-1.4074237756837399e-05   6.086440399410281e-06   -9.193035228816782e-05
-2.375072799186857e-05   5.02445786621647e-06   -7.516567904320044e-05
-2.375072799186857e-05   5.02445786621647e-06   -7.516567904320044e-05
-2.375072799186857e-05   5.02445786621647e-06   -7.516567904320044e-05
-2.375072799186857e-05   5.02445786621647e-06   -7.516567904320044e-05
-1.4074237756837399e-05   6.1760049562238975e-06   -6.175525601462457e-05
-1.4074237756837399e-05   6.1760049562238975e-06   -6.175525601462457e-05
-1.4074237756837399e-05   6.1760049562238975e-06   -6.175525601462457e-05
-1.4074237756837399e-05   6.1760049562238975e-06   -6.175525601462457e-05
-3.217929552096348e-05   6.086440399410715e-06   -9.198409102225617e-05
-3.217929552096348e-05   6.086440399410715e-06   -9.198409102225617e-05
-3.217929552096348e-05   6.086440399410715e-06   -9.198409102225617e-05
-3.217929552096348e-05   6.086440399410715e-06   -9.198409102225617e-05
-3.0986469444368874e-05   8.444960844507503e-06   -6.319628244462038e-05
-3.0986469444368874e-05   8.444960844507503e-06   -6.319628244462038e-05
-3.0986469444368874e-05   8.444960844507503e-06   -6.319628244462038e-05
-3.0986469444368874e-05   8.444960844507503e-06   -6.319628244462038e-05
-1.2898784641288423e-05   8.117663207965736e-06   -9.314604520116253e-05
-1.2898784641288423e-05   8.117663207965736e-06   -9.314604520116253e-05
-1.2898784641288423e-05   8.117663207965736e-06   -9.314604520116253e-05
-1.2898784641288423e-05   8.117663207965736e-06   -9.314604520116253e-05
-2.2740671654478646e-05   6.693844358354826e-06   -7.588860886941363e-05
-2.2740671654478646e-05   6.693844358354826e-06   -7.588860886941363e-05
-2.2740671654478646e-05   6.693844358354826e-06   -7.588860886941363e-05
-2.2740671654478646e-05   6.693844358354826e-06   -7.588860886941363e-05
-3.4661778625674724e-05   3.889661393513284e-06   -5.277865419518616e-05
-3.4661778625674724e-05   3.889661393513284e-06   -5.277865419518616e-05
-3.4661778625674724e-05   3.889661393513284e-06   -5.277865419518616e-05
-3.4661778625674724e-05   3.889661393513284e-06   -5.277865419518616e-05
-5.256538289519722e-05   7.150829131517388e-06   -8.066129400158793e-05
-5.256538289519722e-05   7.150829131517388e-06   -8.066129400158793e-05
-5.256538289519722e-05   7.150829131517388e-06   -8.066129400158793e-05
-5.256538289519722e-05   7.150829131517388e-06   -8.066129400158793e-05
-5.115930325709453e-05   6.085727524978487e-06   -4.9716077481099874e-05
-5.115930325709453e-05   6.085727524978487e-06   -4.9716077481099874e-05
-5.115930325709453e-05   6.085727524978487e-06   -4.9716077481099874e-05
-5.115930325709453e-05   6.085727524978487e-06   -4.9716077481099874e-05
-3.3430070198442914e-05   9.163003579966585e-06   -8.111116487851178e-05
-3.3430070198442914e-05   9.163003579966585e-06   -8.111116487851178e-05
-3.3430070198442914e-05   9.163003579966585e-06   -8.111116487851178e-05
-3.3430070198442914e-05   9.163003579966585e-06   -8.111116487851178e-05
-4.265684724462623e-05   6.8351370077664175e-06   -6.433648319155308e-05
-4.265684724462623e-05   6.8351370077664175e-06   -6.433648319155308e-05
-4.265684724462623e-05   6.8351370077664175e-06   -6.433648319155308e-05
-4.265684724462623e-05   6.8351370077664175e-06   -6.433648319155308e-05
-3.3430070198442975e-05   6.085727524978053e-06   -5.156244311409273e-05
-3.3430070198442975e-05   6.085727524978053e-06   -5.156244311409273e-05
-3.3430070198442975e-05   6.085727524978053e-06   -5.156244311409273e-05
-3.3430070198442975e-05   6.085727524978053e-06   -5.156244311409273e-05
-5.115930325709462e-05   9.163003579966151e-06   -7.926479924551992e-05
-5.115930325709462e-05   9.163003579966151e-06   -7.926479924551992e-05
-5.115930325709462e-05   9.163003579966151e-06   -7.926479924551992e-05
-5.115930325709462e-05   9.163003579966151e-06   -7.926479924551992e-05
-4.947934914472937e-05   8.11286558808147e-06   -4.926362452384271e-05
-4.947934914472937e-05   8.11286558808147e-06   -4.926362452384271e-05
-4.947934914472937e-05   8.11286558808147e-06   -4.926362452384271e-05
-4.947934914472937e-05   8.11286558808147e-06   -4.926362452384271e-05
-3.2179295520963526e-05   1.0976474735379695e-05   -7.981521271849812e-05
-3.2179295520963526e-05   1.0976474735379695e-05   -7.981521271849812e-05
-3.2179295520963526e-05   1.0976474735379695e-05   -7.981521271849812e-05
-3.2179295520963526e-05   1.0976474735379695e-05   -7.981521271849812e-05
-4.124150303410559e-05   8.422738055401634e-06   -6.317929152194212e-05
-4.124150303410559e-05   8.422738055401634e-06   -6.317929152194212e-05
-4.124150303410559e-05   8.422738055401634e-06   -6.317929152194212e-05
-4.124150303410559e-05   8.422738055401634e-06   -6.317929152194212e-05
-3.217929552096349e-05   8.11286558808147e-06   -5.098179001222151e-05
-3.217929552096349e-05   8.11286558808147e-06   -5.098179001222151e-05
-3.217929552096349e-05   8.11286558808147e-06   -5.098179001222151e-05
-3.217929552096349e-05   8.11286558808147e-06   -5.098179001222151e-05
-4.947934914472937e-05   1.0976474735379695e-05   -7.809704723011918e-05
-4.947934914472937e-05   1.0976474735379695e-05   -7.809704723011918e-05
-4.947934914472937e-05   1.0976474735379695e-05   -7.809704723011918e-05
-4.947934914472937e-05   1.0976474735379695e-05   -7.809704723011918e-05
-4.807882003928567e-05   1.0386603563520159e-05   -5.062672218966594e-05
-4.807882003928567e-05   1.0386603563520159e-05   -5.062672218966594e-05
-4.807882003928567e-05   1.0386603563520159e-05   -5.062672218966594e-05
-4.807882003928567e-05   1.0386603563520159e-05   -5.062672218966594e-05
-3.0986469444368874e-05   1.3007634437312357e-05   -8.068659170546908e-05
-3.0986469444368874e-05   1.3007634437312357e-05   -8.068659170546908e-05
-3.0986469444368874e-05   1.3007634437312357e-05   -8.068659170546908e-05
-3.0986469444368874e-05   1.3007634437312357e-05   -8.068659170546908e-05
-4.0288454735743626e-05   9.988393749093064e-06   -6.33717384735797e-05
-4.0288454735743626e-05   9.988393749093064e-06   -6.33717384735797e-05
-4.0288454735743626e-05   9.988393749093064e-06   -6.33717384735797e-05
-4.0288454735743626e-05   9.988393749093064e-06   -6.33717384735797e-05
-5.256538289519722e-05   6.528714519378996e-06   -2.731597160944392e-05
-5.256538289519722e-05   6.528714519378996e-06   -2.731597160944392e-05
-5.256538289519722e-05   6.528714519378996e-06   -2.731597160944392e-05
-5.256538289519722e-05   6.528714519378996e-06   -2.731597160944392e-05
-7.295241611715494e-05   1.2290936093950055e-05   -5.783702736796405e-05
-7.295241611715494e-05   1.2290936093950055e-05   -5.783702736796405e-05
-7.295241611715494e-05   1.2290936093950055e-05   -5.783702736796405e-05
-7.295241611715494e-05   1.2290936093950055e-05   -5.783702736796405e-05
-6.911048460500645e-05   8.517951648726388e-06   -1.7235109363236993e-05
-6.911048460500645e-05   8.517951648726388e-06   -1.7235109363236993e-05
-6.911048460500645e-05   8.517951648726388e-06   -1.7235109363236993e-05
-6.911048460500645e-05   8.517951648726388e-06   -1.7235109363236993e-05
-5.115930325709453e-05   1.4378240076079463e-05   -5.0669917999501785e-05
-5.115930325709453e-05   1.4378240076079463e-05   -5.0669917999501785e-05
-5.115930325709453e-05   1.4378240076079463e-05   -5.0669917999501785e-05
-5.115930325709453e-05   1.4378240076079463e-05   -5.0669917999501785e-05
-5.894659611779005e-05   1.0670335977248143e-05   -3.546635410571074e-05
-5.894659611779005e-05   1.0670335977248143e-05   -3.546635410571074e-05
-5.894659611779005e-05   1.0670335977248143e-05   -3.546635410571074e-05
-5.894659611779005e-05   1.0670335977248143e-05   -3.546635410571074e-05
-5.115930325709458e-05   8.517951648726388e-06   -2.075128241964849e-05
-5.115930325709458e-05   8.517951648726388e-06   -2.075128241964849e-05
-5.115930325709458e-05   8.517951648726388e-06   -2.075128241964849e-05
-5.115930325709458e-05   8.517951648726388e-06   -2.075128241964849e-05
-6.911048460500618e-05   1.4378240076079463e-05   -4.715374494309015e-05
-6.911048460500618e-05   1.4378240076079463e-05   -4.715374494309015e-05
-6.911048460500618e-05   1.4378240076079463e-05   -4.715374494309015e-05
-6.911048460500618e-05   1.4378240076079463e-05   -4.715374494309015e-05
-6.593494822986721e-05   9.4289212367424e-06   -1.4192540305892802e-05
-6.593494822986721e-05   9.4289212367424e-06   -1.4192540305892802e-05
-6.593494822986721e-05   9.4289212367424e-06   -1.4192540305892802e-05
-6.593494822986721e-05   9.4289212367424e-06   -1.4192540305892802e-05
-4.947934914472929e-05   1.5125566086721283e-05   -4.5036525691110035e-05
-4.947934914472929e-05   1.5125566086721283e-05   -4.5036525691110035e-05
-4.947934914472929e-05   1.5125566086721283e-05   -4.5036525691110035e-05
-4.947934914472929e-05   1.5125566086721283e-05   -4.5036525691110035e-05
-5.7527428432046974e-05   1.1606562339101009e-05   -2.9511657963675482e-05
-5.7527428432046974e-05   1.1606562339101009e-05   -2.9511657963675482e-05
-5.7527428432046974e-05   1.1606562339101009e-05   -2.9511657963675482e-05
-5.7527428432046974e-05   1.1606562339101009e-05   -2.9511657963675482e-05
-4.947934914472937e-05   9.4289212367424e-06   -1.761052721588048e-05
-4.947934914472937e-05   9.4289212367424e-06   -1.761052721588048e-05
-4.947934914472937e-05   9.4289212367424e-06   -1.761052721588048e-05
-4.947934914472937e-05   9.4289212367424e-06   -1.761052721588048e-05
-6.593494822986704e-05   1.512556608672085e-05   -4.1618538781123225e-05
-6.593494822986704e-05   1.512556608672085e-05   -4.1618538781123225e-05
-6.593494822986704e-05   1.512556608672085e-05   -4.1618538781123225e-05
-6.593494822986704e-05   1.512556608672085e-05   -4.1618538781123225e-05
-6.218417326413851e-05   1.0845222102643347e-05   -1.1022505681576545e-05
-6.218417326413851e-05   1.0845222102643347e-05   -1.1022505681576545e-05
-6.218417326413851e-05   1.0845222102643347e-05   -1.1022505681576545e-05
-6.218417326413851e-05   1.0845222102643347e-05   -1.1022505681576545e-05
-4.807882003928567e-05   1.6078446463107035e-05   -3.767136233927604e-05
-4.807882003928567e-05   1.6078446463107035e-05   -3.767136233927604e-05
-4.807882003928567e-05   1.6078446463107035e-05   -3.767136233927604e-05
-4.807882003928567e-05   1.6078446463107035e-05   -3.767136233927604e-05
-5.4547802784898234e-05   1.2060538449567854e-05   -2.4478979621798697e-05
-5.4547802784898234e-05   1.2060538449567854e-05   -2.4478979621798697e-05
-5.4547802784898234e-05   1.2060538449567854e-05   -2.4478979621798697e-05
-5.4547802784898234e-05   1.2060538449567854e-05   -2.4478979621798697e-05
5.556333393573357e-05   -7.296032085996572e-06   -6.02459288071705e-07
5.556333393573357e-05   -7.296032085996572e-06   -6.02459288071705e-07
5.556333393573357e-05   -7.296032085996572e-06   -6.02459288071705e-07
5.556333393573357e-05   -7.296032085996572e-06   -6.02459288071705e-07
2.3712032637138007e-05   -1.3185394338520798e-05   -5.722157880391223e-05
2.3712032637138007e-05   -1.3185394338520798e-05   -5.722157880391223e-05
2.3712032637138007e-05   -1.3185394338520798e-05   -5.722157880391223e-05
2.3712032637138007e-05   -1.3185394338520798e-05   -5.722157880391223e-05
2.540988045338495e-05   -5.993000434403092e-06   -6.45726899125296e-06
2.540988045338495e-05   -5.993000434403092e-06   -6.45726899125296e-06
2.540988045338495e-05   -5.993000434403092e-06   -6.45726899125296e-06
2.540988045338495e-05   -5.993000434403092e-06   -6.45726899125296e-06
5.979656324880478e-05   -1.225967853712897e-05   -6.000840012198368e-05
5.979656324880478e-05   -1.225967853712897e-05   -6.000840012198368e-05
5.979656324880478e-05   -1.225967853712897e-05   -6.000840012198368e-05
5.979656324880478e-05   -1.225967853712897e-05   -6.000840012198368e-05
3.9463742804312794e-05   -8.68223437327717e-06   -2.8266832546141284e-05
3.9463742804312794e-05   -8.68223437327717e-06   -2.8266832546141284e-05
3.9463742804312794e-05   -8.68223437327717e-06   -2.8266832546141284e-05
3.9463742804312794e-05   -8.68223437327717e-06   -2.8266832546141284e-05
5.979656324880489e-05   -5.993000434403092e-06   -2.697262129617347e-06
5.979656324880489e-05   -5.993000434403092e-06   -2.697262129617347e-06
5.979656324880489e-05   -5.993000434403092e-06   -2.697262129617347e-06
5.979656324880489e-05   -5.993000434403092e-06   -2.697262129617347e-06
2.540988045338495e-05   -1.225967853712897e-05   -6.37684069836194e-05
2.540988045338495e-05   -1.225967853712897e-05   -6.37684069836194e-05
2.540988045338495e-05   -1.225967853712897e-05   -6.37684069836194e-05
2.540988045338495e-05   -1.225967853712897e-05   -6.37684069836194e-05
2.728977509851326e-05   -5.126926801724604e-06   -9.019099303355337e-06
2.728977509851326e-05   -5.126926801724604e-06   -9.019099303355337e-06
2.728977509851326e-05   -5.126926801724604e-06   -9.019099303355337e-06
2.728977509851326e-05   -5.126926801724604e-06   -9.019099303355337e-06
6.335658093719427e-05   -1.1467671359294794e-05   -6.53259956332812e-05
6.335658093719427e-05   -1.1467671359294794e-05   -6.53259956332812e-05
6.335658093719427e-05   -1.1467671359294794e-05   -6.53259956332812e-05
6.335658093719427e-05   -1.1467671359294794e-05   -6.53259956332812e-05
4.26438055666708e-05   -8.32992902121115e-06   -3.268734875192577e-05
4.26438055666708e-05   -8.32992902121115e-06   -3.268734875192577e-05
4.26438055666708e-05   -8.32992902121115e-06   -3.268734875192577e-05
4.26438055666708e-05   -8.32992902121115e-06   -3.268734875192577e-05
6.335658093719438e-05   -5.126926801724604e-06   -5.214652568813136e-06
6.335658093719438e-05   -5.126926801724604e-06   -5.214652568813136e-06
6.335658093719438e-05   -5.126926801724604e-06   -5.214652568813136e-06
6.335658093719438e-05   -5.126926801724604e-06   -5.214652568813136e-06
2.7289775098513207e-05   -1.1467671359294794e-05   -6.913044236782394e-05
2.7289775098513207e-05   -1.1467671359294794e-05   -6.913044236782394e-05
2.7289775098513207e-05   -1.1467671359294794e-05   -6.913044236782394e-05
2.7289775098513207e-05   -1.1467671359294794e-05   -6.913044236782394e-05
2.8846743381128696e-05   -2.942065948013245e-06   -1.4943437927804597e-05
2.8846743381128696e-05   -2.942065948013245e-06   -1.4943437927804597e-05
2.8846743381128696e-05   -2.942065948013245e-06   -1.4943437927804597e-05
2.8846743381128696e-05   -2.942065948013245e-06   -1.4943437927804597e-05
6.748960979738208e-05   -8.959015928991856e-06   -7.573804529963958e-05
6.748960979738208e-05   -8.959015928991856e-06   -7.573804529963958e-05
6.748960979738208e-05   -8.959015928991856e-06   -7.573804529963958e-05
6.748960979738208e-05   -8.959015928991856e-06   -7.573804529963958e-05
4.437784754323274e-05   -7.353443574228437e-06   -3.818178495558391e-05
4.437784754323274e-05   -7.353443574228437e-06   -3.818178495558391e-05
4.437784754323274e-05   -7.353443574228437e-06   -3.818178495558391e-05
4.437784754323274e-05   -7.353443574228437e-06   -3.818178495558391e-05
2.371203263713806e-05   -2.896777848723428e-06   -3.8974967208253806e-05
2.371203263713806e-05   -2.896777848723428e-06   -3.8974967208253806e-05
2.371203263713806e-05   -2.896777848723428e-06   -3.8974967208253806e-05
2.371203263713806e-05   -2.896777848723428e-06   -3.8974967208253806e-05
-1.0038367927430142e-05   -6.193341469376036e-06   -9.720357298825875e-05
-1.0038367927430142e-05   -6.193341469376036e-06   -9.720357298825875e-05
-1.0038367927430142e-05   -6.193341469376036e-06   -9.720357298825875e-05
-1.0038367927430142e-05   -6.193341469376036e-06   -9.720357298825875e-05
-8.456487874702228e-06   -1.1131637186645622e-06   -3.978654331581507e-05
-8.456487874702228e-06   -1.1131637186645622e-06   -3.978654331581507e-05
-8.456487874702228e-06   -1.1131637186645622e-06   -3.978654331581507e-05
-8.456487874702228e-06   -1.1131637186645622e-06   -3.978654331581507e-05
2.540988045338495e-05   -4.913238789713316e-06   -9.39504454866649e-05
2.540988045338495e-05   -4.913238789713316e-06   -9.39504454866649e-05
2.540988045338495e-05   -4.913238789713316e-06   -9.39504454866649e-05
2.540988045338495e-05   -4.913238789713316e-06   -9.39504454866649e-05
7.741806376991757e-06   -2.998045306033814e-06   -6.565277144955043e-05
7.741806376991757e-06   -2.998045306033814e-06   -6.565277144955043e-05
7.741806376991757e-06   -2.998045306033814e-06   -6.565277144955043e-05
7.741806376991757e-06   -2.998045306033814e-06   -6.565277144955043e-05
2.5409880453384896e-05   -1.1131637186645622e-06   -3.750649827318625e-05
2.5409880453384896e-05   -1.1131637186645622e-06   -3.750649827318625e-05
2.5409880453384896e-05   -1.1131637186645622e-06   -3.750649827318625e-05
2.5409880453384896e-05   -1.1131637186645622e-06   -3.750649827318625e-05
-8.456487874702228e-06   -4.913238789713316e-06   -9.623049052929372e-05
-8.456487874702228e-06   -4.913238789713316e-06   -9.623049052929372e-05
-8.456487874702228e-06   -4.913238789713316e-06   -9.623049052929372e-05
-8.456487874702228e-06   -4.913238789713316e-06   -9.623049052929372e-05
-6.946040446567344e-06   7.302069980350337e-07   -4.02916263162593e-05
-6.946040446567344e-06   7.302069980350337e-07   -4.02916263162593e-05
-6.946040446567344e-06   7.302069980350337e-07   -4.02916263162593e-05
-6.946040446567344e-06   7.302069980350337e-07   -4.02916263162593e-05
2.7289775098513207e-05   -3.347959736913972e-06   -9.490441885042433e-05
2.7289775098513207e-05   -3.347959736913972e-06   -9.490441885042433e-05
2.7289775098513207e-05   -3.347959736913972e-06   -9.490441885042433e-05
2.7289775098513207e-05   -3.347959736913972e-06   -9.490441885042433e-05
8.999637089420186e-06   -1.8671880795736312e-06   -6.530931849633873e-05
8.999637089420186e-06   -1.8671880795736312e-06   -6.530931849633873e-05
8.999637089420186e-06   -1.8671880795736312e-06   -6.530931849633873e-05
8.999637089420186e-06   -1.8671880795736312e-06   -6.530931849633873e-05
2.728977509851326e-05   7.302069980350337e-07   -3.784472627529033e-05
2.728977509851326e-05   7.302069980350337e-07   -3.784472627529033e-05
2.728977509851326e-05   7.302069980350337e-07   -3.784472627529033e-05
2.728977509851326e-05   7.302069980350337e-07   -3.784472627529033e-05
-6.946040446567344e-06   -3.347959736913972e-06   -9.735131889139405e-05
-6.946040446567344e-06   -3.347959736913972e-06   -9.735131889139405e-05
-6.946040446567344e-06   -3.347959736913972e-06   -9.735131889139405e-05
-6.946040446567344e-06   -3.347959736913972e-06   -9.735131889139405e-05
-5.526488618422525e-06   2.9118032680991446e-06   -4.165529633841586e-05
-5.526488618422525e-06   2.9118032680991446e-06   -4.165529633841586e-05
-5.526488618422525e-06   2.9118032680991446e-06   -4.165529633841586e-05
-5.526488618422525e-06   2.9118032680991446e-06   -4.165529633841586e-05
2.8846743381128696e-05   -1.3796982510439273e-06   -9.636911542618175e-05
2.8846743381128696e-05   -1.3796982510439273e-06   -9.636911542618175e-05
2.8846743381128696e-05   -1.3796982510439273e-06   -9.636911542618175e-05
2.8846743381128696e-05   -1.3796982510439273e-06   -9.636911542618175e-05
1.0564429465959529e-05   -4.7332054707843046e-07   -6.644241885661367e-05
1.0564429465959529e-05   -4.7332054707843046e-07   -6.644241885661367e-05
1.0564429465959529e-05   -4.7332054707843046e-07   -6.644241885661367e-05
1.0564429465959529e-05   -4.7332054707843046e-07   -6.644241885661367e-05
-1.0038367927430142e-05   2.2043861856641846e-06   -5.0072934888033705e-05
-1.0038367927430142e-05   2.2043861856641846e-06   -5.0072934888033705e-05
-1.0038367927430142e-05   2.2043861856641846e-06   -5.0072934888033705e-05
-1.0038367927430142e-05   2.2043861856641846e-06   -5.0072934888033705e-05
-4.31944382299184e-05   1.0906813852620476e-06   -0.00010600127493908896
-4.31944382299184e-05   1.0906813852620476e-06   -0.00010600127493908896
-4.31944382299184e-05   1.0906813852620476e-06   -0.00010600127493908896
-4.31944382299184e-05   1.0906813852620476e-06   -0.00010600127493908896
-4.14915005126257e-05   4.089636925763088e-06   -4.9734000641625704e-05
-4.14915005126257e-05   4.089636925763088e-06   -4.9734000641625704e-05
-4.14915005126257e-05   4.089636925763088e-06   -4.9734000641625704e-05
-4.14915005126257e-05   4.089636925763088e-06   -4.9734000641625704e-05
-8.456487874702228e-06   2.5270846262708327e-06   -0.00010385482365846897
-8.456487874702228e-06   2.5270846262708327e-06   -0.00010385482365846897
-8.456487874702228e-06   2.5270846262708327e-06   -0.00010385482365846897
-8.456487874702228e-06   2.5270846262708327e-06   -0.00010385482365846897
-2.5617869155871883e-05   3.0209426939544273e-06   -7.55488363637963e-05
-2.5617869155871883e-05   3.0209426939544273e-06   -7.55488363637963e-05
-2.5617869155871883e-05   3.0209426939544273e-06   -7.55488363637963e-05
-2.5617869155871883e-05   3.0209426939544273e-06   -7.55488363637963e-05
-8.456487874702228e-06   4.089636925763088e-06   -4.8796469261929484e-05
-8.456487874702228e-06   4.089636925763088e-06   -4.8796469261929484e-05
-8.456487874702228e-06   4.089636925763088e-06   -4.8796469261929484e-05
-8.456487874702228e-06   4.089636925763088e-06   -4.8796469261929484e-05
-4.14915005126257e-05   2.5270846262708327e-06   -0.00010479235503816492
-4.14915005126257e-05   2.5270846262708327e-06   -0.00010479235503816492
-4.14915005126257e-05   2.5270846262708327e-06   -0.00010479235503816492
-4.14915005126257e-05   2.5270846262708327e-06   -0.00010479235503816492
-3.984946587211521e-05   6.086440399410281e-06   -4.965892579436625e-05
-3.984946587211521e-05   6.086440399410281e-06   -4.965892579436625e-05
-3.984946587211521e-05   6.086440399410281e-06   -4.965892579436625e-05
-3.984946587211521e-05   6.086440399410281e-06   -4.965892579436625e-05
-6.946040446567398e-06   4.192435069644458e-06   -0.0001033615649724196
-6.946040446567398e-06   4.192435069644458e-06   -0.0001033615649724196
-6.946040446567398e-06   4.192435069644458e-06   -0.0001033615649724196
-6.946040446567398e-06   4.192435069644458e-06   -0.0001033615649724196
-2.415155088763711e-05   4.365363813968633e-06   -7.478947148389773e-05
-2.415155088763711e-05   4.365363813968633e-06   -7.478947148389773e-05
-2.415155088763711e-05   4.365363813968633e-06   -7.478947148389773e-05
-2.415155088763711e-05   4.365363813968633e-06   -7.478947148389773e-05
-6.946040446567398e-06   6.086440399410281e-06   -4.8522522596506495e-05
-6.946040446567398e-06   6.086440399410281e-06   -4.8522522596506495e-05
-6.946040446567398e-06   6.086440399410281e-06   -4.8522522596506495e-05
-6.946040446567398e-06   6.086440399410281e-06   -4.8522522596506495e-05
-3.984946587211521e-05   4.192435069644458e-06   -0.00010449796817027946
-3.984946587211521e-05   4.192435069644458e-06   -0.00010449796817027946
-3.984946587211521e-05   4.192435069644458e-06   -0.00010449796817027946
-3.984946587211521e-05   4.192435069644458e-06   -0.00010449796817027946
-3.83320552265719e-05   8.117663207965736e-06   -5.082318136571907e-05
-3.83320552265719e-05   8.117663207965736e-06   -5.082318136571907e-05
-3.83320552265719e-05   8.117663207965736e-06   -5.082318136571907e-05
-3.83320552265719e-05   8.117663207965736e-06   -5.082318136571907e-05
-5.526488618422525e-06   5.913891958799107e-06   -0.00010417686296313453
-5.526488618422525e-06   5.913891958799107e-06   -0.00010417686296313453
-5.526488618422525e-06   5.913891958799107e-06   -0.00010417686296313453
-5.526488618422525e-06   5.913891958799107e-06   -0.00010417686296313453
-2.2840679409922295e-05   5.744923866434111e-06   -7.521849745521694e-05
-2.2840679409922295e-05   5.744923866434111e-06   -7.521849745521694e-05
-2.2840679409922295e-05   5.744923866434111e-06   -7.521849745521694e-05
-2.2840679409922295e-05   5.744923866434111e-06   -7.521849745521694e-05
-4.319443822991848e-05   7.150829131517388e-06   -4.0639561488482745e-05
-4.319443822991848e-05   7.150829131517388e-06   -4.0639561488482745e-05
-4.319443822991848e-05   7.150829131517388e-06   -4.0639561488482745e-05
-4.319443822991848e-05   7.150829131517388e-06   -4.0639561488482745e-05
-7.571538710249324e-05   8.634605903831867e-06   -9.39508768793857e-05
-7.571538710249324e-05   8.634605903831867e-06   -9.39508768793857e-05
-7.571538710249324e-05   8.634605903831867e-06   -9.39508768793857e-05
-7.571538710249324e-05   8.634605903831867e-06   -9.39508768793857e-05
-7.366413489287254e-05   9.163003579966585e-06   -3.820747333933578e-05
-7.366413489287254e-05   9.163003579966585e-06   -3.820747333933578e-05
-7.366413489287254e-05   9.163003579966585e-06   -3.820747333933578e-05
-7.366413489287254e-05   9.163003579966585e-06   -3.820747333933578e-05
-4.149150051262576e-05   1.0461142850586198e-05   -9.260741420211906e-05
-4.149150051262576e-05   1.0461142850586198e-05   -9.260741420211906e-05
-4.149150051262576e-05   1.0461142850586198e-05   -9.260741420211906e-05
-4.149150051262576e-05   1.0461142850586198e-05   -9.260741420211906e-05
-5.808840725920178e-05   9.236769529492352e-06   -6.421127896516997e-05
-5.808840725920178e-05   9.236769529492352e-06   -6.421127896516997e-05
-5.808840725920178e-05   9.236769529492352e-06   -6.421127896516997e-05
-5.808840725920178e-05   9.236769529492352e-06   -6.421127896516997e-05
-4.149150051262576e-05   9.163003579966585e-06   -3.898635690170781e-05
-4.149150051262576e-05   9.163003579966585e-06   -3.898635690170781e-05
-4.149150051262576e-05   9.163003579966585e-06   -3.898635690170781e-05
-4.149150051262576e-05   9.163003579966585e-06   -3.898635690170781e-05
-7.366413489287265e-05   1.0461142850586198e-05   -9.182853063974738e-05
-7.366413489287265e-05   1.0461142850586198e-05   -9.182853063974738e-05
-7.366413489287265e-05   1.0461142850586198e-05   -9.182853063974738e-05
-7.366413489287265e-05   1.0461142850586198e-05   -9.182853063974738e-05
-7.139724109515914e-05   1.0976474735379695e-05   -3.68552152259366e-05
-7.139724109515914e-05   1.0976474735379695e-05   -3.68552152259366e-05
-7.139724109515914e-05   1.0976474735379695e-05   -3.68552152259366e-05
-7.139724109515914e-05   1.0976474735379695e-05   -3.68552152259366e-05
-3.984946587211529e-05   1.2034528509832429e-05   -9.006967286234852e-05
-3.984946587211529e-05   1.2034528509832429e-05   -9.006967286234852e-05
-3.984946587211529e-05   1.2034528509832429e-05   -9.006967286234852e-05
-3.984946587211529e-05   1.2034528509832429e-05   -9.006967286234852e-05
-5.6016574448968964e-05   1.065736734602845e-05   -6.229819520264259e-05
-5.6016574448968964e-05   1.065736734602845e-05   -6.229819520264259e-05
-5.6016574448968964e-05   1.065736734602845e-05   -6.229819520264259e-05
-5.6016574448968964e-05   1.065736734602845e-05   -6.229819520264259e-05
-3.984946587211525e-05   1.0976474735379695e-05   -3.749004749060807e-05
-3.984946587211525e-05   1.0976474735379695e-05   -3.749004749060807e-05
-3.984946587211525e-05   1.0976474735379695e-05   -3.749004749060807e-05
-3.984946587211525e-05   1.0976474735379695e-05   -3.749004749060807e-05
-7.139724109515914e-05   1.2034528509832429e-05   -8.943484059767675e-05
-7.139724109515914e-05   1.2034528509832429e-05   -8.943484059767675e-05
-7.139724109515914e-05   1.2034528509832429e-05   -8.943484059767675e-05
-7.139724109515914e-05   1.2034528509832429e-05   -8.943484059767675e-05
-6.94809541633593e-05   1.3007634437312357e-05   -3.770568036990697e-05
-6.94809541633593e-05   1.3007634437312357e-05   -3.770568036990697e-05
-6.94809541633593e-05   1.3007634437312357e-05   -3.770568036990697e-05
-6.94809541633593e-05   1.3007634437312357e-05   -3.770568036990697e-05
-3.833205522657197e-05   1.3777082634300851e-05   -9.008218084941287e-05
-3.833205522657197e-05   1.3777082634300851e-05   -9.008218084941287e-05
-3.833205522657197e-05   1.3777082634300851e-05   -9.008218084941287e-05
-3.833205522657197e-05   1.3777082634300851e-05   -9.008218084941287e-05
-5.472075545893176e-05   1.1966653412468636e-05   -6.16814229290471e-05
-5.472075545893176e-05   1.1966653412468636e-05   -6.16814229290471e-05
-5.472075545893176e-05   1.1966653412468636e-05   -6.16814229290471e-05
-5.472075545893176e-05   1.1966653412468636e-05   -6.16814229290471e-05
-7.571538710249324e-05   1.2290936093950055e-05   -2.038236173621368e-05
-7.571538710249324e-05   1.2290936093950055e-05   -2.038236173621368e-05
-7.571538710249324e-05   1.2290936093950055e-05   -2.038236173621368e-05
-7.571538710249324e-05   1.2290936093950055e-05   -2.038236173621368e-05
-0.0001099416181212823   1.6999746850814013e-05   -7.460079364674356e-05
-0.0001099416181212823   1.6999746850814013e-05   -7.460079364674356e-05
-0.0001099416181212823   1.6999746850814013e-05   -7.460079364674356e-05
-0.0001099416181212823   1.6999746850814013e-05   -7.460079364674356e-05
-0.00010525045599098158   1.4378240076079463e-05   -6.58378030751923e-06
-0.00010525045599098158   1.4378240076079463e-05   -6.58378030751923e-06
-0.00010525045599098158   1.4378240076079463e-05   -6.58378030751923e-06
-0.00010525045599098158   1.4378240076079463e-05   -6.58378030751923e-06
-7.366413489287254e-05   1.9426259719077313e-05   -6.225646059016684e-05
-7.366413489287254e-05   1.9426259719077313e-05   -6.225646059016684e-05
-7.366413489287254e-05   1.9426259719077313e-05   -6.225646059016684e-05
-7.366413489287254e-05   1.9426259719077313e-05   -6.225646059016684e-05
-8.737365797740253e-05   1.619656269410746e-05   -3.7469437234301326e-05
-8.737365797740253e-05   1.619656269410746e-05   -3.7469437234301326e-05
-8.737365797740253e-05   1.619656269410746e-05   -3.7469437234301326e-05
-8.737365797740253e-05   1.619656269410746e-05   -3.7469437234301326e-05
-7.366413489287259e-05   1.4378240076079463e-05   -9.612592093318374e-06
-7.366413489287259e-05   1.4378240076079463e-05   -9.612592093318374e-06
-7.366413489287259e-05   1.4378240076079463e-05   -9.612592093318374e-06
-7.366413489287259e-05   1.4378240076079463e-05   -9.612592093318374e-06
-0.00010525045599098145   1.9426259719077313e-05   -5.9227648804367674e-05
-0.00010525045599098145   1.9426259719077313e-05   -5.9227648804367674e-05
-0.00010525045599098145   1.9426259719077313e-05   -5.9227648804367674e-05
-0.00010525045599098145   1.9426259719077313e-05   -5.9227648804367674e-05
-0.00010138973175687931   1.5125566086721283e-05   -8.319958496108559e-07
-0.00010138973175687931   1.5125566086721283e-05   -8.319958496108559e-07
-0.00010138973175687931   1.5125566086721283e-05   -8.319958496108559e-07
-0.00010138973175687931   1.5125566086721283e-05   -8.319958496108559e-07
-7.139724109515914e-05   2.0063395815583286e-05   -5.3782178123128044e-05
-7.139724109515914e-05   2.0063395815583286e-05   -5.3782178123128044e-05
-7.139724109515914e-05   2.0063395815583286e-05   -5.3782178123128044e-05
-7.139724109515914e-05   2.0063395815583286e-05   -5.3782178123128044e-05
-8.575944488205511e-05   1.7159376498876878e-05   -2.8102760221610174e-05
-8.575944488205511e-05   1.7159376498876878e-05   -2.8102760221610174e-05
-8.575944488205511e-05   1.7159376498876878e-05   -2.8102760221610174e-05
-8.575944488205511e-05   1.7159376498876878e-05   -2.8102760221610174e-05
-7.139724109515914e-05   1.5125566086721283e-05   -3.7946936869278844e-06
-7.139724109515914e-05   1.5125566086721283e-05   -3.7946936869278844e-06
-7.139724109515914e-05   1.5125566086721283e-05   -3.7946936869278844e-06
-7.139724109515914e-05   1.5125566086721283e-05   -3.7946936869278844e-06
-0.00010138973175687896   2.0063395815583286e-05   -5.0819480285811246e-05
-0.00010138973175687896   2.0063395815583286e-05   -5.0819480285811246e-05
-0.00010138973175687896   2.0063395815583286e-05   -5.0819480285811246e-05
-0.00010138973175687896   2.0063395815583286e-05   -5.0819480285811246e-05
-9.722977342503742e-05   1.6078446463107035e-05   6.4607820257989515e-06
-9.722977342503742e-05   1.6078446463107035e-05   6.4607820257989515e-06
-9.722977342503742e-05   1.6078446463107035e-05   6.4607820257989515e-06
-9.722977342503742e-05   1.6078446463107035e-05   6.4607820257989515e-06
-6.94809541633593e-05   2.061819905275434e-05   -4.251110163078625e-05
-6.94809541633593e-05   2.061819905275434e-05   -4.251110163078625e-05
-6.94809541633593e-05   2.061819905275434e-05   -4.251110163078625e-05
-6.94809541633593e-05   2.061819905275434e-05   -4.251110163078625e-05
-8.18544259104201e-05   1.7317454508634054e-05   -1.990820199254716e-05
-8.18544259104201e-05   1.7317454508634054e-05   -1.990820199254716e-05
-8.18544259104201e-05   1.7317454508634054e-05   -1.990820199254716e-05
-8.18544259104201e-05   1.7317454508634054e-05   -1.990820199254716e-05
9.448130040418757e-05   -1.3185394338520798e-05   1.854698217036363e-05
9.448130040418757e-05   -1.3185394338520798e-05   1.854698217036363e-05
9.448130040418757e-05   -1.3185394338520798e-05   1.854698217036363e-05
9.448130040418757e-05   -1.3185394338520798e-05   1.854698217036363e-05
4.5573279176916155e-05   -1.9551649408810177e-05   -6.678613958392872e-05
4.5573279176916155e-05   -1.9551649408810177e-05   -6.678613958392872e-05
4.5573279176916155e-05   -1.9551649408810177e-05   -6.678613958392872e-05
4.5573279176916155e-05   -1.9551649408810177e-05   -6.678613958392872e-05
4.745607366600036e-05   -1.225967853712897e-05   8.846967302397323e-06
4.745607366600036e-05   -1.225967853712897e-05   8.846967302397323e-06
4.745607366600036e-05   -1.225967853712897e-05   8.846967302397323e-06
4.745607366600036e-05   -1.225967853712897e-05   8.846967302397323e-06
9.883590428773852e-05   -1.909175314266428e-05   -7.26868389705125e-05
9.883590428773852e-05   -1.909175314266428e-05   -7.26868389705125e-05
9.883590428773852e-05   -1.909175314266428e-05   -7.26868389705125e-05
9.883590428773852e-05   -1.909175314266428e-05   -7.26868389705125e-05
6.867813189643526e-05   -1.4443228998189603e-05   -2.5212999471691325e-05
6.867813189643526e-05   -1.4443228998189603e-05   -2.5212999471691325e-05
6.867813189643526e-05   -1.4443228998189603e-05   -2.5212999471691325e-05
6.867813189643526e-05   -1.4443228998189603e-05   -2.5212999471691325e-05
9.883590428773868e-05   -1.225967853712897e-05   1.2946212065718075e-05
9.883590428773868e-05   -1.225967853712897e-05   1.2946212065718075e-05
9.883590428773868e-05   -1.225967853712897e-05   1.2946212065718075e-05
9.883590428773868e-05   -1.225967853712897e-05   1.2946212065718075e-05
4.74560736660003e-05   -1.909175314266428e-05   -7.678608373383315e-05
4.74560736660003e-05   -1.909175314266428e-05   -7.678608373383315e-05
4.74560736660003e-05   -1.909175314266428e-05   -7.678608373383315e-05
4.74560736660003e-05   -1.909175314266428e-05   -7.678608373383315e-05
4.932859960783426e-05   -1.1467671359294794e-05   4.1090470950877825e-06
4.932859960783426e-05   -1.1467671359294794e-05   4.1090470950877825e-06
4.932859960783426e-05   -1.1467671359294794e-05   4.1090470950877825e-06
4.932859960783426e-05   -1.1467671359294794e-05   4.1090470950877825e-06
0.00010218091609780368   -1.8430051393130906e-05   -7.980071903456061e-05
0.00010218091609780368   -1.8430051393130906e-05   -7.980071903456061e-05
0.00010218091609780368   -1.8430051393130906e-05   -7.980071903456061e-05
0.00010218091609780368   -1.8430051393130906e-05   -7.980071903456061e-05
7.234282681916766e-05   -1.4396242622018683e-05   -3.249085549950103e-05
7.234282681916766e-05   -1.4396242622018683e-05   -3.249085549950103e-05
7.234282681916766e-05   -1.4396242622018683e-05   -3.249085549950103e-05
7.234282681916766e-05   -1.4396242622018683e-05   -3.249085549950103e-05
0.00010218091609780368   -1.1467671359294794e-05   8.286475115388582e-06
0.00010218091609780368   -1.1467671359294794e-05   8.286475115388582e-06
0.00010218091609780368   -1.1467671359294794e-05   8.286475115388582e-06
0.00010218091609780368   -1.1467671359294794e-05   8.286475115388582e-06
4.932859960783426e-05   -1.843005139313004e-05   -8.397814705486195e-05
4.932859960783426e-05   -1.843005139313004e-05   -8.397814705486195e-05
4.932859960783426e-05   -1.843005139313004e-05   -8.397814705486195e-05
4.932859960783426e-05   -1.843005139313004e-05   -8.397814705486195e-05
5.0603254372624015e-05   -8.959015928991856e-06   -5.44723924363966e-06
5.0603254372624015e-05   -8.959015928991856e-06   -5.44723924363966e-06
5.0603254372624015e-05   -8.959015928991856e-06   -5.44723924363966e-06
5.0603254372624015e-05   -8.959015928991856e-06   -5.44723924363966e-06
0.00010571711626457904   -1.5845076622381625e-05   -9.317203931419706e-05
0.00010571711626457904   -1.5845076622381625e-05   -9.317203931419706e-05
0.00010571711626457904   -1.5845076622381625e-05   -9.317203931419706e-05
0.00010571711626457904   -1.5845076622381625e-05   -9.317203931419706e-05
7.338024033049902e-05   -1.3291869763572273e-05   -4.080917020601806e-05
7.338024033049902e-05   -1.3291869763572273e-05   -4.080917020601806e-05
7.338024033049902e-05   -1.3291869763572273e-05   -4.080917020601806e-05
7.338024033049902e-05   -1.3291869763572273e-05   -4.080917020601806e-05
4.5573279176916264e-05   -6.193341469376036e-06   -2.3276826883765478e-05
4.5573279176916264e-05   -6.193341469376036e-06   -2.3276826883765478e-05
4.5573279176916264e-05   -6.193341469376036e-06   -2.3276826883765478e-05
4.5573279176916264e-05   -6.193341469376036e-06   -2.3276826883765478e-05
-2.6827737516171932e-06   -1.2716117377961807e-05   -0.00010761724730980627
-2.6827737516171932e-06   -1.2716117377961807e-05   -0.00010761724730980627
-2.6827737516171932e-06   -1.2716117377961807e-05   -0.00010761724730980627
-2.6827737516171932e-06   -1.2716117377961807e-05   -0.00010761724730980627
-7.484488940535613e-07   -4.913238789713316e-06   -2.565536761094285e-05
-7.484488940535613e-07   -4.913238789713316e-06   -2.565536761094285e-05
-7.484488940535613e-07   -4.913238789713316e-06   -2.565536761094285e-05
-7.484488940535613e-07   -4.913238789713316e-06   -2.565536761094285e-05
4.745607366600036e-05   -1.21137328068701e-05   -0.00010167594213407135
4.745607366600036e-05   -1.21137328068701e-05   -0.00010167594213407135
4.745607366600036e-05   -1.21137328068701e-05   -0.00010167594213407135
4.745607366600036e-05   -1.21137328068701e-05   -0.00010167594213407135
2.2468465255445704e-05   -7.691102163343531e-06   -6.26835065025966e-05
2.2468465255445704e-05   -7.691102163343531e-06   -6.26835065025966e-05
2.2468465255445704e-05   -7.691102163343531e-06   -6.26835065025966e-05
2.2468465255445704e-05   -7.691102163343531e-06   -6.26835065025966e-05
4.745607366600036e-05   -4.913238789713316e-06   -2.133507120064774e-05
4.745607366600036e-05   -4.913238789713316e-06   -2.133507120064774e-05
4.745607366600036e-05   -4.913238789713316e-06   -2.133507120064774e-05
4.745607366600036e-05   -4.913238789713316e-06   -2.133507120064774e-05
-7.484488940535613e-07   -1.21137328068701e-05   -0.00010599623854436625
-7.484488940535613e-07   -1.21137328068701e-05   -0.00010599623854436625
-7.484488940535613e-07   -1.21137328068701e-05   -0.00010599623854436625
-7.484488940535613e-07   -1.21137328068701e-05   -0.00010599623854436625
9.562508917053424e-07   -3.347959736913972e-06   -2.6248675085282364e-05
9.562508917053424e-07   -3.347959736913972e-06   -2.6248675085282364e-05
9.562508917053424e-07   -3.347959736913972e-06   -2.6248675085282364e-05
9.562508917053424e-07   -3.347959736913972e-06   -2.6248675085282364e-05
4.932859960783426e-05   -1.098753589986231e-05   -0.00010228551058106151
4.932859960783426e-05   -1.098753589986231e-05   -0.00010228551058106151
4.932859960783426e-05   -1.098753589986231e-05   -0.00010228551058106151
4.932859960783426e-05   -1.098753589986231e-05   -0.00010228551058106151
2.3789155756367546e-05   -7.066917715826959e-06   -6.207214173903678e-05
2.3789155756367546e-05   -7.066917715826959e-06   -6.207214173903678e-05
2.3789155756367546e-05   -7.066917715826959e-06   -6.207214173903678e-05
2.3789155756367546e-05   -7.066917715826959e-06   -6.207214173903678e-05
4.932859960783426e-05   -3.347959736913972e-06   -2.1664929387512927e-05
4.932859960783426e-05   -3.347959736913972e-06   -2.1664929387512927e-05
4.932859960783426e-05   -3.347959736913972e-06   -2.1664929387512927e-05
4.932859960783426e-05   -3.347959736913972e-06   -2.1664929387512927e-05
9.562508917053424e-07   -1.0987535899863177e-05   -0.00010686925627883094
9.562508917053424e-07   -1.0987535899863177e-05   -0.00010686925627883094
9.562508917053424e-07   -1.0987535899863177e-05   -0.00010686925627883094
9.562508917053424e-07   -1.0987535899863177e-05   -0.00010686925627883094
2.1714497933098876e-06   -1.3796982510439273e-06   -2.7271666603528172e-05
2.1714497933098876e-06   -1.3796982510439273e-06   -2.7271666603528172e-05
2.1714497933098876e-06   -1.3796982510439273e-06   -2.7271666603528172e-05
2.1714497933098876e-06   -1.3796982510439273e-06   -2.7271666603528172e-05
5.060325437262418e-05   -9.385576954266256e-06   -0.00010318781368045193
5.060325437262418e-05   -9.385576954266256e-06   -0.00010318781368045193
5.060325437262418e-05   -9.385576954266256e-06   -0.00010318781368045193
5.060325437262418e-05   -9.385576954266256e-06   -0.00010318781368045193
2.5364102699250928e-05   -5.9641044481010055e-06   -6.317544439519702e-05
2.5364102699250928e-05   -5.9641044481010055e-06   -6.317544439519702e-05
2.5364102699250928e-05   -5.9641044481010055e-06   -6.317544439519702e-05
2.5364102699250928e-05   -5.9641044481010055e-06   -6.317544439519702e-05
-2.6827737516171932e-06   1.0906813852620476e-06   -3.531997149950608e-05
-2.6827737516171932e-06   1.0906813852620476e-06   -3.531997149950608e-05
-2.6827737516171932e-06   1.0906813852620476e-06   -3.531997149950608e-05
-2.6827737516171932e-06   1.0906813852620476e-06   -3.531997149950608e-05
-5.022575181783119e-05   -6.748566753067217e-06   -0.00011926181715952739
-5.022575181783119e-05   -6.748566753067217e-06   -0.00011926181715952739
-5.022575181783119e-05   -6.748566753067217e-06   -0.00011926181715952739
-5.022575181783119e-05   -6.748566753067217e-06   -0.00011926181715952739
-4.790554122483816e-05   2.5270846262699653e-06   -3.842043757915775e-05
-4.790554122483816e-05   2.5270846262699653e-06   -3.842043757915775e-05
-4.790554122483816e-05   2.5270846262699653e-06   -3.842043757915775e-05
-4.790554122483816e-05   2.5270846262699653e-06   -3.842043757915775e-05
-7.484488940535613e-07   -6.040810105463305e-06   -0.00011187485462475874
-7.484488940535613e-07   -6.040810105463305e-06   -0.00011187485462475874
-7.484488940535613e-07   -6.040810105463305e-06   -0.00011187485462475874
-7.484488940535613e-07   -6.040810105463305e-06   -0.00011187485462475874
-2.5086563591789208e-05   -1.3514884396057317e-06   -7.412492312804694e-05
-2.5086563591789208e-05   -1.3514884396057317e-06   -7.412492312804694e-05
-2.5086563591789208e-05   -1.3514884396057317e-06   -7.412492312804694e-05
-2.5086563591789208e-05   -1.3514884396057317e-06   -7.412492312804694e-05
-7.484488940535613e-07   2.5270846262708327e-06   -3.3279700740117615e-05
-7.484488940535613e-07   2.5270846262708327e-06   -3.3279700740117615e-05
-7.484488940535613e-07   2.5270846262708327e-06   -3.3279700740117615e-05
-7.484488940535613e-07   2.5270846262708327e-06   -3.3279700740117615e-05
-4.790554122483816e-05   -6.040810105463305e-06   -0.0001170155914637992
-4.790554122483816e-05   -6.040810105463305e-06   -0.0001170155914637992
-4.790554122483816e-05   -6.040810105463305e-06   -0.0001170155914637992
-4.790554122483816e-05   -6.040810105463305e-06   -0.0001170155914637992
-4.577679193172796e-05   4.192435069644458e-06   -3.773373120746076e-05
-4.577679193172796e-05   4.192435069644458e-06   -3.773373120746076e-05
-4.577679193172796e-05   4.192435069644458e-06   -3.773373120746076e-05
-4.577679193172796e-05   4.192435069644458e-06   -3.773373120746076e-05
9.562508917053424e-07   -4.9322483322757765e-06   -0.00011014732587203064
9.562508917053424e-07   -4.9322483322757765e-06   -0.00011014732587203064
9.562508917053424e-07   -4.9322483322757765e-06   -0.00011014732587203064
9.562508917053424e-07   -4.9322483322757765e-06   -0.00011014732587203064
-2.3195400820931347e-05   -5.386532969369612e-07   -7.253073003883875e-05
-2.3195400820931347e-05   -5.386532969369612e-07   -7.253073003883875e-05
-2.3195400820931347e-05   -5.386532969369612e-07   -7.253073003883875e-05
-2.3195400820931347e-05   -5.386532969369612e-07   -7.253073003883875e-05
9.562508917053424e-07   4.192435069644458e-06   -3.225892116630845e-05
9.562508917053424e-07   4.192435069644458e-06   -3.225892116630845e-05
9.562508917053424e-07   4.192435069644458e-06   -3.225892116630845e-05
9.562508917053424e-07   4.192435069644458e-06   -3.225892116630845e-05
-4.577679193172803e-05   -4.9322483322757765e-06   -0.00011562213591318317
-4.577679193172803e-05   -4.9322483322757765e-06   -0.00011562213591318317
-4.577679193172803e-05   -4.9322483322757765e-06   -0.00011562213591318317
-4.577679193172803e-05   -4.9322483322757765e-06   -0.00011562213591318317
-4.4340900815438274e-05   5.913891958799107e-06   -3.838202609431551e-05
-4.4340900815438274e-05   5.913891958799107e-06   -3.838202609431551e-05
-4.4340900815438274e-05   5.913891958799107e-06   -3.838202609431551e-05
-4.4340900815438274e-05   5.913891958799107e-06   -3.838202609431551e-05
2.1714497933098876e-06   -3.881962816735043e-06   -0.00011002509757690877
2.1714497933098876e-06   -3.881962816735043e-06   -0.00011002509757690877
2.1714497933098876e-06   -3.881962816735043e-06   -0.00011002509757690877
2.1714497933098876e-06   -3.881962816735043e-06   -0.00011002509757690877
-2.1845027126519894e-05   3.7474875380725386e-07   -7.255166298618539e-05
-2.1845027126519894e-05   3.7474875380725386e-07   -7.255166298618539e-05
-2.1845027126519894e-05   3.7474875380725386e-07   -7.255166298618539e-05
-2.1845027126519894e-05   3.7474875380725386e-07   -7.255166298618539e-05
-5.022575181783111e-05   8.634605903831867e-06   -2.8863388386188727e-05
-5.022575181783111e-05   8.634605903831867e-06   -2.8863388386188727e-05
-5.022575181783111e-05   8.634605903831867e-06   -2.8863388386188727e-05
-5.022575181783111e-05   8.634605903831867e-06   -2.8863388386188727e-05
-9.842218067605815e-05   1.559817106602801e-06   -0.00011343564309490442
-9.842218067605815e-05   1.559817106602801e-06   -0.00011343564309490442
-9.842218067605815e-05   1.559817106602801e-06   -0.00011343564309490442
-9.842218067605815e-05   1.559817106602801e-06   -0.00011343564309490442
-9.511985708423836e-05   1.0461142850585331e-05   -3.0785342245808704e-05
-9.511985708423836e-05   1.0461142850585331e-05   -3.0785342245808704e-05
-9.511985708423836e-05   1.0461142850585331e-05   -3.0785342245808704e-05
-9.511985708423836e-05   1.0461142850585331e-05   -3.0785342245808704e-05
-4.790554122483808e-05   2.8780670127586186e-06   -0.00010492602317544602
-4.790554122483808e-05   2.8780670127586186e-06   -0.00010492602317544602
-4.790554122483808e-05   2.8780670127586186e-06   -0.00010492602317544602
-4.790554122483808e-05   2.8780670127586186e-06   -0.00010492602317544602
-7.215776790267701e-05   6.51558908208727e-06   -6.668815862064534e-05
-7.215776790267701e-05   6.51558908208727e-06   -6.668815862064534e-05
-7.215776790267701e-05   6.51558908208727e-06   -6.668815862064534e-05
-7.215776790267701e-05   6.51558908208727e-06   -6.668815862064534e-05
-4.790554122483808e-05   1.0461142850585331e-05   -2.6235496743112242e-05
-4.790554122483808e-05   1.0461142850585331e-05   -2.6235496743112242e-05
-4.790554122483808e-05   1.0461142850585331e-05   -2.6235496743112242e-05
-4.790554122483808e-05   1.0461142850585331e-05   -2.6235496743112242e-05
-9.511985708423852e-05   2.8780670127586186e-06   -0.00010947586867814238
-9.511985708423852e-05   2.8780670127586186e-06   -0.00010947586867814238
-9.511985708423852e-05   2.8780670127586186e-06   -0.00010947586867814238
-9.511985708423852e-05   2.8780670127586186e-06   -0.00010947586867814238
-9.193071218321805e-05   1.2034528509832429e-05   -2.8070594769747607e-05
-9.193071218321805e-05   1.2034528509832429e-05   -2.8070594769747607e-05
-9.193071218321805e-05   1.2034528509832429e-05   -2.8070594769747607e-05
-9.193071218321805e-05   1.2034528509832429e-05   -2.8070594769747607e-05
-4.577679193172803e-05   4.092597059469384e-06   -0.00010022863631867972
-4.577679193172803e-05   4.092597059469384e-06   -0.00010022863631867972
-4.577679193172803e-05   4.092597059469384e-06   -0.00010022863631867972
-4.577679193172803e-05   4.092597059469384e-06   -0.00010022863631867972
-6.917790077050307e-05   7.662404175999386e-06   -6.336867252397212e-05
-6.917790077050307e-05   7.662404175999386e-06   -6.336867252397212e-05
-6.917790077050307e-05   7.662404175999386e-06   -6.336867252397212e-05
-6.917790077050307e-05   7.662404175999386e-06   -6.336867252397212e-05
-4.577679193172792e-05   1.2034528509832429e-05   -2.3305435899529086e-05
-4.577679193172792e-05   1.2034528509832429e-05   -2.3305435899529086e-05
-4.577679193172792e-05   1.2034528509832429e-05   -2.3305435899529086e-05
-4.577679193172792e-05   1.2034528509832429e-05   -2.3305435899529086e-05
-9.19307121832182e-05   4.092597059469384e-06   -0.00010499379518889764
-9.19307121832182e-05   4.092597059469384e-06   -0.00010499379518889764
-9.19307121832182e-05   4.092597059469384e-06   -0.00010499379518889764
-9.19307121832182e-05   4.092597059469384e-06   -0.00010499379518889764
-8.950688219382984e-05   1.3777082634300851e-05   -2.8158071169757503e-05
-8.950688219382984e-05   1.3777082634300851e-05   -2.8158071169757503e-05
-8.950688219382984e-05   1.3777082634300851e-05   -2.8158071169757503e-05
-8.950688219382984e-05   1.3777082634300851e-05   -2.8158071169757503e-05
-4.4340900815438355e-05   5.122099403193775e-06   -9.824171686174639e-05
-4.4340900815438355e-05   5.122099403193775e-06   -9.824171686174639e-05
-4.4340900815438355e-05   5.122099403193775e-06   -9.824171686174639e-05
-4.4340900815438355e-05   5.122099403193775e-06   -9.824171686174639e-05
-6.749794436084505e-05   8.462240897058257e-06   -6.16507291823869e-05
-6.749794436084505e-05   8.462240897058257e-06   -6.16507291823869e-05
-6.749794436084505e-05   8.462240897058257e-06   -6.16507291823869e-05
-6.749794436084505e-05   8.462240897058257e-06   -6.16507291823869e-05
-9.842218067605815e-05   1.6999746850814013e-05   -1.6583464886003093e-05
-9.842218067605815e-05   1.6999746850814013e-05   -1.6583464886003093e-05
-9.842218067605815e-05   1.6999746850814013e-05   -1.6583464886003093e-05
-9.842218067605815e-05   1.6999746850814013e-05   -1.6583464886003093e-05
-0.0001487497194181249   1.6019413578014646e-05   -0.00010105089608646164
-0.0001487497194181249   1.6019413578014646e-05   -0.00010105089608646164
-0.0001487497194181249   1.6019413578014646e-05   -0.00010105089608646164
-0.0001487497194181249   1.6019413578014646e-05   -0.00010105089608646164
-0.0001422605136895309   1.9426259719077313e-05   -6.771406676547506e-07
-0.0001422605136895309   1.9426259719077313e-05   -6.771406676547506e-07
-0.0001422605136895309   1.9426259719077313e-05   -6.771406676547506e-07
-0.0001422605136895309   1.9426259719077313e-05   -6.771406676547506e-07
-9.51198570842382e-05   2.0319812266699627e-05   -7.978103320504944e-05
-9.51198570842382e-05   2.0319812266699627e-05   -7.978103320504944e-05
-9.51198570842382e-05   2.0319812266699627e-05   -7.978103320504944e-05
-9.51198570842382e-05   2.0319812266699627e-05   -7.978103320504944e-05
-0.00011591212865311955   1.9164888662250024e-05   -4.443429309424407e-05
-0.00011591212865311955   1.9164888662250024e-05   -4.443429309424407e-05
-0.00011591212865311955   1.9164888662250024e-05   -4.443429309424407e-05
-0.00011591212865311955   1.9164888662250024e-05   -4.443429309424407e-05
-9.511985708423844e-05   1.9426259719077313e-05   -1.2132721962281393e-06
-9.511985708423844e-05   1.9426259719077313e-05   -1.2132721962281393e-06
-9.511985708423844e-05   1.9426259719077313e-05   -1.2132721962281393e-06
-9.511985708423844e-05   1.9426259719077313e-05   -1.2132721962281393e-06
-0.0001422605136895309   2.0319812266699627e-05   -7.924490167647569e-05
-0.0001422605136895309   2.0319812266699627e-05   -7.924490167647569e-05
-0.0001422605136895309   2.0319812266699627e-05   -7.924490167647569e-05
-0.0001422605136895309   2.0319812266699627e-05   -7.924490167647569e-05
-0.00013687456430919913   2.0063395815583286e-05   8.314701935286956e-06
-0.00013687456430919913   2.0063395815583286e-05   8.314701935286956e-06
-0.00013687456430919913   2.0063395815583286e-05   8.314701935286956e-06
-0.00013687456430919913   2.0063395815583286e-05   8.314701935286956e-06
-9.193071218321805e-05   2.128445286639271e-05   -6.732435250516766e-05
-9.193071218321805e-05   2.128445286639271e-05   -6.732435250516766e-05
-9.193071218321805e-05   2.128445286639271e-05   -6.732435250516766e-05
-9.193071218321805e-05   2.128445286639271e-05   -6.732435250516766e-05
-0.00011343280703570336   2.0561462707438874e-05   -3.105373365565214e-05
-0.00011343280703570336   2.0561462707438874e-05   -3.105373365565214e-05
-0.00011343280703570336   2.0561462707438874e-05   -3.105373365565214e-05
-0.00011343280703570336   2.0561462707438874e-05   -3.105373365565214e-05
-9.19307121832182e-05   2.0063395815583286e-05   7.582067704800868e-06
-9.19307121832182e-05   2.0063395815583286e-05   7.582067704800868e-06
-9.19307121832182e-05   2.0063395815583286e-05   7.582067704800868e-06
-9.19307121832182e-05   2.0063395815583286e-05   7.582067704800868e-06
-0.00013687456430919892   2.128445286639271e-05   -6.659171827468188e-05
-0.00013687456430919892   2.128445286639271e-05   -6.659171827468188e-05
-0.00013687456430919892   2.128445286639271e-05   -6.659171827468188e-05
-0.00013687456430919892   2.128445286639271e-05   -6.659171827468188e-05
-0.00013124571344152758   2.061819905275434e-05   2.0352371661239502e-05
-0.00013124571344152758   2.061819905275434e-05   2.0352371661239502e-05
-0.00013124571344152758   2.061819905275434e-05   2.0352371661239502e-05
-0.00013124571344152758   2.061819905275434e-05   2.0352371661239502e-05
-8.950688219382984e-05   2.2953253270361317e-05   -5.0613379615488334e-05
-8.950688219382984e-05   2.2953253270361317e-05   -5.0613379615488334e-05
-8.950688219382984e-05   2.2953253270361317e-05   -5.0613379615488334e-05
-8.950688219382984e-05   2.2953253270361317e-05   -5.0613379615488334e-05
-0.00010800729576267371   2.103572559314544e-05   -1.862884039441977e-05
-0.00010800729576267371   2.103572559314544e-05   -1.862884039441977e-05
-0.00010800729576267371   2.103572559314544e-05   -1.862884039441977e-05
-0.00010800729576267371   2.103572559314544e-05   -1.862884039441977e-05
0.00013003659000493904   -1.955164940880931e-05   4.4215907910281904e-05
0.00013003659000493904   -1.955164940880931e-05   4.4215907910281904e-05
0.00013003659000493904   -1.955164940880931e-05   4.4215907910281904e-05
0.00013003659000493904   -1.955164940880931e-05   4.4215907910281904e-05
6.540882318296378e-05   -2.474809606819485e-05   -6.661490478864157e-05
6.540882318296378e-05   -2.474809606819485e-05   -6.661490478864157e-05
6.540882318296378e-05   -2.474809606819485e-05   -6.661490478864157e-05
6.540882318296378e-05   -2.474809606819485e-05   -6.661490478864157e-05
6.702180998405884e-05   -1.9091753142663412e-05   3.168034465107555e-05
6.702180998405884e-05   -1.9091753142663412e-05   3.168034465107555e-05
6.702180998405884e-05   -1.9091753142663412e-05   3.168034465107555e-05
6.702180998405884e-05   -1.9091753142663412e-05   3.168034465107555e-05
0.00013329621078294712   -2.5367044523256707e-05   -7.501181518538224e-05
0.00013329621078294712   -2.5367044523256707e-05   -7.501181518538224e-05
0.00013329621078294712   -2.5367044523256707e-05   -7.501181518538224e-05
0.00013329621078294712   -2.5367044523256707e-05   -7.501181518538224e-05
9.500274015860683e-05   -1.9972282225374192e-05   -1.4426221523544192e-05
9.500274015860683e-05   -1.9972282225374192e-05   -1.4426221523544192e-05
9.500274015860683e-05   -1.9972282225374192e-05   -1.4426221523544192e-05
9.500274015860683e-05   -1.9972282225374192e-05   -1.4426221523544192e-05
0.00013329621078294712   -1.9091753142663412e-05   3.5445519479431094e-05
0.00013329621078294712   -1.9091753142663412e-05   3.5445519479431094e-05
0.00013329621078294712   -1.9091753142663412e-05   3.5445519479431094e-05
0.00013329621078294712   -1.9091753142663412e-05   3.5445519479431094e-05
6.702180998405884e-05   -2.5367044523256707e-05   -7.877699001373811e-05
6.702180998405884e-05   -2.5367044523256707e-05   -7.877699001373811e-05
6.702180998405884e-05   -2.5367044523256707e-05   -7.877699001373811e-05
6.702180998405884e-05   -2.5367044523256707e-05   -7.877699001373811e-05
6.838553044631552e-05   -1.843005139313004e-05   2.497835348023482e-05
6.838553044631552e-05   -1.843005139313004e-05   2.497835348023482e-05
6.838553044631552e-05   -1.843005139313004e-05   2.497835348023482e-05
6.838553044631552e-05   -1.843005139313004e-05   2.497835348023482e-05
0.00013532915151583255   -2.51401328498959e-05   -8.256829942823436e-05
0.00013532915151583255   -2.51401328498959e-05   -8.256829942823436e-05
0.00013532915151583255   -2.51401328498959e-05   -8.256829942823436e-05
0.00013532915151583255   -2.51401328498959e-05   -8.256829942823436e-05
9.836520255189696e-05   -2.0606684870742853e-05   -2.368178660916648e-05
9.836520255189696e-05   -2.0606684870742853e-05   -2.368178660916648e-05
9.836520255189696e-05   -2.0606684870742853e-05   -2.368178660916648e-05
9.836520255189696e-05   -2.0606684870742853e-05   -2.368178660916648e-05
0.00013532915151583255   -1.843005139313004e-05   2.900440235429399e-05
0.00013532915151583255   -1.843005139313004e-05   2.900440235429399e-05
0.00013532915151583255   -1.843005139313004e-05   2.900440235429399e-05
0.00013532915151583255   -1.843005139313004e-05   2.900440235429399e-05
6.838553044631552e-05   -2.51401328498959e-05   -8.659434830229342e-05
6.838553044631552e-05   -2.51401328498959e-05   -8.659434830229342e-05
6.838553044631552e-05   -2.51401328498959e-05   -8.659434830229342e-05
6.838553044631552e-05   -2.51401328498959e-05   -8.659434830229342e-05
6.98124883648717e-05   -1.5845076622381625e-05   1.1957130386049987e-05
6.98124883648717e-05   -1.5845076622381625e-05   1.1957130386049987e-05
6.98124883648717e-05   -1.5845076622381625e-05   1.1957130386049987e-05
6.98124883648717e-05   -1.5845076622381625e-05   1.1957130386049987e-05
0.00013733072035420545   -2.374998979202004e-05   -9.583030836105629e-05
0.00013733072035420545   -2.374998979202004e-05   -9.583030836105629e-05
0.00013733072035420545   -2.374998979202004e-05   -9.583030836105629e-05
0.00013733072035420545   -2.374998979202004e-05   -9.583030836105629e-05
9.842820233464441e-05   -1.9836352854326993e-05   -3.3340960491070985e-05
9.842820233464441e-05   -1.9836352854326993e-05   -3.3340960491070985e-05
9.842820233464441e-05   -1.9836352854326993e-05   -3.3340960491070985e-05
9.842820233464441e-05   -1.9836352854326993e-05   -3.3340960491070985e-05
6.540882318296378e-05   -1.2716117377961807e-05   4.180597733924752e-06
6.540882318296378e-05   -1.2716117377961807e-05   4.180597733924752e-06
6.540882318296378e-05   -1.2716117377961807e-05   4.180597733924752e-06
6.540882318296378e-05   -1.2716117377961807e-05   4.180597733924752e-06
7.880951466912188e-06   -2.493940444104909e-05   -9.90331606973466e-05
7.880951466912188e-06   -2.493940444104909e-05   -9.90331606973466e-05
7.880951466912188e-06   -2.493940444104909e-05   -9.90331606973466e-05
7.880951466912188e-06   -2.493940444104909e-05   -9.90331606973466e-05
9.762304475880075e-06   -1.21137328068701e-05   -8.314424959406791e-07
9.762304475880075e-06   -1.21137328068701e-05   -8.314424959406791e-07
9.762304475880075e-06   -1.21137328068701e-05   -8.314424959406791e-07
9.762304475880075e-06   -1.21137328068701e-05   -8.314424959406791e-07
6.702180998405894e-05   -2.481694738483333e-05   -8.864202292946057e-05
6.702180998405894e-05   -2.481694738483333e-05   -8.864202292946057e-05
6.702180998405894e-05   -2.481694738483333e-05   -8.864202292946057e-05
6.702180998405894e-05   -2.481694738483333e-05   -8.864202292946057e-05
3.766737912767605e-05   -1.681889000134263e-05   -4.4516805932250277e-05
3.766737912767605e-05   -1.681889000134263e-05   -4.4516805932250277e-05
3.766737912767605e-05   -1.681889000134263e-05   -4.4516805932250277e-05
3.766737912767605e-05   -1.681889000134263e-05   -4.4516805932250277e-05
6.702180998405878e-05   -1.2113732806870968e-05   6.790486250837346e-06
6.702180998405878e-05   -1.2113732806870968e-05   6.790486250837346e-06
6.702180998405878e-05   -1.2113732806870968e-05   6.790486250837346e-06
6.702180998405878e-05   -1.2113732806870968e-05   6.790486250837346e-06
9.762304475880075e-06   -2.481694738483333e-05   -9.626395167623833e-05
9.762304475880075e-06   -2.481694738483333e-05   -9.626395167623833e-05
9.762304475880075e-06   -2.481694738483333e-05   -9.626395167623833e-05
9.762304475880075e-06   -2.481694738483333e-05   -9.626395167623833e-05
1.1460714716519992e-05   -1.0987535899863177e-05   -1.4312164770833094e-06
1.1460714716519992e-05   -1.0987535899863177e-05   -1.4312164770833094e-06
1.1460714716519992e-05   -1.0987535899863177e-05   -1.4312164770833094e-06
1.1460714716519992e-05   -1.0987535899863177e-05   -1.4312164770833094e-06
6.838553044631552e-05   -2.44912132850595e-05   -8.820370292895752e-05
6.838553044631552e-05   -2.44912132850595e-05   -8.820370292895752e-05
6.838553044631552e-05   -2.44912132850595e-05   -8.820370292895752e-05
6.838553044631552e-05   -2.44912132850595e-05   -8.820370292895752e-05
3.8740342749766664e-05   -1.7010609958513848e-05   -4.328341876396846e-05
3.8740342749766664e-05   -1.7010609958513848e-05   -4.328341876396846e-05
3.8740342749766664e-05   -1.7010609958513848e-05   -4.328341876396846e-05
3.8740342749766664e-05   -1.7010609958513848e-05   -4.328341876396846e-05
6.838553044631552e-05   -1.0987535899863177e-05   6.6709899540348325e-06
6.838553044631552e-05   -1.0987535899863177e-05   6.6709899540348325e-06
6.838553044631552e-05   -1.0987535899863177e-05   6.6709899540348325e-06
6.838553044631552e-05   -1.0987535899863177e-05   6.6709899540348325e-06
1.1460714716519992e-05   -2.44912132850595e-05   -9.630590936007561e-05
1.1460714716519992e-05   -2.44912132850595e-05   -9.630590936007561e-05
1.1460714716519992e-05   -2.44912132850595e-05   -9.630590936007561e-05
1.1460714716519992e-05   -2.44912132850595e-05   -9.630590936007561e-05
1.399434676550287e-05   -9.385576954267123e-06   -2.597057224054504e-06
1.399434676550287e-05   -9.385576954267123e-06   -2.597057224054504e-06
1.399434676550287e-05   -9.385576954267123e-06   -2.597057224054504e-06
1.399434676550287e-05   -9.385576954267123e-06   -2.597057224054504e-06
6.981248836487164e-05   -2.383565972073967e-05   -8.695724356311865e-05
6.981248836487164e-05   -2.383565972073967e-05   -8.695724356311865e-05
6.981248836487164e-05   -2.383565972073967e-05   -8.695724356311865e-05
6.981248836487164e-05   -2.383565972073967e-05   -8.695724356311865e-05
4.077428867299546e-05   -1.6755345928490088e-05   -4.280843235200801e-05
4.077428867299546e-05   -1.6755345928490088e-05   -4.280843235200801e-05
4.077428867299546e-05   -1.6755345928490088e-05   -4.280843235200801e-05
4.077428867299546e-05   -1.6755345928490088e-05   -4.280843235200801e-05
7.880951466912188e-06   -6.7485667530680846e-06   -1.0094395470650573e-05
7.880951466912188e-06   -6.7485667530680846e-06   -1.0094395470650573e-05
7.880951466912188e-06   -6.7485667530680846e-06   -1.0094395470650573e-05
7.880951466912188e-06   -6.7485667530680846e-06   -1.0094395470650573e-05
-4.9057100430767084e-05   -3.0204064261964494e-05   -0.00011906444713878769
-4.9057100430767084e-05   -3.0204064261964494e-05   -0.00011906444713878769
-4.9057100430767084e-05   -3.0204064261964494e-05   -0.00011906444713878769
-4.9057100430767084e-05   -3.0204064261964494e-05   -0.00011906444713878769
-4.612783833457372e-05   -6.040810105462438e-06   -2.1613929742264268e-05
-4.612783833457372e-05   -6.040810105462438e-06   -2.1613929742264268e-05
-4.612783833457372e-05   -6.040810105462438e-06   -2.1613929742264268e-05
-4.612783833457372e-05   -6.040810105462438e-06   -2.1613929742264268e-05
9.762304475880075e-06   -3.0880595382015014e-05   -9.986029659375645e-05
9.762304475880075e-06   -3.0880595382015014e-05   -9.986029659375645e-05
9.762304475880075e-06   -3.0880595382015014e-05   -9.986029659375645e-05
9.762304475880075e-06   -3.0880595382015014e-05   -9.986029659375645e-05
-1.8722906669677638e-05   -1.7106902444923716e-05   -6.0649160446747544e-05
-1.8722906669677638e-05   -1.7106902444923716e-05   -6.0649160446747544e-05
-1.8722906669677638e-05   -1.7106902444923716e-05   -6.0649160446747544e-05
-1.8722906669677638e-05   -1.7106902444923716e-05   -6.0649160446747544e-05
9.762304475880075e-06   -6.040810105462438e-06   -6.7100585763330695e-06
9.762304475880075e-06   -6.040810105462438e-06   -6.7100585763330695e-06
9.762304475880075e-06   -6.040810105462438e-06   -6.7100585763330695e-06
9.762304475880075e-06   -6.040810105462438e-06   -6.7100585763330695e-06
-4.6127838334573826e-05   -3.0880595382015014e-05   -0.00011476416775968749
-4.6127838334573826e-05   -3.0880595382015014e-05   -0.00011476416775968749
-4.6127838334573826e-05   -3.0880595382015014e-05   -0.00011476416775968749
-4.6127838334573826e-05   -3.0880595382015014e-05   -0.00011476416775968749
-4.3605124530648705e-05   -4.9322483322757765e-06   -2.0197810728927578e-05
-4.3605124530648705e-05   -4.9322483322757765e-06   -2.0197810728927578e-05
-4.3605124530648705e-05   -4.9322483322757765e-06   -2.0197810728927578e-05
-4.3605124530648705e-05   -4.9322483322757765e-06   -2.0197810728927578e-05
1.1460714716519992e-05   -3.0746456096684624e-05   -9.648568481556417e-05
1.1460714716519992e-05   -3.0746456096684624e-05   -9.648568481556417e-05
1.1460714716519992e-05   -3.0746456096684624e-05   -9.648568481556417e-05
1.1460714716519992e-05   -3.0746456096684624e-05   -9.648568481556417e-05
-1.6642165681749307e-05   -1.750200141723956e-05   -5.759422362611481e-05
-1.6642165681749307e-05   -1.750200141723956e-05   -5.759422362611481e-05
-1.6642165681749307e-05   -1.750200141723956e-05   -5.759422362611481e-05
-1.6642165681749307e-05   -1.750200141723956e-05   -5.759422362611481e-05
1.1460714716519992e-05   -4.9322483322757765e-06   -4.70928607028279e-06
1.1460714716519992e-05   -4.9322483322757765e-06   -4.70928607028279e-06
1.1460714716519992e-05   -4.9322483322757765e-06   -4.70928607028279e-06
1.1460714716519992e-05   -4.9322483322757765e-06   -4.70928607028279e-06
-4.360512453064887e-05   -3.0746456096684624e-05   -0.00011197420947420917
-4.360512453064887e-05   -3.0746456096684624e-05   -0.00011197420947420917
-4.360512453064887e-05   -3.0746456096684624e-05   -0.00011197420947420917
-4.360512453064887e-05   -3.0746456096684624e-05   -0.00011197420947420917
-3.9253454758432434e-05   -3.881962816734176e-06   -2.010988662182623e-05
-3.9253454758432434e-05   -3.881962816734176e-06   -2.010988662182623e-05
-3.9253454758432434e-05   -3.881962816734176e-06   -2.010988662182623e-05
-3.9253454758432434e-05   -3.881962816734176e-06   -2.010988662182623e-05
1.3994346765502897e-05   -2.968041735548245e-05   -9.337714977180353e-05
1.3994346765502897e-05   -2.968041735548245e-05   -9.337714977180353e-05
1.3994346765502897e-05   -2.968041735548245e-05   -9.337714977180353e-05
1.3994346765502897e-05   -2.968041735548245e-05   -9.337714977180353e-05
-1.3938726078267119e-05   -1.7123283652705455e-05   -5.435630858718595e-05
-1.3938726078267119e-05   -1.7123283652705455e-05   -5.435630858718595e-05
-1.3938726078267119e-05   -1.7123283652705455e-05   -5.435630858718595e-05
-1.3938726078267119e-05   -1.7123283652705455e-05   -5.435630858718595e-05
-4.9057100430767e-05   1.559817106602801e-06   -1.4096646633028707e-05
-4.9057100430767e-05   1.559817106602801e-06   -1.4096646633028707e-05
-4.9057100430767e-05   1.559817106602801e-06   -1.4096646633028707e-05
-4.9057100430767e-05   1.559817106602801e-06   -1.4096646633028707e-05
-0.00011262912506967282   -3.777551914257993e-05   -0.0001436512227807143
-0.00011262912506967282   -3.777551914257993e-05   -0.0001436512227807143
-0.00011262912506967282   -3.777551914257993e-05   -0.0001436512227807143
-0.00011262912506967282   -3.777551914257993e-05   -0.0001436512227807143
-0.00010913993213056186   2.8780670127577512e-06   -3.6530973194567364e-05
-0.00010913993213056186   2.8780670127577512e-06   -3.6530973194567364e-05
-0.00010913993213056186   2.8780670127577512e-06   -3.6530973194567364e-05
-0.00010913993213056186   2.8780670127577512e-06   -3.6530973194567364e-05
-4.612783833457372e-05   -4.213295255500217e-05   -0.0001145445177805577
-4.612783833457372e-05   -4.213295255500217e-05   -0.0001145445177805577
-4.612783833457372e-05   -4.213295255500217e-05   -0.0001145445177805577
-4.612783833457372e-05   -4.213295255500217e-05   -0.0001145445177805577
-7.809242323289332e-05   -1.9271032985410802e-05   -7.498736135844696e-05
-7.809242323289332e-05   -1.9271032985410802e-05   -7.498736135844696e-05
-7.809242323289332e-05   -1.9271032985410802e-05   -7.498736135844696e-05
-7.809242323289332e-05   -1.9271032985410802e-05   -7.498736135844696e-05
-4.612783833457372e-05   2.8780670127577512e-06   -9.524361453910977e-06
-4.612783833457372e-05   2.8780670127577512e-06   -9.524361453910977e-06
-4.612783833457372e-05   2.8780670127577512e-06   -9.524361453910977e-06
-4.612783833457372e-05   2.8780670127577512e-06   -9.524361453910977e-06
-0.00010913993213056186   -4.213295255500304e-05   -0.00014155112952121468
-0.00010913993213056186   -4.213295255500304e-05   -0.00014155112952121468
-0.00010913993213056186   -4.213295255500304e-05   -0.00014155112952121468
-0.00010913993213056186   -4.213295255500304e-05   -0.00014155112952121468
-0.00010579420959190794   4.092597059469384e-06   -3.26869618772767e-05
-0.00010579420959190794   4.092597059469384e-06   -3.26869618772767e-05
-0.00010579420959190794   4.092597059469384e-06   -3.26869618772767e-05
-0.00010579420959190794   4.092597059469384e-06   -3.26869618772767e-05
-4.360512453064879e-05   -4.2378487511950114e-05   -0.00010845278623652303
-4.360512453064879e-05   -4.2378487511950114e-05   -0.00010845278623652303
-4.360512453064879e-05   -4.2378487511950114e-05   -0.00010845278623652303
-4.360512453064879e-05   -4.2378487511950114e-05   -0.00010845278623652303
-7.469060022576073e-05   -1.9345789809691212e-05   -7.046327869935894e-05
-7.469060022576073e-05   -1.9345789809691212e-05   -7.046327869935894e-05
-7.469060022576073e-05   -1.9345789809691212e-05   -7.046327869935894e-05
-7.469060022576073e-05   -1.9345789809691212e-05   -7.046327869935894e-05
-4.360512453064876e-05   4.092597059469384e-06   -4.8043111344248275e-06
-4.360512453064876e-05   4.092597059469384e-06   -4.8043111344248275e-06
-4.360512453064876e-05   4.092597059469384e-06   -4.8043111344248275e-06
-4.360512453064876e-05   4.092597059469384e-06   -4.8043111344248275e-06
-0.00010579420959190816   -4.237848751195098e-05   -0.00013633543697937544
-0.00010579420959190816   -4.237848751195098e-05   -0.00013633543697937544
-0.00010579420959190816   -4.237848751195098e-05   -0.00013633543697937544
-0.00010579420959190816   -4.237848751195098e-05   -0.00013633543697937544
-0.00010031724721008923   5.122099403193775e-06   -2.8764703702710386e-05
-0.00010031724721008923   5.122099403193775e-06   -2.8764703702710386e-05
-0.00010031724721008923   5.122099403193775e-06   -2.8764703702710386e-05
-0.00010031724721008923   5.122099403193775e-06   -2.8764703702710386e-05
-3.925345475843257e-05   -3.873741836575139e-05   -0.00010422198046077154
-3.925345475843257e-05   -3.873741836575139e-05   -0.00010422198046077154
-3.925345475843257e-05   -3.873741836575139e-05   -0.00010422198046077154
-3.925345475843257e-05   -3.873741836575139e-05   -0.00010422198046077154
-7.132332373188587e-05   -1.7131484849137492e-05   -6.373575894831596e-05
-7.132332373188587e-05   -1.7131484849137492e-05   -6.373575894831596e-05
-7.132332373188587e-05   -1.7131484849137492e-05   -6.373575894831596e-05
-7.132332373188587e-05   -1.7131484849137492e-05   -6.373575894831596e-05
-0.00011262912506967282   1.6019413578015514e-05   -2.47249014104162e-05
-0.00011262912506967282   1.6019413578015514e-05   -2.47249014104162e-05
-0.00011262912506967282   1.6019413578015514e-05   -2.47249014104162e-05
-0.00011262912506967282   1.6019413578015514e-05   -2.47249014104162e-05
-0.00019416735828248623   0.0   -0.0001702336049119145
-0.00019416735828248623   0.0   -0.0001702336049119145
-0.00019416735828248623   0.0   -0.0001702336049119145
-0.00019416735828248623   0.0   -0.0001702336049119145
-0.00018905387958781354   2.0319812266700495e-05   -1.9028025081494968e-05
-0.00018905387958781354   2.0319812266700495e-05   -1.9028025081494968e-05
-0.00018905387958781354   2.0319812266700495e-05   -1.9028025081494968e-05
-0.00018905387958781354   2.0319812266700495e-05   -1.9028025081494968e-05
-0.00010913993213056167   0.0   -0.00014002605015022796
-0.00010913993213056167   0.0   -0.00014002605015022796
-0.00010913993213056167   0.0   -0.00014002605015022796
-0.00010913993213056167   0.0   -0.00014002605015022796
-0.0001448188427306809   6.187399868508477e-06   -8.427363907113385e-05
-0.0001448188427306809   6.187399868508477e-06   -8.427363907113385e-05
-0.0001448188427306809   6.187399868508477e-06   -8.427363907113385e-05
-0.0001448188427306809   6.187399868508477e-06   -8.427363907113385e-05
-0.00010913993213056176   2.0319812266700495e-05   -6.836137721474497e-06
-0.00010913993213056176   2.0319812266700495e-05   -6.836137721474497e-06
-0.00010913993213056176   2.0319812266700495e-05   -6.836137721474497e-06
-0.00010913993213056176   2.0319812266700495e-05   -6.836137721474497e-06
-0.0001890538795878132   0.0   -0.00015221793751024788
-0.0001890538795878132   0.0   -0.00015221793751024788
-0.0001890538795878132   0.0   -0.00015221793751024788
-0.0001890538795878132   0.0   -0.00015221793751024788
-0.00018473332061910719   2.128445286639271e-05   -7.788190913382217e-06
-0.00018473332061910719   2.128445286639271e-05   -7.788190913382217e-06
-0.00018473332061910719   2.128445286639271e-05   -7.788190913382217e-06
-0.00018473332061910719   2.128445286639271e-05   -7.788190913382217e-06
-0.00010579420959190816   0.0   -0.00012658270423887894
-0.00010579420959190816   0.0   -0.00012658270423887894
-0.00010579420959190816   0.0   -0.00012658270423887894
-0.00010579420959190816   0.0   -0.00012658270423887894
-0.00014327382047416308   9.834294071426296e-06   -7.001726254464088e-05
-0.00014327382047416308   9.834294071426296e-06   -7.001726254464088e-05
-0.00014327382047416308   9.834294071426296e-06   -7.001726254464088e-05
-0.00014327382047416308   9.834294071426296e-06   -7.001726254464088e-05
-0.00010579420959190816   2.128445286639271e-05   4.982480806452975e-06
-0.00010579420959190816   2.128445286639271e-05   4.982480806452975e-06
-0.00010579420959190816   2.128445286639271e-05   4.982480806452975e-06
-0.00010579420959190816   2.128445286639271e-05   4.982480806452975e-06
-0.00018473332061910686   0.0   -0.00013935337595871386
-0.00018473332061910686   0.0   -0.00013935337595871386
-0.00018473332061910686   0.0   -0.00013935337595871386
-0.00018473332061910686   0.0   -0.00013935337595871386
-0.00017611822311251431   2.295325327036045e-05   1.0284671519995587e-05
-0.00017611822311251431   2.295325327036045e-05   1.0284671519995587e-05
-0.00017611822311251431   2.295325327036045e-05   1.0284671519995587e-05
-0.00017611822311251431   2.295325327036045e-05   1.0284671519995587e-05
-0.00010031724721008942   0.0   -0.0001022783363551632
-0.00010031724721008942   0.0   -0.0001022783363551632
-0.00010031724721008942   0.0   -0.0001022783363551632
-0.00010031724721008942   0.0   -0.0001022783363551632
-0.00013577278886337034   1.2138935638437466e-05   -5.046912831608999e-05
-0.00013577278886337034   1.2138935638437466e-05   -5.046912831608999e-05
-0.00013577278886337034   1.2138935638437466e-05   -5.046912831608999e-05
-0.00013577278886337034   1.2138935638437466e-05   -5.046912831608999e-05
0.0001438682987977402   -2.474809606819485e-05   8.595860283043067e-05
0.0001438682987977402   -2.474809606819485e-05   8.595860283043067e-05
0.0001438682987977402   -2.474809606819485e-05   8.595860283043067e-05
0.0001438682987977402   -2.474809606819485e-05   8.595860283043067e-05
7.469695510844661e-05   -1.9029479264289113e-05   -2.5895799902715417e-05
7.469695510844661e-05   -1.9029479264289113e-05   -2.5895799902715417e-05
7.469695510844661e-05   -1.9029479264289113e-05   -2.5895799902715417e-05
7.469695510844661e-05   -1.9029479264289113e-05   -2.5895799902715417e-05
7.280691459412439e-05   -2.5367044523256707e-05   7.596508671275926e-05
7.280691459412439e-05   -2.5367044523256707e-05   7.596508671275926e-05
7.280691459412439e-05   -2.5367044523256707e-05   7.596508671275926e-05
7.280691459412439e-05   -2.5367044523256707e-05   7.596508671275926e-05
0.00014231455215666722   -2.092985728042139e-05   -4.254328823717976e-05
0.00014231455215666722   -2.092985728042139e-05   -4.254328823717976e-05
0.00014231455215666722   -2.092985728042139e-05   -4.254328823717976e-05
0.00014231455215666722   -2.092985728042139e-05   -4.254328823717976e-05
0.00010398782987158368   -2.1302786992816354e-05   2.1558340065396713e-05
0.00010398782987158368   -2.1302786992816354e-05   2.1558340065396713e-05
0.00010398782987158368   -2.1302786992816354e-05   2.1558340065396713e-05
0.00010398782987158368   -2.1302786992816354e-05   2.1558340065396713e-05
0.00014231455215666722   -2.5367044523256707e-05   7.33027743670578e-05
0.00014231455215666722   -2.5367044523256707e-05   7.33027743670578e-05
0.00014231455215666722   -2.5367044523256707e-05   7.33027743670578e-05
0.00014231455215666722   -2.5367044523256707e-05   7.33027743670578e-05
7.280691459412439e-05   -2.092985728042139e-05   -3.988097589147912e-05
7.280691459412439e-05   -2.092985728042139e-05   -3.988097589147912e-05
7.280691459412439e-05   -2.092985728042139e-05   -3.988097589147912e-05
7.280691459412439e-05   -2.092985728042139e-05   -3.988097589147912e-05
7.10981506370729e-05   -2.51401328498959e-05   6.822793888453709e-05
7.10981506370729e-05   -2.51401328498959e-05   6.822793888453709e-05
7.10981506370729e-05   -2.51401328498959e-05   6.822793888453709e-05
7.10981506370729e-05   -2.51401328498959e-05   6.822793888453709e-05
0.00014052149021866826   -2.110777665900558e-05   -4.98970407993225e-05
0.00014052149021866826   -2.110777665900558e-05   -4.98970407993225e-05
0.00014052149021866826   -2.110777665900558e-05   -4.98970407993225e-05
0.00014052149021866826   -2.110777665900558e-05   -4.98970407993225e-05
0.00010389607319882134   -2.167628992743101e-05   1.1486428861477152e-05
0.00010389607319882134   -2.167628992743101e-05   1.1486428861477152e-05
0.00010389607319882134   -2.167628992743101e-05   1.1486428861477152e-05
0.00010389607319882134   -2.167628992743101e-05   1.1486428861477152e-05
0.0001405214902186685   -2.5140132849895032e-05   6.58085251700035e-05
0.0001405214902186685   -2.5140132849895032e-05   6.58085251700035e-05
0.0001405214902186685   -2.5140132849895032e-05   6.58085251700035e-05
0.0001405214902186685   -2.5140132849895032e-05   6.58085251700035e-05
7.10981506370729e-05   -2.110777665900558e-05   -4.747762708478837e-05
7.10981506370729e-05   -2.110777665900558e-05   -4.747762708478837e-05
7.10981506370729e-05   -2.110777665900558e-05   -4.747762708478837e-05
7.10981506370729e-05   -2.110777665900558e-05   -4.747762708478837e-05
6.90139593765397e-05   -2.374998979202004e-05   5.564041530200245e-05
6.90139593765397e-05   -2.374998979202004e-05   5.564041530200245e-05
6.90139593765397e-05   -2.374998979202004e-05   5.564041530200245e-05
6.90139593765397e-05   -2.374998979202004e-05   5.564041530200245e-05
0.00013771243617468633   -2.0677727236842122e-05   -6.0700403561348684e-05
0.00013771243617468633   -2.0677727236842122e-05   -6.0700403561348684e-05
0.00013771243617468633   -2.0677727236842122e-05   -6.0700403561348684e-05
0.00013771243617468633   -2.0677727236842122e-05   -6.0700403561348684e-05
0.00010033780173198798   -2.0613144362026728e-05   1.5519041182579345e-06
0.00010033780173198798   -2.0613144362026728e-05   1.5519041182579345e-06
0.00010033780173198798   -2.0613144362026728e-05   1.5519041182579345e-06
0.00010033780173198798   -2.0613144362026728e-05   1.5519041182579345e-06
7.469695510844661e-05   -2.493940444104909e-05   6.430548924192103e-05
7.469695510844661e-05   -2.493940444104909e-05   6.430548924192103e-05
7.469695510844661e-05   -2.493940444104909e-05   6.430548924192103e-05
7.469695510844661e-05   -2.493940444104909e-05   6.430548924192103e-05
1.606094592727995e-05   -1.181320330871042e-05   -2.5545472047286757e-05
1.606094592727995e-05   -1.181320330871042e-05   -2.5545472047286757e-05
1.606094592727995e-05   -1.181320330871042e-05   -2.5545472047286757e-05
1.606094592727995e-05   -1.181320330871042e-05   -2.5545472047286757e-05
1.3069458869192907e-05   -2.481694738483333e-05   7.347052782343986e-05
1.3069458869192907e-05   -2.481694738483333e-05   7.347052782343986e-05
1.3069458869192907e-05   -2.481694738483333e-05   7.347052782343986e-05
1.3069458869192907e-05   -2.481694738483333e-05   7.347052782343986e-05
7.280691459412439e-05   -1.2532824007495044e-05   -3.3462372411182403e-05
7.280691459412439e-05   -1.2532824007495044e-05   -3.3462372411182403e-05
7.280691459412439e-05   -1.2532824007495044e-05   -3.3462372411182403e-05
7.280691459412439e-05   -1.2532824007495044e-05   -3.3462372411182403e-05
4.40992053910103e-05   -1.784063932331551e-05   1.756849878350032e-05
4.40992053910103e-05   -1.784063932331551e-05   1.756849878350032e-05
4.40992053910103e-05   -1.784063932331551e-05   1.756849878350032e-05
4.40992053910103e-05   -1.784063932331551e-05   1.756849878350032e-05
7.280691459412447e-05   -2.481694738483333e-05   6.610005379703706e-05
7.280691459412447e-05   -2.481694738483333e-05   6.610005379703706e-05
7.280691459412447e-05   -2.481694738483333e-05   6.610005379703706e-05
7.280691459412447e-05   -2.481694738483333e-05   6.610005379703706e-05
1.3069458869192907e-05   -1.2532824007495044e-05   -2.609189838477955e-05
1.3069458869192907e-05   -1.2532824007495044e-05   -2.609189838477955e-05
1.3069458869192907e-05   -1.2532824007495044e-05   -2.609189838477955e-05
1.3069458869192907e-05   -1.2532824007495044e-05   -2.609189838477955e-05
1.0937845757958765e-05   -2.44912132850595e-05   7.359920234940864e-05
1.0937845757958765e-05   -2.44912132850595e-05   7.359920234940864e-05
1.0937845757958765e-05   -2.44912132850595e-05   7.359920234940864e-05
1.0937845757958765e-05   -2.44912132850595e-05   7.359920234940864e-05
7.10981506370729e-05   -1.2856849799166258e-05   -3.364859054065045e-05
7.10981506370729e-05   -1.2856849799166258e-05   -3.364859054065045e-05
7.10981506370729e-05   -1.2856849799166258e-05   -3.364859054065045e-05
7.10981506370729e-05   -1.2856849799166258e-05   -3.364859054065045e-05
4.153880546471037e-05   -1.7478193454272158e-05   1.8389790939684573e-05
4.153880546471037e-05   -1.7478193454272158e-05   1.8389790939684573e-05
4.153880546471037e-05   -1.7478193454272158e-05   1.8389790939684573e-05
4.153880546471037e-05   -1.7478193454272158e-05   1.8389790939684573e-05
7.109815063707301e-05   -2.44912132850595e-05   6.661858425787304e-05
7.109815063707301e-05   -2.44912132850595e-05   6.661858425787304e-05
7.109815063707301e-05   -2.44912132850595e-05   6.661858425787304e-05
7.109815063707301e-05   -2.44912132850595e-05   6.661858425787304e-05
1.0937845757958765e-05   -1.2856849799166258e-05   -2.6667972449114473e-05
1.0937845757958765e-05   -1.2856849799166258e-05   -2.6667972449114473e-05
1.0937845757958765e-05   -1.2856849799166258e-05   -2.6667972449114473e-05
1.0937845757958765e-05   -1.2856849799166258e-05   -2.6667972449114473e-05
8.565952090436042e-06   -2.383565972073967e-05   7.601334734078265e-05
8.565952090436042e-06   -2.383565972073967e-05   7.601334734078265e-05
8.565952090436042e-06   -2.383565972073967e-05   7.601334734078265e-05
8.565952090436042e-06   -2.383565972073967e-05   7.601334734078265e-05
6.90139593765396e-05   -1.2574127488974678e-05   -3.1490250808449325e-05
6.90139593765396e-05   -1.2574127488974678e-05   -3.1490250808449325e-05
6.90139593765396e-05   -1.2574127488974678e-05   -3.1490250808449325e-05
6.90139593765396e-05   -1.2574127488974678e-05   -3.1490250808449325e-05
3.99697384960541e-05   -1.6716931523529273e-05   1.9402466413093004e-05
3.99697384960541e-05   -1.6716931523529273e-05   1.9402466413093004e-05
3.99697384960541e-05   -1.6716931523529273e-05   1.9402466413093004e-05
3.99697384960541e-05   -1.6716931523529273e-05   1.9402466413093004e-05
1.606094592727995e-05   -3.0204064261964494e-05   6.622322198522254e-05
1.606094592727995e-05   -3.0204064261964494e-05   6.622322198522254e-05
1.606094592727995e-05   -3.0204064261964494e-05   6.622322198522254e-05
1.606094592727995e-05   -3.0204064261964494e-05   6.622322198522254e-05
-4.0255589254559074e-05   -5.039786185574192e-06   -1.2539103138675331e-05
-4.0255589254559074e-05   -5.039786185574192e-06   -1.2539103138675331e-05
-4.0255589254559074e-05   -5.039786185574192e-06   -1.2539103138675331e-05
-4.0255589254559074e-05   -5.039786185574192e-06   -1.2539103138675331e-05
-4.491043461903602e-05   -3.0880595382015014e-05   8.520811823441469e-05
-4.491043461903602e-05   -3.0880595382015014e-05   8.520811823441469e-05
-4.491043461903602e-05   -3.0880595382015014e-05   8.520811823441469e-05
-4.491043461903602e-05   -3.0880595382015014e-05   8.520811823441469e-05
1.3069458869192907e-05   -5.324036501193688e-06   -2.6758972907793056e-05
1.3069458869192907e-05   -5.324036501193688e-06   -2.6758972907793056e-05
1.3069458869192907e-05   -5.324036501193688e-06   -2.6758972907793056e-05
1.3069458869192907e-05   -5.324036501193688e-06   -2.6758972907793056e-05
-1.3500253038112181e-05   -1.7289614358122728e-05   2.4703226985206507e-05
-1.3500253038112181e-05   -1.7289614358122728e-05   2.4703226985206507e-05
-1.3500253038112181e-05   -1.7289614358122728e-05   2.4703226985206507e-05
-1.3500253038112181e-05   -1.7289614358122728e-05   2.4703226985206507e-05
1.3069458869192907e-05   -3.0880595382015014e-05   6.98741829059219e-05
1.3069458869192907e-05   -3.0880595382015014e-05   6.98741829059219e-05
1.3069458869192907e-05   -3.0880595382015014e-05   6.98741829059219e-05
1.3069458869192907e-05   -3.0880595382015014e-05   6.98741829059219e-05
-4.4910434619035967e-05   -5.324036501193688e-06   -1.1425037579300152e-05
-4.4910434619035967e-05   -5.324036501193688e-06   -1.1425037579300152e-05
-4.4910434619035967e-05   -5.324036501193688e-06   -1.1425037579300152e-05
-4.4910434619035967e-05   -5.324036501193688e-06   -1.1425037579300152e-05
-4.775277975915086e-05   -3.0746456096684624e-05   8.846463966087495e-05
-4.775277975915086e-05   -3.0746456096684624e-05   8.846463966087495e-05
-4.775277975915086e-05   -3.0746456096684624e-05   8.846463966087495e-05
-4.775277975915086e-05   -3.0746456096684624e-05   8.846463966087495e-05
1.0937845757958765e-05   -5.671101485094261e-06   -2.439828230126203e-05
1.0937845757958765e-05   -5.671101485094261e-06   -2.439828230126203e-05
1.0937845757958765e-05   -5.671101485094261e-06   -2.439828230126203e-05
1.0937845757958765e-05   -5.671101485094261e-06   -2.439828230126203e-05
-1.6650264317701405e-05   -1.7242023241549956e-05   2.8524454212044536e-05
-1.6650264317701405e-05   -1.7242023241549956e-05   2.8524454212044536e-05
-1.6650264317701405e-05   -1.7242023241549956e-05   2.8524454212044536e-05
-1.6650264317701405e-05   -1.7242023241549956e-05   2.8524454212044536e-05
1.0937845757958738e-05   -3.0746456096684624e-05   7.34194268939203e-05
1.0937845757958738e-05   -3.0746456096684624e-05   7.34194268939203e-05
1.0937845757958738e-05   -3.0746456096684624e-05   7.34194268939203e-05
1.0937845757958738e-05   -3.0746456096684624e-05   7.34194268939203e-05
-4.7752779759150776e-05   -5.671101485094261e-06   -9.353069534307704e-06
-4.7752779759150776e-05   -5.671101485094261e-06   -9.353069534307704e-06
-4.7752779759150776e-05   -5.671101485094261e-06   -9.353069534307704e-06
-4.7752779759150776e-05   -5.671101485094261e-06   -9.353069534307704e-06
-5.1099015379669956e-05   -2.968041735548245e-05   9.26856702049149e-05
-5.1099015379669956e-05   -2.968041735548245e-05   9.26856702049149e-05
-5.1099015379669956e-05   -2.968041735548245e-05   9.26856702049149e-05
-5.1099015379669956e-05   -2.968041735548245e-05   9.26856702049149e-05
8.565952090436042e-06   -5.643451667259637e-06   -2.117812165819508e-05
8.565952090436042e-06   -5.643451667259637e-06   -2.117812165819508e-05
8.565952090436042e-06   -5.643451667259637e-06   -2.117812165819508e-05
8.565952090436042e-06   -5.643451667259637e-06   -2.117812165819508e-05
-1.9213922006549702e-05   -1.6565630645549306e-05   3.1674975890421406e-05
-1.9213922006549702e-05   -1.6565630645549306e-05   3.1674975890421406e-05
-1.9213922006549702e-05   -1.6565630645549306e-05   3.1674975890421406e-05
-1.9213922006549702e-05   -1.6565630645549306e-05   3.1674975890421406e-05
-4.025558925455913e-05   -3.777551914257993e-05   8.033621493863923e-05
-4.025558925455913e-05   -3.777551914257993e-05   8.033621493863923e-05
-4.025558925455913e-05   -3.777551914257993e-05   8.033621493863923e-05
-4.025558925455913e-05   -3.777551914257993e-05   8.033621493863923e-05
-0.0001044660322928824   5.2130292473064055e-06   -8.880610913009589e-07
-0.0001044660322928824   5.2130292473064055e-06   -8.880610913009589e-07
-0.0001044660322928824   5.2130292473064055e-06   -8.880610913009589e-07
-0.0001044660322928824   5.2130292473064055e-06   -8.880610913009589e-07
-0.00011004956453826092   -4.213295255500304e-05   0.00011363734694284748
-0.00011004956453826092   -4.213295255500304e-05   0.00011363734694284748
-0.00011004956453826092   -4.213295255500304e-05   0.00011363734694284748
-0.00011004956453826092   -4.213295255500304e-05   0.00011363734694284748
-4.4910434619035967e-05   4.883011993836277e-06   -2.313744831849773e-05
-4.4910434619035967e-05   4.883011993836277e-06   -2.313744831849773e-05
-4.4910434619035967e-05   4.883011993836277e-06   -2.313744831849773e-05
-4.4910434619035967e-05   4.883011993836277e-06   -2.313744831849773e-05
-7.386651842718016e-05   -1.5775677148701685e-05   3.751790484726497e-05
-7.386651842718016e-05   -1.5775677148701685e-05   3.751790484726497e-05
-7.386651842718016e-05   -1.5775677148701685e-05   3.751790484726497e-05
-7.386651842718016e-05   -1.5775677148701685e-05   3.751790484726497e-05
-4.491043461903602e-05   -4.213295255500304e-05   8.542776821354389e-05
-4.491043461903602e-05   -4.213295255500304e-05   8.542776821354389e-05
-4.491043461903602e-05   -4.213295255500304e-05   8.542776821354389e-05
-4.491043461903602e-05   -4.213295255500304e-05   8.542776821354389e-05
-0.00011004956453826092   4.883011993836277e-06   5.072130410805915e-06
-0.00011004956453826092   4.883011993836277e-06   5.072130410805915e-06
-0.00011004956453826092   4.883011993836277e-06   5.072130410805915e-06
-0.00011004956453826092   4.883011993836277e-06   5.072130410805915e-06
-0.00011345480404354428   -4.237848751195098e-05   0.00011998577674891386
-0.00011345480404354428   -4.237848751195098e-05   0.00011998577674891386
-0.00011345480404354428   -4.237848751195098e-05   0.00011998577674891386
-0.00011345480404354428   -4.237848751195098e-05   0.00011998577674891386
-4.7752779759150776e-05   4.287702238638287e-06   -1.7517310908761615e-05
-4.7752779759150776e-05   4.287702238638287e-06   -1.7517310908761615e-05
-4.7752779759150776e-05   4.287702238638287e-06   -1.7517310908761615e-05
-4.7752779759150776e-05   4.287702238638287e-06   -1.7517310908761615e-05
-7.750069122644556e-05   -1.8129402100792308e-05   4.551280414038725e-05
-7.750069122644556e-05   -1.8129402100792308e-05   4.551280414038725e-05
-7.750069122644556e-05   -1.8129402100792308e-05   4.551280414038725e-05
-7.750069122644556e-05   -1.8129402100792308e-05   4.551280414038725e-05
-4.775277975915072e-05   -4.2378487511950114e-05   9.198606289856056e-05
-4.775277975915072e-05   -4.2378487511950114e-05   9.198606289856056e-05
-4.775277975915072e-05   -4.2378487511950114e-05   9.198606289856056e-05
-4.775277975915072e-05   -4.2378487511950114e-05   9.198606289856056e-05
-0.00011345480404354415   4.287702238638287e-06   1.0482402941591144e-05
-0.00011345480404354415   4.287702238638287e-06   1.0482402941591144e-05
-0.00011345480404354415   4.287702238638287e-06   1.0482402941591144e-05
-0.00011345480404354415   4.287702238638287e-06   1.0482402941591144e-05
-0.00011712146997508983   -3.873741836575139e-05   0.00012273158629457805
-0.00011712146997508983   -3.873741836575139e-05   0.00012273158629457805
-0.00011712146997508983   -3.873741836575139e-05   0.00012273158629457805
-0.00011712146997508983   -3.873741836575139e-05   0.00012273158629457805
-5.1099015379669767e-05   3.6153717265525326e-06   -1.271751208650377e-05
-5.1099015379669767e-05   3.6153717265525326e-06   -1.271751208650377e-05
-5.1099015379669767e-05   3.6153717265525326e-06   -1.271751208650377e-05
-5.1099015379669767e-05   3.6153717265525326e-06   -1.271751208650377e-05
-8.123661642383578e-05   -1.827142911795844e-05   5.0643903493814875e-05
-8.123661642383578e-05   -1.827142911795844e-05   5.0643903493814875e-05
-8.123661642383578e-05   -1.827142911795844e-05   5.0643903493814875e-05
-8.123661642383578e-05   -1.827142911795844e-05   5.0643903493814875e-05
-0.00010446603229288204   0.0   8.915860998817953e-05
-0.00010446603229288204   0.0   8.915860998817953e-05
-0.00010446603229288204   0.0   8.915860998817953e-05
-0.00010446603229288204   0.0   8.915860998817953e-05
-0.00018422826264829432   2.4128344251763377e-05   -2.9301434053116606e-05
-0.00018422826264829432   2.4128344251763377e-05   -2.9301434053116606e-05
-0.00018422826264829432   2.4128344251763377e-05   -2.9301434053116606e-05
-0.00018422826264829432   2.4128344251763377e-05   -2.9301434053116606e-05
-0.0001919476701568143   0.0   0.00012912140514279241
-0.0001919476701568143   0.0   0.00012912140514279241
-0.0001919476701568143   0.0   0.00012912140514279241
-0.0001919476701568143   0.0   0.00012912140514279241
-0.00011004956453826073   2.3264964714931474e-05   -2.1334416383756165e-05
-0.00011004956453826073   2.3264964714931474e-05   -2.1334416383756165e-05
-0.00011004956453826073   2.3264964714931474e-05   -2.1334416383756165e-05
-0.00011004956453826073   2.3264964714931474e-05   -2.1334416383756165e-05
-0.00014137204874900517   1.4316766862612802e-05   3.623864267887568e-05
-0.00014137204874900517   1.4316766862612802e-05   3.623864267887568e-05
-0.00014137204874900517   1.4316766862612802e-05   3.623864267887568e-05
-0.00014137204874900517   1.4316766862612802e-05   3.623864267887568e-05
-0.00011004956453826068   0.0   0.00011516242631383388
-0.00011004956453826068   0.0   0.00011516242631383388
-0.00011004956453826068   0.0   0.00011516242631383388
-0.00011004956453826068   0.0   0.00011516242631383388
-0.00019194767015681463   2.3264964714931474e-05   -7.375437554797085e-06
-0.00019194767015681463   2.3264964714931474e-05   -7.375437554797085e-06
-0.00019194767015681463   2.3264964714931474e-05   -7.375437554797085e-06
-0.00019194767015681463   2.3264964714931474e-05   -7.375437554797085e-06
-0.00019583776236998878   0.0   0.00014333444349231336
-0.00019583776236998878   0.0   0.00014333444349231336
-0.00019583776236998878   0.0   0.00014333444349231336
-0.00019583776236998878   0.0   0.00014333444349231336
-0.00011345480404354415   2.265989000483845e-05   -7.566421054664633e-06
-0.00011345480404354415   2.265989000483845e-05   -7.566421054664633e-06
-0.00011345480404354415   2.265989000483845e-05   -7.566421054664633e-06
-0.00011345480404354415   2.265989000483845e-05   -7.566421054664633e-06
-0.00014879343933842722   1.194828066068427e-05   5.775827004330151e-05
-0.00014879343933842722   1.194828066068427e-05   5.775827004330151e-05
-0.00014879343933842722   1.194828066068427e-05   5.775827004330151e-05
-0.00014879343933842722   1.194828066068427e-05   5.775827004330151e-05
-0.00011345480404354415   0.0   0.0001297385094894102
-0.00011345480404354415   0.0   0.0001297385094894102
-0.00011345480404354415   0.0   0.0001297385094894102
-0.00011345480404354415   0.0   0.0001297385094894102
-0.00019583776236998943   2.265989000483932e-05   6.029512948238849e-06
-0.00019583776236998943   2.265989000483932e-05   6.029512948238849e-06
-0.00019583776236998943   2.265989000483932e-05   6.029512948238849e-06
-0.00019583776236998943   2.265989000483932e-05   6.029512948238849e-06
-0.00020017862735894433   0.0   0.00016229199792764
-0.00020017862735894433   0.0   0.00016229199792764
-0.00020017862735894433   0.0   0.00016229199792764
-0.00020017862735894433   0.0   0.00016229199792764
-0.00011712146997508983   1.88350947768123e-05   1.256234542179477e-05
-0.00011712146997508983   1.88350947768123e-05   1.256234542179477e-05
-0.00011712146997508983   1.88350947768123e-05   1.256234542179477e-05
-0.00011712146997508983   1.88350947768123e-05   1.256234542179477e-05
-0.00015006422065001656   8.37097633400296e-06   7.374540094569142e-05
-0.00015006422065001656   8.37097633400296e-06   7.374540094569142e-05
-0.00015006422065001656   8.37097633400296e-06   7.374540094569142e-05
-0.00015006422065001656   8.37097633400296e-06   7.374540094569142e-05
0.00012636149348733234   -1.9029479264289113e-05   8.986763352051034e-05
0.00012636149348733234   -1.9029479264289113e-05   8.986763352051034e-05
0.00012636149348733234   -1.9029479264289113e-05   8.986763352051034e-05
0.00012636149348733234   -1.9029479264289113e-05   8.986763352051034e-05
6.394564891197468e-05   -1.431851260905604e-05   -1.1332194111946317e-05
6.394564891197468e-05   -1.431851260905604e-05   -1.1332194111946317e-05
6.394564891197468e-05   -1.431851260905604e-05   -1.1332194111946317e-05
6.394564891197468e-05   -1.431851260905604e-05   -1.1332194111946317e-05
6.224772359386153e-05   -2.0929857280422258e-05   7.847765472162802e-05
6.224772359386153e-05   -2.0929857280422258e-05   7.847765472162802e-05
6.224772359386153e-05   -2.0929857280422258e-05   7.847765472162802e-05
6.224772359386153e-05   -2.0929857280422258e-05   7.847765472162802e-05
0.0001233255271869433   -1.623736413562237e-05   -2.6134180487054017e-05
0.0001233255271869433   -1.623736413562237e-05   -2.6134180487054017e-05
0.0001233255271869433   -1.623736413562237e-05   -2.6134180487054017e-05
0.0001233255271869433   -1.623736413562237e-05   -2.6134180487054017e-05
8.978668477962375e-05   -1.6921529046497186e-05   3.017438913833722e-05
8.978668477962375e-05   -1.6921529046497186e-05   3.017438913833722e-05
8.978668477962375e-05   -1.6921529046497186e-05   3.017438913833722e-05
8.978668477962375e-05   -1.6921529046497186e-05   3.017438913833722e-05
0.00012332552718694308   -2.0929857280422258e-05   7.566215883474895e-05
0.00012332552718694308   -2.0929857280422258e-05   7.566215883474895e-05
0.00012332552718694308   -2.0929857280422258e-05   7.566215883474895e-05
0.00012332552718694308   -2.0929857280422258e-05   7.566215883474895e-05
6.224772359386164e-05   -1.623736413562237e-05   -2.3318684600174763e-05
6.224772359386164e-05   -1.623736413562237e-05   -2.3318684600174763e-05
6.224772359386164e-05   -1.623736413562237e-05   -2.3318684600174763e-05
6.224772359386164e-05   -1.623736413562237e-05   -2.3318684600174763e-05
6.005964061157098e-05   -2.110777665900558e-05   7.046259839518874e-05
6.005964061157098e-05   -2.110777665900558e-05   7.046259839518874e-05
6.005964061157098e-05   -2.110777665900558e-05   7.046259839518874e-05
6.005964061157098e-05   -2.110777665900558e-05   7.046259839518874e-05
0.00012025718258506691   -1.6524763932009197e-05   -3.261644586350195e-05
0.00012025718258506691   -1.6524763932009197e-05   -3.261644586350195e-05
0.00012025718258506691   -1.6524763932009197e-05   -3.261644586350195e-05
0.00012025718258506691   -1.6524763932009197e-05   -3.261644586350195e-05
8.8924454691682e-05   -1.7662536203860713e-05   2.0287430655250085e-05
8.8924454691682e-05   -1.7662536203860713e-05   2.0287430655250085e-05
8.8924454691682e-05   -1.7662536203860713e-05   2.0287430655250085e-05
8.8924454691682e-05   -1.7662536203860713e-05   2.0287430655250085e-05
0.00012025718258506691   -2.110777665900558e-05   6.771279075899143e-05
0.00012025718258506691   -2.110777665900558e-05   6.771279075899143e-05
0.00012025718258506691   -2.110777665900558e-05   6.771279075899143e-05
0.00012025718258506691   -2.110777665900558e-05   6.771279075899143e-05
6.005964061157098e-05   -1.6524763932009197e-05   -2.9866638227304693e-05
6.005964061157098e-05   -1.6524763932009197e-05   -2.9866638227304693e-05
6.005964061157098e-05   -1.6524763932009197e-05   -2.9866638227304693e-05
6.005964061157098e-05   -1.6524763932009197e-05   -2.9866638227304693e-05
5.77647421059933e-05   -2.0677727236842122e-05   5.858169030686488e-05
5.77647421059933e-05   -2.0677727236842122e-05   5.858169030686488e-05
5.77647421059933e-05   -2.0677727236842122e-05   5.858169030686488e-05
5.77647421059933e-05   -2.0677727236842122e-05   5.858169030686488e-05
0.00011641692696582616   -1.6429933950172504e-05   -4.172062709819164e-05
0.00011641692696582616   -1.6429933950172504e-05   -4.172062709819164e-05
0.00011641692696582616   -1.6429933950172504e-05   -4.172062709819164e-05
0.00011641692696582616   -1.6429933950172504e-05   -4.172062709819164e-05
8.494347067163862e-05   -1.7203414341662032e-05   1.1199221627015716e-05
8.494347067163862e-05   -1.7203414341662032e-05   1.1199221627015716e-05
8.494347067163862e-05   -1.7203414341662032e-05   1.1199221627015716e-05
8.494347067163862e-05   -1.7203414341662032e-05   1.1199221627015716e-05
6.394564891197478e-05   -1.1813203308709552e-05   8.516882068967556e-05
6.394564891197478e-05   -1.1813203308709552e-05   8.516882068967556e-05
6.394564891197478e-05   -1.1813203308709552e-05   8.516882068967556e-05
6.394564891197478e-05   -1.1813203308709552e-05   8.516882068967556e-05
7.100745654021231e-06   -5.063885628570075e-06   -5.523094132162901e-06
7.100745654021231e-06   -5.063885628570075e-06   -5.523094132162901e-06
7.100745654021231e-06   -5.063885628570075e-06   -5.523094132162901e-06
7.100745654021231e-06   -5.063885628570075e-06   -5.523094132162901e-06
5.4151077979417035e-06   -1.2532824007495044e-05   8.875767791436187e-05
5.4151077979417035e-06   -1.2532824007495044e-05   8.875767791436187e-05
5.4151077979417035e-06   -1.2532824007495044e-05   8.875767791436187e-05
5.4151077979417035e-06   -1.2532824007495044e-05   8.875767791436187e-05
6.224772359386164e-05   -6.0971244867672955e-06   -9.82476812460859e-06
6.224772359386164e-05   -6.0971244867672955e-06   -9.82476812460859e-06
6.224772359386164e-05   -6.0971244867672955e-06   -9.82476812460859e-06
6.224772359386164e-05   -6.0971244867672955e-06   -9.82476812460859e-06
3.434565348526626e-05   -8.252507999496894e-06   3.797191216402219e-05
3.434565348526626e-05   -8.252507999496894e-06   3.797191216402219e-05
3.434565348526626e-05   -8.252507999496894e-06   3.797191216402219e-05
3.434565348526626e-05   -8.252507999496894e-06   3.797191216402219e-05
6.224772359386159e-05   -1.2532824007495044e-05   8.489625820192479e-05
6.224772359386159e-05   -1.2532824007495044e-05   8.489625820192479e-05
6.224772359386159e-05   -1.2532824007495044e-05   8.489625820192479e-05
6.224772359386159e-05   -1.2532824007495044e-05   8.489625820192479e-05
5.4151077979417035e-06   -6.0971244867672955e-06   -5.963348412171398e-06
5.4151077979417035e-06   -6.0971244867672955e-06   -5.963348412171398e-06
5.4151077979417035e-06   -6.0971244867672955e-06   -5.963348412171398e-06
5.4151077979417035e-06   -6.0971244867672955e-06   -5.963348412171398e-06
3.2622014984053874e-06   -1.2856849799166258e-05   8.793921705839858e-05
3.2622014984053874e-06   -1.2856849799166258e-05   8.793921705839858e-05
3.2622014984053874e-06   -1.2856849799166258e-05   8.793921705839858e-05
3.2622014984053874e-06   -1.2856849799166258e-05   8.793921705839858e-05
6.005964061157098e-05   -6.777546267378899e-06   -1.0370763582616296e-05
6.005964061157098e-05   -6.777546267378899e-06   -1.0370763582616296e-05
6.005964061157098e-05   -6.777546267378899e-06   -1.0370763582616296e-05
6.005964061157098e-05   -6.777546267378899e-06   -1.0370763582616296e-05
3.2209963257711e-05   -8.645150943983708e-06   3.7165928146447964e-05
3.2209963257711e-05   -8.645150943983708e-06   3.7165928146447964e-05
3.2209963257711e-05   -8.645150943983708e-06   3.7165928146447964e-05
3.2209963257711e-05   -8.645150943983708e-06   3.7165928146447964e-05
6.005964061157087e-05   -1.2856849799166258e-05   8.429163493932617e-05
6.005964061157087e-05   -1.2856849799166258e-05   8.429163493932617e-05
6.005964061157087e-05   -1.2856849799166258e-05   8.429163493932617e-05
6.005964061157087e-05   -1.2856849799166258e-05   8.429163493932617e-05
3.2622014984053874e-06   -6.777546267378899e-06   -6.72318146354399e-06
3.2622014984053874e-06   -6.777546267378899e-06   -6.72318146354399e-06
3.2622014984053874e-06   -6.777546267378899e-06   -6.72318146354399e-06
3.2622014984053874e-06   -6.777546267378899e-06   -6.72318146354399e-06
8.837850709332822e-07   -1.2574127488974678e-05   8.92490128109112e-05
8.837850709332822e-07   -1.2574127488974678e-05   8.92490128109112e-05
8.837850709332822e-07   -1.2574127488974678e-05   8.92490128109112e-05
8.837850709332822e-07   -1.2574127488974678e-05   8.92490128109112e-05
5.7764742105993245e-05   -7.073248681884782e-06   -8.853109531776191e-06
5.7764742105993245e-05   -7.073248681884782e-06   -8.853109531776191e-06
5.7764742105993245e-05   -7.073248681884782e-06   -8.853109531776191e-06
5.7764742105993245e-05   -7.073248681884782e-06   -8.853109531776191e-06
3.0465548770056985e-05   -8.567217997760591e-06   3.7541927617645333e-05
3.0465548770056985e-05   -8.567217997760591e-06   3.7541927617645333e-05
3.0465548770056985e-05   -8.567217997760591e-06   3.7541927617645333e-05
3.0465548770056985e-05   -8.567217997760591e-06   3.7541927617645333e-05
7.100745654021231e-06   -5.039786185574192e-06   8.712621336053701e-05
7.100745654021231e-06   -5.039786185574192e-06   8.712621336053701e-05
7.100745654021231e-06   -5.039786185574192e-06   8.712621336053701e-05
7.100745654021231e-06   -5.039786185574192e-06   8.712621336053701e-05
-4.7960851046884056e-05   4.475217057290856e-06   1.0658874714138122e-06
-4.7960851046884056e-05   4.475217057290856e-06   1.0658874714138122e-06
-4.7960851046884056e-05   4.475217057290856e-06   1.0658874714138122e-06
-4.7960851046884056e-05   4.475217057290856e-06   1.0658874714138122e-06
-4.985965915854331e-05   -5.324036501193688e-06   9.349344381368203e-05
-4.985965915854331e-05   -5.324036501193688e-06   9.349344381368203e-05
-4.985965915854331e-05   -5.324036501193688e-06   9.349344381368203e-05
-4.985965915854331e-05   -5.324036501193688e-06   9.349344381368203e-05
5.4151077979417035e-06   3.6806975360287666e-06   -4.034008202792919e-06
5.4151077979417035e-06   3.6806975360287666e-06   -4.034008202792919e-06
5.4151077979417035e-06   3.6806975360287666e-06   -4.034008202792919e-06
5.4151077979417035e-06   3.6806975360287666e-06   -4.034008202792919e-06
-2.1286644597690084e-05   -1.3369750623791476e-07   4.275754948195303e-05
-2.1286644597690084e-05   -1.3369750623791476e-07   4.275754948195303e-05
-2.1286644597690084e-05   -1.3369750623791476e-07   4.275754948195303e-05
-2.1286644597690084e-05   -1.3369750623791476e-07   4.275754948195303e-05
5.415107797941731e-06   -5.324036501193688e-06   8.809060339134847e-05
5.415107797941731e-06   -5.324036501193688e-06   8.809060339134847e-05
5.415107797941731e-06   -5.324036501193688e-06   8.809060339134847e-05
5.415107797941731e-06   -5.324036501193688e-06   8.809060339134847e-05
-4.985965915854331e-05   3.6806975360287666e-06   1.3688322195400983e-06
-4.985965915854331e-05   3.6806975360287666e-06   1.3688322195400983e-06
-4.985965915854331e-05   3.6806975360287666e-06   1.3688322195400983e-06
-4.985965915854331e-05   3.6806975360287666e-06   1.3688322195400983e-06
-5.240783492483145e-05   -5.671101485094261e-06   9.53762045112095e-05
-5.240783492483145e-05   -5.671101485094261e-06   9.53762045112095e-05
-5.240783492483145e-05   -5.671101485094261e-06   9.53762045112095e-05
-5.240783492483145e-05   -5.671101485094261e-06   9.53762045112095e-05
3.2622014984053874e-06   2.94106068983533e-06   -2.5744868324769797e-06
3.2622014984053874e-06   2.94106068983533e-06   -2.5744868324769797e-06
3.2622014984053874e-06   2.94106068983533e-06   -2.5744868324769797e-06
3.2622014984053874e-06   2.94106068983533e-06   -2.5744868324769797e-06
-2.3160333450607622e-05   -3.596517066956767e-07   4.344349885379768e-05
-2.3160333450607622e-05   -3.596517066956767e-07   4.344349885379768e-05
-2.3160333450607622e-05   -3.596517066956767e-07   4.344349885379768e-05
-2.3160333450607622e-05   -3.596517066956767e-07   4.344349885379768e-05
3.2622014984053874e-06   -5.671101485094261e-06   9.020890720625114e-05
3.2622014984053874e-06   -5.671101485094261e-06   9.020890720625114e-05
3.2622014984053874e-06   -5.671101485094261e-06   9.020890720625114e-05
3.2622014984053874e-06   -5.671101485094261e-06   9.020890720625114e-05
-5.240783492483134e-05   2.94106068983533e-06   2.59281047248084e-06
-5.240783492483134e-05   2.94106068983533e-06   2.59281047248084e-06
-5.240783492483134e-05   2.94106068983533e-06   2.59281047248084e-06
-5.240783492483134e-05   2.94106068983533e-06   2.59281047248084e-06
-5.5122796727540664e-05   -5.643451667259637e-06   9.763472586637838e-05
-5.5122796727540664e-05   -5.643451667259637e-06   9.763472586637838e-05
-5.5122796727540664e-05   -5.643451667259637e-06   9.763472586637838e-05
-5.5122796727540664e-05   -5.643451667259637e-06   9.763472586637838e-05
8.837850709332822e-07   2.4073870731932193e-06   -5.400803753497592e-07
8.837850709332822e-07   2.4073870731932193e-06   -5.400803753497592e-07
8.837850709332822e-07   2.4073870731932193e-06   -5.400803753497592e-07
8.837850709332822e-07   2.4073870731932193e-06   -5.400803753497592e-07
-2.5550805786759905e-05   -5.232383255351913e-07   4.5275946293376994e-05
-2.5550805786759905e-05   -5.232383255351913e-07   4.5275946293376994e-05
-2.5550805786759905e-05   -5.232383255351913e-07   4.5275946293376994e-05
-2.5550805786759905e-05   -5.232383255351913e-07   4.5275946293376994e-05
-4.796085104688389e-05   5.2130292473064055e-06   7.869312831969765e-05
-4.796085104688389e-05   5.2130292473064055e-06   7.869312831969765e-05
-4.796085104688389e-05   5.2130292473064055e-06   7.869312831969765e-05
-4.796085104688389e-05   5.2130292473064055e-06   7.869312831969765e-05
-0.00010187389200545132   1.4611769377379825e-05   -5.522695866537128e-06
-0.00010187389200545132   1.4611769377379825e-05   -5.522695866537128e-06
-0.00010187389200545132   1.4611769377379825e-05   -5.522695866537128e-06
-0.00010187389200545132   1.4611769377379825e-05   -5.522695866537128e-06
-0.00010464473930712397   4.883011993837144e-06   8.713914354213387e-05
-0.00010464473930712397   4.883011993837144e-06   8.713914354213387e-05
-0.00010464473930712397   4.883011993837144e-06   8.713914354213387e-05
-0.00010464473930712397   4.883011993837144e-06   8.713914354213387e-05
-4.9859659158543095e-05   1.3813196106585504e-05   -9.527433839816562e-06
-4.9859659158543095e-05   1.3813196106585504e-05   -9.527433839816562e-06
-4.9859659158543095e-05   1.3813196106585504e-05   -9.527433839816562e-06
-4.9859659158543095e-05   1.3813196106585504e-05   -9.527433839816562e-06
-7.54810801482248e-05   9.803824892660323e-06   3.558055720467488e-05
-7.54810801482248e-05   9.803824892660323e-06   3.558055720467488e-05
-7.54810801482248e-05   9.803824892660323e-06   3.558055720467488e-05
-7.54810801482248e-05   9.803824892660323e-06   3.558055720467488e-05
-4.98596591585432e-05   4.883011993836277e-06   8.178103307448408e-05
-4.98596591585432e-05   4.883011993836277e-06   8.178103307448408e-05
-4.98596591585432e-05   4.883011993836277e-06   8.178103307448408e-05
-4.98596591585432e-05   4.883011993836277e-06   8.178103307448408e-05
-0.00010464473930712375   1.3813196106585504e-05   -4.169323372167199e-06
-0.00010464473930712375   1.3813196106585504e-05   -4.169323372167199e-06
-0.00010464473930712375   1.3813196106585504e-05   -4.169323372167199e-06
-0.00010464473930712375   1.3813196106585504e-05   -4.169323372167199e-06
-0.00010803858487068571   4.28770223863742e-06   9.248525789055636e-05
-0.00010803858487068571   4.28770223863742e-06   9.248525789055636e-05
-0.00010803858487068571   4.28770223863742e-06   9.248525789055636e-05
-0.00010803858487068571   4.28770223863742e-06   9.248525789055636e-05
-5.240783492483134e-05   1.3076526828305693e-05   -5.505953439668087e-06
-5.240783492483134e-05   1.3076526828305693e-05   -5.505953439668087e-06
-5.240783492483134e-05   1.3076526828305693e-05   -5.505953439668087e-06
-5.240783492483134e-05   1.3076526828305693e-05   -5.505953439668087e-06
-7.754864109235429e-05   9.615319678907622e-06   3.847211446250903e-05
-7.754864109235429e-05   9.615319678907622e-06   3.847211446250903e-05
-7.754864109235429e-05   9.615319678907622e-06   3.847211446250903e-05
-7.754864109235429e-05   9.615319678907622e-06   3.847211446250903e-05
-5.2407834924831287e-05   4.287702238638287e-06   8.721196313675548e-05
-5.2407834924831287e-05   4.287702238638287e-06   8.721196313675548e-05
-5.2407834924831287e-05   4.287702238638287e-06   8.721196313675548e-05
-5.2407834924831287e-05   4.287702238638287e-06   8.721196313675548e-05
-0.00010803858487068571   1.3076526828305693e-05   -2.3265868586775165e-07
-0.00010803858487068571   1.3076526828305693e-05   -2.3265868586775165e-07
-0.00010803858487068571   1.3076526828305693e-05   -2.3265868586775165e-07
-0.00010803858487068571   1.3076526828305693e-05   -2.3265868586775165e-07
-0.0001116316268464427   3.6153717265525326e-06   9.675695670448726e-05
-0.0001116316268464427   3.6153717265525326e-06   9.675695670448726e-05
-0.0001116316268464427   3.6153717265525326e-06   9.675695670448726e-05
-0.0001116316268464427   3.6153717265525326e-06   9.675695670448726e-05
-5.51227967275405e-05   1.2088372858804972e-05   -2.5082275063671765e-06
-5.51227967275405e-05   1.2088372858804972e-05   -2.5082275063671765e-06
-5.51227967275405e-05   1.2088372858804972e-05   -2.5082275063671765e-06
-5.51227967275405e-05   1.2088372858804972e-05   -2.5082275063671765e-06
-8.097943759786583e-05   9.01599471189729e-06   4.242960083232104e-05
-8.097943759786583e-05   9.01599471189729e-06   4.242960083232104e-05
-8.097943759786583e-05   9.01599471189729e-06   4.242960083232104e-05
-8.097943759786583e-05   9.01599471189729e-06   4.242960083232104e-05
-0.00010187389200545132   2.4128344251763377e-05   4.144199288486777e-05
-0.00010187389200545132   2.4128344251763377e-05   4.144199288486777e-05
-0.00010187389200545132   2.4128344251763377e-05   4.144199288486777e-05
-0.00010187389200545132   2.4128344251763377e-05   4.144199288486777e-05
-0.00015347073853531743   2.3763385419244692e-05   -4.4771726631087205e-05
-0.00015347073853531743   2.3763385419244692e-05   -4.4771726631087205e-05
-0.00015347073853531743   2.3763385419244692e-05   -4.4771726631087205e-05
-0.00015347073853531743   2.3763385419244692e-05   -4.4771726631087205e-05
-0.00015844164230340154   2.3264964714931474e-05   6.129943311455714e-05
-0.00015844164230340154   2.3264964714931474e-05   6.129943311455714e-05
-0.00015844164230340154   2.3264964714931474e-05   6.129943311455714e-05
-0.00015844164230340154   2.3264964714931474e-05   6.129943311455714e-05
-0.00010464473930712375   2.4209691993241217e-05   -2.8928908246225412e-05
-0.00010464473930712375   2.4209691993241217e-05   -2.8928908246225412e-05
-0.00010464473930712375   2.4209691993241217e-05   -2.8928908246225412e-05
-0.00010464473930712375   2.4209691993241217e-05   -2.8928908246225412e-05
-0.00012439090231015416   2.4225452329554135e-05   3.971907223704763e-06
-0.00012439090231015416   2.4225452329554135e-05   3.971907223704763e-06
-0.00012439090231015416   2.4225452329554135e-05   3.971907223704763e-06
-0.00012439090231015416   2.4225452329554135e-05   3.971907223704763e-06
-0.00010464473930712364   2.3264964714931474e-05   6.073259674757147e-05
-0.00010464473930712364   2.3264964714931474e-05   6.073259674757147e-05
-0.00010464473930712364   2.3264964714931474e-05   6.073259674757147e-05
-0.00010464473930712364   2.3264964714931474e-05   6.073259674757147e-05
-0.00015844164230340154   2.4209691993241217e-05   -2.8362071879239198e-05
-0.00015844164230340154   2.4209691993241217e-05   -2.8362071879239198e-05
-0.00015844164230340154   2.4209691993241217e-05   -2.8362071879239198e-05
-0.00015844164230340154   2.4209691993241217e-05   -2.8362071879239198e-05
-0.00016331657734033406   2.265989000483932e-05   7.525978621514273e-05
-0.00016331657734033406   2.265989000483932e-05   7.525978621514273e-05
-0.00016331657734033406   2.265989000483932e-05   7.525978621514273e-05
-0.00016331657734033406   2.265989000483932e-05   7.525978621514273e-05
-0.00010803858487068549   2.4032143872910333e-05   -1.769355355511488e-05
-0.00010803858487068549   2.4032143872910333e-05   -1.769355355511488e-05
-0.00010803858487068549   2.4032143872910333e-05   -1.769355355511488e-05
-0.00010803858487068549   2.4032143872910333e-05   -1.769355355511488e-05
-0.0001300728605619768   2.4213424800216196e-05   1.892147070732173e-05
-0.0001300728605619768   2.4213424800216196e-05   1.892147070732173e-05
-0.0001300728605619768   2.4213424800216196e-05   1.892147070732173e-05
-0.0001300728605619768   2.4213424800216196e-05   1.892147070732173e-05
-0.00010803858487068549   2.265989000483845e-05   7.443643389430004e-05
-0.00010803858487068549   2.265989000483845e-05   7.443643389430004e-05
-0.00010803858487068549   2.265989000483845e-05   7.443643389430004e-05
-0.00010803858487068549   2.265989000483845e-05   7.443643389430004e-05
-0.00016331657734033406   2.4032143872910333e-05   -1.687020123427186e-05
-0.00016331657734033406   2.4032143872910333e-05   -1.687020123427186e-05
-0.00016331657734033406   2.4032143872910333e-05   -1.687020123427186e-05
-0.00016331657734033406   2.4032143872910333e-05   -1.687020123427186e-05
-0.00016906423969788997   1.88350947768123e-05   9.859229316182229e-05
-0.00016906423969788997   1.88350947768123e-05   9.859229316182229e-05
-0.00016906423969788997   1.88350947768123e-05   9.859229316182229e-05
-0.00016906423969788997   1.88350947768123e-05   9.859229316182229e-05
-0.00011163162684644227   2.2113683117509428e-05   9.041187383236745e-07
-0.00011163162684644227   2.2113683117509428e-05   9.041187383236745e-07
-0.00011163162684644227   2.2113683117509428e-05   9.041187383236745e-07
-0.00011163162684644227   2.2113683117509428e-05   9.041187383236745e-07
-0.00013213601676176505   2.3056831995643852e-05   3.451221260364931e-05
-0.00013213601676176505   2.3056831995643852e-05   3.451221260364931e-05
-0.00013213601676176505   2.3056831995643852e-05   3.451221260364931e-05
-0.00013213601676176505   2.3056831995643852e-05   3.451221260364931e-05
0.00010228547884377006   -1.431851260905604e-05   7.909052026576968e-05
0.00010228547884377006   -1.431851260905604e-05   7.909052026576968e-05
0.00010228547884377006   -1.431851260905604e-05   7.909052026576968e-05
0.00010228547884377006   -1.431851260905604e-05   7.909052026576968e-05
5.0671290767722186e-05   -1.0471829228079176e-05   -4.625116499056784e-06
5.0671290767722186e-05   -1.0471829228079176e-05   -4.625116499056784e-06
5.0671290767722186e-05   -1.0471829228079176e-05   -4.625116499056784e-06
5.0671290767722186e-05   -1.0471829228079176e-05   -4.625116499056784e-06
4.871598935507796e-05   -1.623736413562324e-05   6.880111906511308e-05
4.871598935507796e-05   -1.623736413562324e-05   6.880111906511308e-05
4.871598935507796e-05   -1.623736413562324e-05   6.880111906511308e-05
4.871598935507796e-05   -1.623736413562324e-05   6.880111906511308e-05
9.868800257468969e-05   -1.2158366082057857e-05   -1.6932968466377968e-05
9.868800257468969e-05   -1.2158366082057857e-05   -1.6932968466377968e-05
9.868800257468969e-05   -1.2158366082057857e-05   -1.6932968466377968e-05
9.868800257468969e-05   -1.2158366082057857e-05   -1.6932968466377968e-05
7.165183082958873e-05   -1.3161041401121495e-05   2.8728922966894752e-05
7.165183082958873e-05   -1.3161041401121495e-05   2.8728922966894752e-05
7.165183082958873e-05   -1.3161041401121495e-05   2.8728922966894752e-05
7.165183082958873e-05   -1.3161041401121495e-05   2.8728922966894752e-05
9.868800257468953e-05   -1.623736413562324e-05   6.635372023297429e-05
9.868800257468953e-05   -1.623736413562324e-05   6.635372023297429e-05
9.868800257468953e-05   -1.623736413562324e-05   6.635372023297429e-05
9.868800257468953e-05   -1.623736413562324e-05   6.635372023297429e-05
4.8715989355078125e-05   -1.2158366082057857e-05   -1.4485569634239363e-05
4.8715989355078125e-05   -1.2158366082057857e-05   -1.4485569634239363e-05
4.8715989355078125e-05   -1.2158366082057857e-05   -1.4485569634239363e-05
4.8715989355078125e-05   -1.2158366082057857e-05   -1.4485569634239363e-05
4.654417139471204e-05   -1.6524763932010064e-05   6.167424637679121e-05
4.654417139471204e-05   -1.6524763932010064e-05   6.167424637679121e-05
4.654417139471204e-05   -1.6524763932010064e-05   6.167424637679121e-05
4.654417139471204e-05   -1.6524763932010064e-05   6.167424637679121e-05
9.543224272667923e-05   -1.249868850041868e-05   -2.222151776877515e-05
9.543224272667923e-05   -1.249868850041868e-05   -2.222151776877515e-05
9.543224272667923e-05   -1.249868850041868e-05   -2.222151776877515e-05
9.543224272667923e-05   -1.249868850041868e-05   -2.222151776877515e-05
7.028808858691866e-05   -1.381396336457355e-05   2.047457071598568e-05
7.028808858691866e-05   -1.381396336457355e-05   2.047457071598568e-05
7.028808858691866e-05   -1.381396336457355e-05   2.047457071598568e-05
7.028808858691866e-05   -1.381396336457355e-05   2.047457071598568e-05
9.54322427266789e-05   -1.6524763932009197e-05   5.92586011178369e-05
9.54322427266789e-05   -1.6524763932009197e-05   5.92586011178369e-05
9.54322427266789e-05   -1.6524763932009197e-05   5.92586011178369e-05
9.54322427266789e-05   -1.6524763932009197e-05   5.92586011178369e-05
4.6544171394712096e-05   -1.249868850041868e-05   -1.9805872509819945e-05
4.6544171394712096e-05   -1.249868850041868e-05   -1.9805872509819945e-05
4.6544171394712096e-05   -1.249868850041868e-05   -1.9805872509819945e-05
4.6544171394712096e-05   -1.249868850041868e-05   -1.9805872509819945e-05
4.445615244133779e-05   -1.6429933950172504e-05   5.174834324836236e-05
4.445615244133779e-05   -1.6429933950172504e-05   5.174834324836236e-05
4.445615244133779e-05   -1.6429933950172504e-05   5.174834324836236e-05
4.445615244133779e-05   -1.6429933950172504e-05   5.174834324836236e-05
9.174658533768812e-05   -1.2643919299446145e-05   -2.9340653702657e-05
9.174658533768812e-05   -1.2643919299446145e-05   -2.9340653702657e-05
9.174658533768812e-05   -1.2643919299446145e-05   -2.9340653702657e-05
9.174658533768812e-05   -1.2643919299446145e-05   -2.9340653702657e-05
6.66493844669484e-05   -1.3583638507150969e-05   1.3051845939866368e-05
6.66493844669484e-05   -1.3583638507150969e-05   1.3051845939866368e-05
6.66493844669484e-05   -1.3583638507150969e-05   1.3051845939866368e-05
6.66493844669484e-05   -1.3583638507150969e-05   1.3051845939866368e-05
5.0671290767722186e-05   -5.063885628570075e-06   8.315803966605544e-05
5.0671290767722186e-05   -5.063885628570075e-06   8.315803966605544e-05
5.0671290767722186e-05   -5.063885628570075e-06   8.315803966605544e-05
5.0671290767722186e-05   -5.063885628570075e-06   8.315803966605544e-05
2.2250898666773726e-06   -1.9999088524593617e-06   4.2527575633138914e-06
2.2250898666773726e-06   -1.9999088524593617e-06   4.2527575633138914e-06
2.2250898666773726e-06   -1.9999088524593617e-06   4.2527575633138914e-06
2.2250898666773726e-06   -1.9999088524593617e-06   4.2527575633138914e-06
3.490028142051334e-07   -6.097124486766428e-06   8.403466805665272e-05
3.490028142051334e-07   -6.097124486766428e-06   8.403466805665272e-05
3.490028142051334e-07   -6.097124486766428e-06   8.403466805665272e-05
3.490028142051334e-07   -6.097124486766428e-06   8.403466805665272e-05
4.8715989355078125e-05   -3.1977369601438738e-06   1.6833913058911633e-06
4.8715989355078125e-05   -3.1977369601438738e-06   1.6833913058911633e-06
4.8715989355078125e-05   -3.1977369601438738e-06   1.6833913058911633e-06
4.8715989355078125e-05   -3.1977369601438738e-06   1.6833913058911633e-06
2.51815656522885e-05   -3.937256013629431e-06   4.1351142242630886e-05
2.51815656522885e-05   -3.937256013629431e-06   4.1351142242630886e-05
2.51815656522885e-05   -3.937256013629431e-06   4.1351142242630886e-05
2.51815656522885e-05   -3.937256013629431e-06   4.1351142242630886e-05
4.8715989355078084e-05   -6.097124486766428e-06   8.229503554067936e-05
4.8715989355078084e-05   -6.097124486766428e-06   8.229503554067936e-05
4.8715989355078084e-05   -6.097124486766428e-06   8.229503554067936e-05
4.8715989355078084e-05   -6.097124486766428e-06   8.229503554067936e-05
3.490028142051334e-07   -3.1977369601438738e-06   3.423023821864414e-06
3.490028142051334e-07   -3.1977369601438738e-06   3.423023821864414e-06
3.490028142051334e-07   -3.1977369601438738e-06   3.423023821864414e-06
3.490028142051334e-07   -3.1977369601438738e-06   3.423023821864414e-06
-1.601000229654024e-06   -6.777546267378899e-06   8.27826695534062e-05
-1.601000229654024e-06   -6.777546267378899e-06   8.27826695534062e-05
-1.601000229654024e-06   -6.777546267378899e-06   8.27826695534062e-05
-1.601000229654024e-06   -6.777546267378899e-06   8.27826695534062e-05
4.6544171394712096e-05   -4.089965380834823e-06   9.28168314203126e-07
4.6544171394712096e-05   -4.089965380834823e-06   9.28168314203126e-07
4.6544171394712096e-05   -4.089965380834823e-06   9.28168314203126e-07
4.6544171394712096e-05   -4.089965380834823e-06   9.28168314203126e-07
2.303008361566665e-05   -4.565943291340649e-06   4.040390135891681e-05
2.303008361566665e-05   -4.565943291340649e-06   4.040390135891681e-05
2.303008361566665e-05   -4.565943291340649e-06   4.040390135891681e-05
2.303008361566665e-05   -4.565943291340649e-06   4.040390135891681e-05
4.654417139471204e-05   -6.777546267378899e-06   8.11701210214795e-05
4.654417139471204e-05   -6.777546267378899e-06   8.11701210214795e-05
4.654417139471204e-05   -6.777546267378899e-06   8.11701210214795e-05
4.654417139471204e-05   -6.777546267378899e-06   8.11701210214795e-05
-1.601000229654024e-06   -4.08996538083569e-06   2.5407168461289917e-06
-1.601000229654024e-06   -4.08996538083569e-06   2.5407168461289917e-06
-1.601000229654024e-06   -4.08996538083569e-06   2.5407168461289917e-06
-1.601000229654024e-06   -4.08996538083569e-06   2.5407168461289917e-06
-3.6310633160303765e-06   -7.073248681883915e-06   8.343310384417105e-05
-3.6310633160303765e-06   -7.073248681883915e-06   8.343310384417105e-05
-3.6310633160303765e-06   -7.073248681883915e-06   8.343310384417105e-05
-3.6310633160303765e-06   -7.073248681883915e-06   8.343310384417105e-05
4.4456152441337896e-05   -4.796717012893123e-06   1.9218252471623243e-06
4.4456152441337896e-05   -4.796717012893123e-06   1.9218252471623243e-06
4.4456152441337896e-05   -4.796717012893123e-06   1.9218252471623243e-06
4.4456152441337896e-05   -4.796717012893123e-06   1.9218252471623243e-06
2.14086310071984e-05   -4.9064589219913884e-06   4.04002061161889e-05
2.14086310071984e-05   -4.9064589219913884e-06   4.04002061161889e-05
2.14086310071984e-05   -4.9064589219913884e-06   4.04002061161889e-05
2.14086310071984e-05   -4.9064589219913884e-06   4.04002061161889e-05
2.2250898666773455e-06   4.475217057290856e-06   8.587640538957903e-05
2.2250898666773455e-06   4.475217057290856e-06   8.587640538957903e-05
2.2250898666773455e-06   4.475217057290856e-06   8.587640538957903e-05
2.2250898666773455e-06   4.475217057290856e-06   8.587640538957903e-05
-4.4799533300098786e-05   6.5153881578863815e-06   8.726136105309881e-06
-4.4799533300098786e-05   6.5153881578863815e-06   8.726136105309881e-06
-4.4799533300098786e-05   6.5153881578863815e-06   8.726136105309881e-06
-4.4799533300098786e-05   6.5153881578863815e-06   8.726136105309881e-06
-4.675919976071264e-05   3.6806975360287666e-06   8.706510106829858e-05
-4.675919976071264e-05   3.6806975360287666e-06   8.706510106829858e-05
-4.675919976071264e-05   3.6806975360287666e-06   8.706510106829858e-05
-4.675919976071264e-05   3.6806975360287666e-06   8.706510106829858e-05
3.490028142051334e-07   5.515852206473999e-06   7.450337307834433e-06
3.490028142051334e-07   5.515852206473999e-06   7.450337307834433e-06
3.490028142051334e-07   5.515852206473999e-06   7.450337307834433e-06
3.490028142051334e-07   5.515852206473999e-06   7.450337307834433e-06
-2.228082792023661e-05   5.106795287867193e-06   4.541215601640194e-05
-2.228082792023661e-05   5.106795287867193e-06   4.541215601640194e-05
-2.228082792023661e-05   5.106795287867193e-06   4.541215601640194e-05
-2.228082792023661e-05   5.106795287867193e-06   4.541215601640194e-05
3.490028142051334e-07   3.6806975360287666e-06   8.59640082660311e-05
3.490028142051334e-07   3.6806975360287666e-06   8.59640082660311e-05
3.490028142051334e-07   3.6806975360287666e-06   8.59640082660311e-05
3.490028142051334e-07   3.6806975360287666e-06   8.59640082660311e-05
-4.675919976071264e-05   5.515852206473999e-06   8.551430110102353e-06
-4.675919976071264e-05   5.515852206473999e-06   8.551430110102353e-06
-4.675919976071264e-05   5.515852206473999e-06   8.551430110102353e-06
-4.675919976071264e-05   5.515852206473999e-06   8.551430110102353e-06
-4.882929254390519e-05   2.94106068983533e-06   8.789383413113994e-05
-4.882929254390519e-05   2.94106068983533e-06   8.789383413113994e-05
-4.882929254390519e-05   2.94106068983533e-06   8.789383413113994e-05
-4.882929254390519e-05   2.94106068983533e-06   8.789383413113994e-05
-1.6010002296540512e-06   4.545177267612811e-06   8.217543660721672e-06
-1.6010002296540512e-06   4.545177267612811e-06   8.217543660721672e-06
-1.6010002296540512e-06   4.545177267612811e-06   8.217543660721672e-06
-1.6010002296540512e-06   4.545177267612811e-06   8.217543660721672e-06
-2.410174948538874e-05   4.534635724241093e-06   4.572511734630231e-05
-2.410174948538874e-05   4.534635724241093e-06   4.572511734630231e-05
-2.410174948538874e-05   4.534635724241093e-06   4.572511734630231e-05
-2.410174948538874e-05   4.534635724241093e-06   4.572511734630231e-05
-1.601000229654024e-06   2.94106068983533e-06   8.693136418447354e-05
-1.601000229654024e-06   2.94106068983533e-06   8.693136418447354e-05
-1.601000229654024e-06   2.94106068983533e-06   8.693136418447354e-05
-1.601000229654024e-06   2.94106068983533e-06   8.693136418447354e-05
-4.882929254390524e-05   4.545177267612811e-06   9.180013607387912e-06
-4.882929254390524e-05   4.545177267612811e-06   9.180013607387912e-06
-4.882929254390524e-05   4.545177267612811e-06   9.180013607387912e-06
-4.882929254390524e-05   4.545177267612811e-06   9.180013607387912e-06
-5.096587392360382e-05   2.407387073192352e-06   8.92097645092925e-05
-5.096587392360382e-05   2.407387073192352e-06   8.92097645092925e-05
-5.096587392360382e-05   2.407387073192352e-06   8.92097645092925e-05
-5.096587392360382e-05   2.407387073192352e-06   8.92097645092925e-05
-3.6310633160303494e-06   3.6809850614411e-06   9.554254703720785e-06
-3.6310633160303494e-06   3.6809850614411e-06   9.554254703720785e-06
-3.6310633160303494e-06   3.6809850614411e-06   9.554254703720785e-06
-3.6310633160303494e-06   3.6809850614411e-06   9.554254703720785e-06
-2.6072217936439867e-05   3.986170985006629e-06   4.677306751693232e-05
-2.6072217936439867e-05   3.986170985006629e-06   4.677306751693232e-05
-2.6072217936439867e-05   3.986170985006629e-06   4.677306751693232e-05
-2.6072217936439867e-05   3.986170985006629e-06   4.677306751693232e-05
-4.4799533300099e-05   1.4611769377380693e-05   7.48726806339417e-05
-4.4799533300099e-05   1.4611769377380693e-05   7.48726806339417e-05
-4.4799533300099e-05   1.4611769377380693e-05   7.48726806339417e-05
-4.4799533300099e-05   1.4611769377380693e-05   7.48726806339417e-05
-9.031454262697198e-05   1.4796038991444702e-05   -8.751064757405586e-07
-9.031454262697198e-05   1.4796038991444702e-05   -8.751064757405586e-07
-9.031454262697198e-05   1.4796038991444702e-05   -8.751064757405586e-07
-9.031454262697198e-05   1.4796038991444702e-05   -8.751064757405586e-07
-9.258994771114634e-05   1.3813196106585504e-05   7.618434874079967e-05
-9.258994771114634e-05   1.3813196106585504e-05   7.618434874079967e-05
-9.258994771114634e-05   1.3813196106585504e-05   7.618434874079967e-05
-9.258994771114634e-05   1.3813196106585504e-05   7.618434874079967e-05
-4.675919976071275e-05   1.3839052326347981e-05   -2.1574490844723272e-07
-4.675919976071275e-05   1.3839052326347981e-05   -2.1574490844723272e-07
-4.675919976071275e-05   1.3839052326347981e-05   -2.1574490844723272e-07
-4.675919976071275e-05   1.3839052326347981e-05   -2.1574490844723272e-07
-6.830904507185005e-05   1.4234163292773522e-05   3.5463597363592954e-05
-6.830904507185005e-05   1.4234163292773522e-05   3.5463597363592954e-05
-6.830904507185005e-05   1.4234163292773522e-05   3.5463597363592954e-05
-6.830904507185005e-05   1.4234163292773522e-05   3.5463597363592954e-05
-4.675919976071275e-05   1.3813196106585504e-05   7.616883500894235e-05
-4.675919976071275e-05   1.3813196106585504e-05   7.616883500894235e-05
-4.675919976071275e-05   1.3813196106585504e-05   7.616883500894235e-05
-4.675919976071275e-05   1.3813196106585504e-05   7.616883500894235e-05
-9.258994771114623e-05   1.3839052326347981e-05   -2.002311765897033e-07
-9.258994771114623e-05   1.3839052326347981e-05   -2.002311765897033e-07
-9.258994771114623e-05   1.3839052326347981e-05   -2.002311765897033e-07
-9.258994771114623e-05   1.3839052326347981e-05   -2.002311765897033e-07
-9.511319113429824e-05   1.3076526828305693e-05   7.972453824285587e-05
-9.511319113429824e-05   1.3076526828305693e-05   7.972453824285587e-05
-9.511319113429824e-05   1.3076526828305693e-05   7.972453824285587e-05
-9.511319113429824e-05   1.3076526828305693e-05   7.972453824285587e-05
-4.882929254390524e-05   1.2958973534748022e-05   2.6552392350026382e-06
-4.882929254390524e-05   1.2958973534748022e-05   2.6552392350026382e-06
-4.882929254390524e-05   1.2958973534748022e-05   2.6552392350026382e-06
-4.882929254390524e-05   1.2958973534748022e-05   2.6552392350026382e-06
-6.995854942388208e-05   1.3692264096754059e-05   3.743069303109407e-05
-6.995854942388208e-05   1.3692264096754059e-05   3.743069303109407e-05
-6.995854942388208e-05   1.3692264096754059e-05   3.743069303109407e-05
-6.995854942388208e-05   1.3692264096754059e-05   3.743069303109407e-05
-4.882929254390524e-05   1.3076526828305693e-05   7.979507021899047e-05
-4.882929254390524e-05   1.3076526828305693e-05   7.979507021899047e-05
-4.882929254390524e-05   1.3076526828305693e-05   7.979507021899047e-05
-4.882929254390524e-05   1.3076526828305693e-05   7.979507021899047e-05
-9.511319113429808e-05   1.2958973534748022e-05   2.5847072588677106e-06
-9.511319113429808e-05   1.2958973534748022e-05   2.5847072588677106e-06
-9.511319113429808e-05   1.2958973534748022e-05   2.5847072588677106e-06
-9.511319113429808e-05   1.2958973534748022e-05   2.5847072588677106e-06
-9.751877376038188e-05   1.2088372858804972e-05   8.228977958645457e-05
-9.751877376038188e-05   1.2088372858804972e-05   8.228977958645457e-05
-9.751877376038188e-05   1.2088372858804972e-05   8.228977958645457e-05
-9.751877376038188e-05   1.2088372858804972e-05   8.228977958645457e-05
-5.0965873923603986e-05   1.188614861288937e-05   4.822947739373663e-06
-5.0965873923603986e-05   1.188614861288937e-05   4.822947739373663e-06
-5.0965873923603986e-05   1.188614861288937e-05   4.822947739373663e-06
-5.0965873923603986e-05   1.188614861288937e-05   4.822947739373663e-06
-7.257277995089618e-05   1.2991226535201579e-05   4.01714110314763e-05
-7.257277995089618e-05   1.2991226535201579e-05   4.01714110314763e-05
-7.257277995089618e-05   1.2991226535201579e-05   4.01714110314763e-05
-7.257277995089618e-05   1.2991226535201579e-05   4.01714110314763e-05
-9.031454262697181e-05   2.3763385419243825e-05   3.59531869373428e-05
-9.031454262697181e-05   2.3763385419243825e-05   3.59531869373428e-05
-9.031454262697181e-05   2.3763385419243825e-05   3.59531869373428e-05
-9.031454262697181e-05   2.3763385419243825e-05   3.59531869373428e-05
-0.00013351240077824687   2.127792458464419e-05   -3.753451981554248e-05
-0.00013351240077824687   2.127792458464419e-05   -3.753451981554248e-05
-0.00013351240077824687   2.127792458464419e-05   -3.753451981554248e-05
-0.00013351240077824687   2.127792458464419e-05   -3.753451981554248e-05
-0.00013709504959037591   2.4209691993241217e-05   4.979629856036215e-05
-0.00013709504959037591   2.4209691993241217e-05   4.979629856036215e-05
-0.00013709504959037591   2.4209691993241217e-05   4.979629856036215e-05
-0.00013709504959037591   2.4209691993241217e-05   4.979629856036215e-05
-9.258994771114634e-05   2.149558314927611e-05   -2.2750405931975517e-05
-9.258994771114634e-05   2.149558314927611e-05   -2.2750405931975517e-05
-9.258994771114634e-05   2.149558314927611e-05   -2.2750405931975517e-05
-9.258994771114634e-05   2.149558314927611e-05   -2.2750405931975517e-05
-0.00010903795949760743   2.2559030028019254e-05   4.024878918214509e-06
-0.00010903795949760743   2.2559030028019254e-05   4.024878918214509e-06
-0.00010903795949760743   2.2559030028019254e-05   4.024878918214509e-06
-0.00010903795949760743   2.2559030028019254e-05   4.024878918214509e-06
-9.258994771114612e-05   2.4209691993241217e-05   5.142476386674113e-05
-9.258994771114612e-05   2.4209691993241217e-05   5.142476386674113e-05
-9.258994771114612e-05   2.4209691993241217e-05   5.142476386674113e-05
-9.258994771114612e-05   2.4209691993241217e-05   5.142476386674113e-05
-0.0001370950495903763   2.149558314927611e-05   -2.4378871238354277e-05
-0.0001370950495903763   2.149558314927611e-05   -2.4378871238354277e-05
-0.0001370950495903763   2.149558314927611e-05   -2.4378871238354277e-05
-0.0001370950495903763   2.149558314927611e-05   -2.4378871238354277e-05
-0.0001405953679858056   2.40321438729112e-05   6.059840565058455e-05
-0.0001405953679858056   2.40321438729112e-05   6.059840565058455e-05
-0.0001405953679858056   2.40321438729112e-05   6.059840565058455e-05
-0.0001405953679858056   2.40321438729112e-05   6.059840565058455e-05
-9.511319113429824e-05   2.1256747667870203e-05   -1.353998471223777e-05
-9.511319113429824e-05   2.1256747667870203e-05   -1.353998471223777e-05
-9.511319113429824e-05   2.1256747667870203e-05   -1.353998471223777e-05
-9.511319113429824e-05   2.1256747667870203e-05   -1.353998471223777e-05
-0.00011342540482340912   2.296769434998163e-05   1.5953803427014995e-05
-0.00011342540482340912   2.296769434998163e-05   1.5953803427014995e-05
-0.00011342540482340912   2.296769434998163e-05   1.5953803427014995e-05
-0.00011342540482340912   2.296769434998163e-05   1.5953803427014995e-05
-9.511319113429824e-05   2.4032143872910333e-05   6.226364337360906e-05
-9.511319113429824e-05   2.4032143872910333e-05   6.226364337360906e-05
-9.511319113429824e-05   2.4032143872910333e-05   6.226364337360906e-05
-9.511319113429824e-05   2.4032143872910333e-05   6.226364337360906e-05
-0.00014059536798580603   2.1256747667870203e-05   -1.5205222435261956e-05
-0.00014059536798580603   2.1256747667870203e-05   -1.5205222435261956e-05
-0.00014059536798580603   2.1256747667870203e-05   -1.5205222435261956e-05
-0.00014059536798580603   2.1256747667870203e-05   -1.5205222435261956e-05
-0.0001446853776439919   2.2113683117510295e-05   7.911729317833715e-05
-0.0001446853776439919   2.2113683117510295e-05   7.911729317833715e-05
-0.0001446853776439919   2.2113683117510295e-05   7.911729317833715e-05
-0.0001446853776439919   2.2113683117510295e-05   7.911729317833715e-05
-9.751877376038188e-05   1.961196316174925e-05   2.007318679110386e-06
-9.751877376038188e-05   1.961196316174925e-05   2.007318679110386e-06
-9.751877376038188e-05   1.961196316174925e-05   2.007318679110386e-06
-9.751877376038188e-05   1.961196316174925e-05   2.007318679110386e-06
-0.00011456119905752158   2.2289606855754873e-05   2.8804774624608277e-05
-0.00011456119905752158   2.2289606855754873e-05   2.8804774624608277e-05
-0.00011456119905752158   2.2289606855754873e-05   2.8804774624608277e-05
-0.00011456119905752158   2.2289606855754873e-05   2.8804774624608277e-05
7.745715555539367e-05   -1.0471829228079176e-05   6.589640420241608e-05
7.745715555539367e-05   -1.0471829228079176e-05   6.589640420241608e-05
7.745715555539367e-05   -1.0471829228079176e-05   6.589640420241608e-05
7.745715555539367e-05   -1.0471829228079176e-05   6.589640420241608e-05
3.6482182730335685e-05   -6.896871163601052e-06   -2.502423339942675e-07
3.6482182730335685e-05   -6.896871163601052e-06   -2.502423339942675e-07
3.6482182730335685e-05   -6.896871163601052e-06   -2.502423339942675e-07
3.6482182730335685e-05   -6.896871163601052e-06   -2.502423339942675e-07
3.473747806888952e-05   -1.2158366082058725e-05   5.7921109671010395e-05
3.473747806888952e-05   -1.2158366082058725e-05   5.7921109671010395e-05
3.473747806888952e-05   -1.2158366082058725e-05   5.7921109671010395e-05
3.473747806888952e-05   -1.2158366082058725e-05   5.7921109671010395e-05
7.408287995475773e-05   -8.379692333471567e-06   -9.921764387921505e-06
7.408287995475773e-05   -8.379692333471567e-06   -9.921764387921505e-06
7.408287995475773e-05   -8.379692333471567e-06   -9.921764387921505e-06
7.408287995475773e-05   -8.379692333471567e-06   -9.921764387921505e-06
5.3069500970524534e-05   -9.550576871191971e-06   2.5803064641765922e-05
5.3069500970524534e-05   -9.550576871191971e-06   2.5803064641765922e-05
5.3069500970524534e-05   -9.550576871191971e-06   2.5803064641765922e-05
5.3069500970524534e-05   -9.550576871191971e-06   2.5803064641765922e-05
7.408287995475773e-05   -1.2158366082058725e-05   5.565390542185871e-05
7.408287995475773e-05   -1.2158366082058725e-05   5.565390542185871e-05
7.408287995475773e-05   -1.2158366082058725e-05   5.565390542185871e-05
7.408287995475773e-05   -1.2158366082058725e-05   5.565390542185871e-05
3.4737478068889587e-05   -8.379692333471567e-06   -7.654560138769737e-06
3.4737478068889587e-05   -8.379692333471567e-06   -7.654560138769737e-06
3.4737478068889587e-05   -8.379692333471567e-06   -7.654560138769737e-06
3.4737478068889587e-05   -8.379692333471567e-06   -7.654560138769737e-06
3.281309729912019e-05   -1.2498688500417812e-05   5.2312959724301004e-05
3.281309729912019e-05   -1.2498688500417812e-05   5.2312959724301004e-05
3.281309729912019e-05   -1.2498688500417812e-05   5.2312959724301004e-05
3.281309729912019e-05   -1.2498688500417812e-05   5.2312959724301004e-05
7.112739533931157e-05   -8.777136149600018e-06   -1.3777135086508549e-05
7.112739533931157e-05   -8.777136149600018e-06   -1.3777135086508549e-05
7.112739533931157e-05   -8.777136149600018e-06   -1.3777135086508549e-05
7.112739533931157e-05   -8.777136149600018e-06   -1.3777135086508549e-05
5.1661961172979e-05   -1.0151461333756696e-05   1.9489850301207404e-05
5.1661961172979e-05   -1.0151461333756696e-05   1.9489850301207404e-05
5.1661961172979e-05   -1.0151461333756696e-05   1.9489850301207404e-05
5.1661961172979e-05   -1.0151461333756696e-05   1.9489850301207404e-05
7.112739533931143e-05   -1.2498688500417812e-05   5.0080028313810154e-05
7.112739533931143e-05   -1.2498688500417812e-05   5.0080028313810154e-05
7.112739533931143e-05   -1.2498688500417812e-05   5.0080028313810154e-05
7.112739533931143e-05   -1.2498688500417812e-05   5.0080028313810154e-05
3.281309729912026e-05   -8.777136149600018e-06   -1.1544203676017509e-05
3.281309729912026e-05   -8.777136149600018e-06   -1.1544203676017509e-05
3.281309729912026e-05   -8.777136149600018e-06   -1.1544203676017509e-05
3.281309729912026e-05   -8.777136149600018e-06   -1.1544203676017509e-05
3.1036950851639645e-05   -1.2643919299446145e-05   4.4729853277630707e-05
3.1036950851639645e-05   -1.2643919299446145e-05   4.4729853277630707e-05
3.1036950851639645e-05   -1.2643919299446145e-05   4.4729853277630707e-05
3.1036950851639645e-05   -1.2643919299446145e-05   4.4729853277630707e-05
6.782774739933837e-05   -9.154646243274972e-06   -1.868170480223607e-05
6.782774739933837e-05   -9.154646243274972e-06   -1.868170480223607e-05
6.782774739933837e-05   -9.154646243274972e-06   -1.868170480223607e-05
6.782774739933837e-05   -9.154646243274972e-06   -1.868170480223607e-05
4.858617919622394e-05   -1.009646670993656e-05   1.395266781628558e-05
4.858617919622394e-05   -1.009646670993656e-05   1.395266781628558e-05
4.858617919622394e-05   -1.009646670993656e-05   1.395266781628558e-05
4.858617919622394e-05   -1.009646670993656e-05   1.395266781628558e-05
3.648218273033556e-05   -1.9999088524593617e-06   7.508086703780651e-05
3.648218273033556e-05   -1.9999088524593617e-06   7.508086703780651e-05
3.648218273033556e-05   -1.9999088524593617e-06   7.508086703780651e-05
3.648218273033556e-05   -1.9999088524593617e-06   7.508086703780651e-05
-2.3112080346944096e-06   -2.2824282595000633e-08   1.1611466504675514e-05
-2.3112080346944096e-06   -2.2824282595000633e-08   1.1611466504675514e-05
-2.3112080346944096e-06   -2.2824282595000633e-08   1.1611466504675514e-05
-2.3112080346944096e-06   -2.2824282595000633e-08   1.1611466504675514e-05
-3.950719714333338e-06   -3.1977369601438738e-06   7.52197559474102e-05
-3.950719714333338e-06   -3.1977369601438738e-06   7.52197559474102e-05
-3.950719714333338e-06   -3.1977369601438738e-06   7.52197559474102e-05
-3.950719714333338e-06   -3.1977369601438738e-06   7.52197559474102e-05
3.4737478068889587e-05   -1.3149280663616973e-06   9.609740972436385e-06
3.4737478068889587e-05   -1.3149280663616973e-06   9.609740972436385e-06
3.4737478068889587e-05   -1.3149280663616973e-06   9.609740972436385e-06
3.4737478068889587e-05   -1.3149280663616973e-06   9.609740972436385e-06
1.5976757549411944e-05   -1.6803767077721785e-06   4.109687768974533e-05
1.5976757549411944e-05   -1.6803767077721785e-06   4.109687768974533e-05
1.5976757549411944e-05   -1.6803767077721785e-06   4.109687768974533e-05
1.5976757549411944e-05   -1.6803767077721785e-06   4.109687768974533e-05
3.473747806888949e-05   -3.1977369601438738e-06   7.409007061114125e-05
3.473747806888949e-05   -3.1977369601438738e-06   7.409007061114125e-05
3.473747806888949e-05   -3.1977369601438738e-06   7.409007061114125e-05
3.473747806888949e-05   -3.1977369601438738e-06   7.409007061114125e-05
-3.950719714333338e-06   -1.3149280663616973e-06   1.0739426308705412e-05
-3.950719714333338e-06   -1.3149280663616973e-06   1.0739426308705412e-05
-3.950719714333338e-06   -1.3149280663616973e-06   1.0739426308705412e-05
-3.950719714333338e-06   -1.3149280663616973e-06   1.0739426308705412e-05
-5.624805384364965e-06   -4.08996538083569e-06   7.409958194010049e-05
-5.624805384364965e-06   -4.08996538083569e-06   7.409958194010049e-05
-5.624805384364965e-06   -4.08996538083569e-06   7.409958194010049e-05
-5.624805384364965e-06   -4.08996538083569e-06   7.409958194010049e-05
3.281309729912026e-05   -2.335663061208814e-06   8.98382940918229e-06
3.281309729912026e-05   -2.335663061208814e-06   8.98382940918229e-06
3.281309729912026e-05   -2.335663061208814e-06   8.98382940918229e-06
3.281309729912026e-05   -2.335663061208814e-06   8.98382940918229e-06
1.413983285347034e-05   -2.478970927488784e-06   4.0191921538369453e-05
1.413983285347034e-05   -2.478970927488784e-06   4.0191921538369453e-05
1.413983285347034e-05   -2.478970927488784e-06   4.0191921538369453e-05
1.413983285347034e-05   -2.478970927488784e-06   4.0191921538369453e-05
3.281309729912019e-05   -4.08996538083569e-06   7.304700054832497e-05
3.281309729912019e-05   -4.08996538083569e-06   7.304700054832497e-05
3.281309729912019e-05   -4.08996538083569e-06   7.304700054832497e-05
3.281309729912019e-05   -4.08996538083569e-06   7.304700054832497e-05
-5.624805384364965e-06   -2.335663061208814e-06   1.0036410800958514e-05
-5.624805384364965e-06   -2.335663061208814e-06   1.0036410800958514e-05
-5.624805384364965e-06   -2.335663061208814e-06   1.0036410800958514e-05
-5.624805384364965e-06   -2.335663061208814e-06   1.0036410800958514e-05
-7.3077843364543625e-06   -4.796717012893123e-06   7.462848580911102e-05
-7.3077843364543625e-06   -4.796717012893123e-06   7.462848580911102e-05
-7.3077843364543625e-06   -4.796717012893123e-06   7.462848580911102e-05
-7.3077843364543625e-06   -4.796717012893123e-06   7.462848580911102e-05
3.103695085163967e-05   -3.2837797260651565e-06   9.812831456857446e-06
3.103695085163967e-05   -3.2837797260651565e-06   9.812831456857446e-06
3.103695085163967e-05   -3.2837797260651565e-06   9.812831456857446e-06
3.103695085163967e-05   -3.2837797260651565e-06   9.812831456857446e-06
1.2733711382689404e-05   -3.0728115388636845e-06   4.0191649659455106e-05
1.2733711382689404e-05   -3.0728115388636845e-06   4.0191649659455106e-05
1.2733711382689404e-05   -3.0728115388636845e-06   4.0191649659455106e-05
1.2733711382689404e-05   -3.0728115388636845e-06   4.0191649659455106e-05
-2.3112080346944096e-06   6.5153881578863815e-06   7.951639366136388e-05
-2.3112080346944096e-06   6.5153881578863815e-06   7.951639366136388e-05
-2.3112080346944096e-06   6.5153881578863815e-06   7.951639366136388e-05
-2.3112080346944096e-06   6.5153881578863815e-06   7.951639366136388e-05
-4.0291004273816785e-05   6.701278607842975e-06   1.6328267532800082e-05
-4.0291004273816785e-05   6.701278607842975e-06   1.6328267532800082e-05
-4.0291004273816785e-05   6.701278607842975e-06   1.6328267532800082e-05
-4.0291004273816785e-05   6.701278607842975e-06   1.6328267532800082e-05
-4.193858487416618e-05   5.515852206473999e-06   7.92756109024087e-05
-4.193858487416618e-05   5.515852206473999e-06   7.92756109024087e-05
-4.193858487416618e-05   5.515852206473999e-06   7.92756109024087e-05
-4.193858487416618e-05   5.515852206473999e-06   7.92756109024087e-05
-3.950719714333338e-06   5.56342132152117e-06   1.5933960833659148e-05
-3.950719714333338e-06   5.56342132152117e-06   1.5933960833659148e-05
-3.950719714333338e-06   5.56342132152117e-06   1.5933960833659148e-05
-3.950719714333338e-06   5.56342132152117e-06   1.5933960833659148e-05
-2.2180459131719996e-05   5.969308653300601e-06   4.607332746356938e-05
-2.2180459131719996e-05   5.969308653300601e-06   4.607332746356938e-05
-2.2180459131719996e-05   5.969308653300601e-06   4.607332746356938e-05
-2.2180459131719996e-05   5.969308653300601e-06   4.607332746356938e-05
-3.950719714333338e-06   5.515852206473999e-06   7.924706943338066e-05
-3.950719714333338e-06   5.515852206473999e-06   7.924706943338066e-05
-3.950719714333338e-06   5.515852206473999e-06   7.924706943338066e-05
-3.950719714333338e-06   5.515852206473999e-06   7.924706943338066e-05
-4.193858487416618e-05   5.56342132152117e-06   1.59625023026873e-05
-4.193858487416618e-05   5.56342132152117e-06   1.59625023026873e-05
-4.193858487416618e-05   5.56342132152117e-06   1.59625023026873e-05
-4.193858487416618e-05   5.56342132152117e-06   1.59625023026873e-05
-4.3627720330298686e-05   4.545177267612811e-06   7.971540605172713e-05
-4.3627720330298686e-05   4.545177267612811e-06   7.971540605172713e-05
-4.3627720330298686e-05   4.545177267612811e-06   7.971540605172713e-05
-4.3627720330298686e-05   4.545177267612811e-06   7.971540605172713e-05
-5.624805384364965e-06   4.443506096003455e-06   1.643821717813628e-05
-5.624805384364965e-06   4.443506096003455e-06   1.643821717813628e-05
-5.624805384364965e-06   4.443506096003455e-06   1.643821717813628e-05
-5.624805384364965e-06   4.443506096003455e-06   1.643821717813628e-05
-2.371086951252142e-05   5.203154947348854e-06   4.612586808092447e-05
-2.371086951252142e-05   5.203154947348854e-06   4.612586808092447e-05
-2.371086951252142e-05   5.203154947348854e-06   4.612586808092447e-05
-2.371086951252142e-05   5.203154947348854e-06   4.612586808092447e-05
-5.624805384364965e-06   4.545177267612811e-06   7.9776408754693e-05
-5.624805384364965e-06   4.545177267612811e-06   7.9776408754693e-05
-5.624805384364965e-06   4.545177267612811e-06   7.9776408754693e-05
-5.624805384364965e-06   4.545177267612811e-06   7.9776408754693e-05
-4.3627720330298686e-05   4.443506096003455e-06   1.637721447517084e-05
-4.3627720330298686e-05   4.443506096003455e-06   1.637721447517084e-05
-4.3627720330298686e-05   4.443506096003455e-06   1.637721447517084e-05
-4.3627720330298686e-05   4.443506096003455e-06   1.637721447517084e-05
-4.531655986785043e-05   3.6809850614411e-06   8.071476904156867e-05
-4.531655986785043e-05   3.6809850614411e-06   8.071476904156867e-05
-4.531655986785043e-05   3.6809850614411e-06   8.071476904156867e-05
-4.531655986785043e-05   3.6809850614411e-06   8.071476904156867e-05
-7.3077843364543625e-06   3.3806063569319887e-06   1.7547037045281258e-05
-7.3077843364543625e-06   3.3806063569319887e-06   1.7547037045281258e-05
-7.3077843364543625e-06   3.3806063569319887e-06   1.7547037045281258e-05
-7.3077843364543625e-06   3.3806063569319887e-06   1.7547037045281258e-05
-2.531272263257985e-05   4.456270310459684e-06   4.690986916670837e-05
-2.531272263257985e-05   4.456270310459684e-06   4.690986916670837e-05
-2.531272263257985e-05   4.456270310459684e-06   4.690986916670837e-05
-2.531272263257985e-05   4.456270310459684e-06   4.690986916670837e-05
-4.029100427381668e-05   1.4796038991443834e-05   6.991612358184804e-05
-4.029100427381668e-05   1.4796038991443834e-05   6.991612358184804e-05
-4.029100427381668e-05   1.4796038991443834e-05   6.991612358184804e-05
-4.029100427381668e-05   1.4796038991443834e-05   6.991612358184804e-05
-7.74104729223124e-05   1.3168518388764674e-05   7.0738301394140425e-06
-7.74104729223124e-05   1.3168518388764674e-05   7.0738301394140425e-06
-7.74104729223124e-05   1.3168518388764674e-05   7.0738301394140425e-06
-7.74104729223124e-05   1.3168518388764674e-05   7.0738301394140425e-06
-7.91826620031621e-05   1.3839052326347981e-05   6.945096941161476e-05
-7.91826620031621e-05   1.3839052326347981e-05   6.945096941161476e-05
-7.91826620031621e-05   1.3839052326347981e-05   6.945096941161476e-05
-7.91826620031621e-05   1.3839052326347981e-05   6.945096941161476e-05
-4.193858487416618e-05   1.207660820594066e-05   8.434974002199296e-06
-4.193858487416618e-05   1.207660820594066e-05   8.434974002199296e-06
-4.193858487416618e-05   1.207660820594066e-05   8.434974002199296e-06
-4.193858487416618e-05   1.207660820594066e-05   8.434974002199296e-06
-5.950900701649713e-05   1.3297066844834143e-05   3.698673572274805e-05
-5.950900701649713e-05   1.3297066844834143e-05   3.698673572274805e-05
-5.950900701649713e-05   1.3297066844834143e-05   3.698673572274805e-05
-5.950900701649713e-05   1.3297066844834143e-05   3.698673572274805e-05
-4.193858487416618e-05   1.3839052326347114e-05   7.050843588385933e-05
-4.193858487416618e-05   1.3839052326347114e-05   7.050843588385933e-05
-4.193858487416618e-05   1.3839052326347114e-05   7.050843588385933e-05
-4.193858487416618e-05   1.3839052326347114e-05   7.050843588385933e-05
-7.91826620031621e-05   1.207660820594066e-05   7.37750752995538e-06
-7.91826620031621e-05   1.207660820594066e-05   7.37750752995538e-06
-7.91826620031621e-05   1.207660820594066e-05   7.37750752995538e-06
-7.91826620031621e-05   1.207660820594066e-05   7.37750752995538e-06
-8.113460806952931e-05   1.2958973534748022e-05   7.205201098605491e-05
-8.113460806952931e-05   1.2958973534748022e-05   7.205201098605491e-05
-8.113460806952931e-05   1.2958973534748022e-05   7.205201098605491e-05
-8.113460806952931e-05   1.2958973534748022e-05   7.205201098605491e-05
-4.3627720330298794e-05   1.1061272379270758e-05   1.067915211395694e-05
-4.3627720330298794e-05   1.1061272379270758e-05   1.067915211395694e-05
-4.3627720330298794e-05   1.1061272379270758e-05   1.067915211395694e-05
-4.3627720330298794e-05   1.1061272379270758e-05   1.067915211395694e-05
-6.0785525768203925e-05   1.2599018005591232e-05   3.8352847134675086e-05
-6.0785525768203925e-05   1.2599018005591232e-05   3.8352847134675086e-05
-6.0785525768203925e-05   1.2599018005591232e-05   3.8352847134675086e-05
-6.0785525768203925e-05   1.2599018005591232e-05   3.8352847134675086e-05
-4.362772033029874e-05   1.2958973534748022e-05   7.31906316793411e-05
-4.362772033029874e-05   1.2958973534748022e-05   7.31906316793411e-05
-4.362772033029874e-05   1.2958973534748022e-05   7.31906316793411e-05
-4.362772033029874e-05   1.2958973534748022e-05   7.31906316793411e-05
-8.113460806952931e-05   1.1061272379270758e-05   9.540531420670429e-06
-8.113460806952931e-05   1.1061272379270758e-05   9.540531420670429e-06
-8.113460806952931e-05   1.1061272379270758e-05   9.540531420670429e-06
-8.113460806952931e-05   1.1061272379270758e-05   9.540531420670429e-06
-8.292061603318914e-05   1.188614861288937e-05   7.401609011771851e-05
-8.292061603318914e-05   1.188614861288937e-05   7.401609011771851e-05
-8.292061603318914e-05   1.188614861288937e-05   7.401609011771851e-05
-8.292061603318914e-05   1.188614861288937e-05   7.401609011771851e-05
-4.531655986785054e-05   9.880793335299235e-06   1.254587634204156e-05
-4.531655986785054e-05   9.880793335299235e-06   1.254587634204156e-05
-4.531655986785054e-05   9.880793335299235e-06   1.254587634204156e-05
-4.531655986785054e-05   9.880793335299235e-06   1.254587634204156e-05
-6.280741560368882e-05   1.1813908166760818e-05   4.0537433669565206e-05
-6.280741560368882e-05   1.1813908166760818e-05   4.0537433669565206e-05
-6.280741560368882e-05   1.1813908166760818e-05   4.0537433669565206e-05
-6.280741560368882e-05   1.1813908166760818e-05   4.0537433669565206e-05
-7.74104729223124e-05   2.127792458464419e-05   3.37714743811981e-05
-7.74104729223124e-05   2.127792458464419e-05   3.37714743811981e-05
-7.74104729223124e-05   2.127792458464419e-05   3.37714743811981e-05
-7.74104729223124e-05   2.127792458464419e-05   3.37714743811981e-05
-0.0001126095447130615   1.812121420044022e-05   -2.67876715005725e-05
-0.0001126095447130615   1.812121420044022e-05   -2.67876715005725e-05
-0.0001126095447130615   1.812121420044022e-05   -2.67876715005725e-05
-0.0001126095447130615   1.812121420044022e-05   -2.67876715005725e-05
-0.00011579201966956261   2.149558314927611e-05   4.481700712296232e-05
-0.00011579201966956261   2.149558314927611e-05   4.481700712296232e-05
-0.00011579201966956261   2.149558314927611e-05   4.481700712296232e-05
-0.00011579201966956261   2.149558314927611e-05   4.481700712296232e-05
-7.91826620031621e-05   1.8022603927163837e-05   -1.4114801454438806e-05
-7.91826620031621e-05   1.8022603927163837e-05   -1.4114801454438806e-05
-7.91826620031621e-05   1.8022603927163837e-05   -1.4114801454438806e-05
-7.91826620031621e-05   1.8022603927163837e-05   -1.4114801454438806e-05
-9.25880315488485e-05   1.944354574318248e-05   7.374916032094458e-06
-9.25880315488485e-05   1.944354574318248e-05   7.374916032094458e-06
-9.25880315488485e-05   1.944354574318248e-05   7.374916032094458e-06
-9.25880315488485e-05   1.944354574318248e-05   7.374916032094458e-06
-7.9182662003162e-05   2.149558314927611e-05   4.690079465622917e-05
-7.9182662003162e-05   2.149558314927611e-05   4.690079465622917e-05
-7.9182662003162e-05   2.149558314927611e-05   4.690079465622917e-05
-7.9182662003162e-05   2.149558314927611e-05   4.690079465622917e-05
-0.00011579201966956283   1.8022603927163403e-05   -1.6198588987706083e-05
-0.00011579201966956283   1.8022603927163403e-05   -1.6198588987706083e-05
-0.00011579201966956283   1.8022603927163403e-05   -1.6198588987706083e-05
-0.00011579201966956283   1.8022603927163403e-05   -1.6198588987706083e-05
-0.00011864375691660338   2.1256747667870203e-05   5.376487666573521e-05
-0.00011864375691660338   2.1256747667870203e-05   5.376487666573521e-05
-0.00011864375691660338   2.1256747667870203e-05   5.376487666573521e-05
-0.00011864375691660338   2.1256747667870203e-05   5.376487666573521e-05
-8.113460806952931e-05   1.7652677085847404e-05   -6.587929063508265e-06
-8.113460806952931e-05   1.7652677085847404e-05   -6.587929063508265e-06
-8.113460806952931e-05   1.7652677085847404e-05   -6.587929063508265e-06
-8.113460806952931e-05   1.7652677085847404e-05   -6.587929063508265e-06
-9.62344939209547e-05   1.96553572528093e-05   1.737693925536114e-05
-9.62344939209547e-05   1.96553572528093e-05   1.737693925536114e-05
-9.62344939209547e-05   1.96553572528093e-05   1.737693925536114e-05
-9.62344939209547e-05   1.96553572528093e-05   1.737693925536114e-05
-8.113460806952931e-05   2.1256747667870203e-05   5.5927319014949326e-05
-8.113460806952931e-05   2.1256747667870203e-05   5.5927319014949326e-05
-8.113460806952931e-05   2.1256747667870203e-05   5.5927319014949326e-05
-8.113460806952931e-05   2.1256747667870203e-05   5.5927319014949326e-05
-0.0001186437569166036   1.7652677085847404e-05   -8.750371412721619e-06
-0.0001186437569166036   1.7652677085847404e-05   -8.750371412721619e-06
-0.0001186437569166036   1.7652677085847404e-05   -8.750371412721619e-06
-0.0001186437569166036   1.7652677085847404e-05   -8.750371412721619e-06
-0.00012192275051653651   1.961196316174925e-05   6.917097031750464e-05
-0.00012192275051653651   1.961196316174925e-05   6.917097031750464e-05
-0.00012192275051653651   1.961196316174925e-05   6.917097031750464e-05
-0.00012192275051653651   1.961196316174925e-05   6.917097031750464e-05
-8.292061603318914e-05   1.6027254349250484e-05   6.318238132757927e-06
-8.292061603318914e-05   1.6027254349250484e-05   6.318238132757927e-06
-8.292061603318914e-05   1.6027254349250484e-05   6.318238132757927e-06
-8.292061603318914e-05   1.6027254349250484e-05   6.318238132757927e-06
-9.703280747746086e-05   1.8982198679241315e-05   2.8065590608551618e-05
-9.703280747746086e-05   1.8982198679241315e-05   2.8065590608551618e-05
-9.703280747746086e-05   1.8982198679241315e-05   2.8065590608551618e-05
-9.703280747746086e-05   1.8982198679241315e-05   2.8065590608551618e-05
5.31826451858961e-05   -6.896871163601485e-06   5.351952238988756e-05
5.31826451858961e-05   -6.896871163601485e-06   5.351952238988756e-05
5.31826451858961e-05   -6.896871163601485e-06   5.351952238988756e-05
5.31826451858961e-05   -6.896871163601485e-06   5.351952238988756e-05
2.2056061497013455e-05   -3.36401765650262e-06   3.761595012675544e-06
2.2056061497013455e-05   -3.36401765650262e-06   3.761595012675544e-06
2.2056061497013455e-05   -3.36401765650262e-06   3.761595012675544e-06
2.2056061497013455e-05   -3.36401765650262e-06   3.761595012675544e-06
2.0655170222571388e-05   -8.379692333471567e-06   4.814005757687459e-05
2.0655170222571388e-05   -8.379692333471567e-06   4.814005757687459e-05
2.0655170222571388e-05   -8.379692333471567e-06   4.814005757687459e-05
2.0655170222571388e-05   -8.379692333471567e-06   4.814005757687459e-05
5.0203735375258036e-05   -4.687341686292722e-06   -3.322961399244062e-06
5.0203735375258036e-05   -4.687341686292722e-06   -3.322961399244062e-06
5.0203735375258036e-05   -4.687341686292722e-06   -3.322961399244062e-06
5.0203735375258036e-05   -4.687341686292722e-06   -3.322961399244062e-06
3.47058773322116e-05   -5.973862503761817e-06   2.3278714496316336e-05
3.47058773322116e-05   -5.973862503761817e-06   2.3278714496316336e-05
3.47058773322116e-05   -5.973862503761817e-06   2.3278714496316336e-05
3.47058773322116e-05   -5.973862503761817e-06   2.3278714496316336e-05
5.020373537525812e-05   -8.379692333471567e-06   4.592464718856763e-05
5.020373537525812e-05   -8.379692333471567e-06   4.592464718856763e-05
5.020373537525812e-05   -8.379692333471567e-06   4.592464718856763e-05
5.020373537525812e-05   -8.379692333471567e-06   4.592464718856763e-05
2.0655170222571307e-05   -4.687341686292722e-06   -1.1075510109362884e-06
2.0655170222571307e-05   -4.687341686292722e-06   -1.1075510109362884e-06
2.0655170222571307e-05   -4.687341686292722e-06   -1.1075510109362884e-06
2.0655170222571307e-05   -4.687341686292722e-06   -1.1075510109362884e-06
1.908330129909727e-05   -8.777136149600018e-06   4.414232270247764e-05
1.908330129909727e-05   -8.777136149600018e-06   4.414232270247764e-05
1.908330129909727e-05   -8.777136149600018e-06   4.414232270247764e-05
1.908330129909727e-05   -8.777136149600018e-06   4.414232270247764e-05
4.764812056945983e-05   -5.144532864965155e-06   -5.64527138557393e-06
4.764812056945983e-05   -5.144532864965155e-06   -5.64527138557393e-06
4.764812056945983e-05   -5.144532864965155e-06   -5.64527138557393e-06
4.764812056945983e-05   -5.144532864965155e-06   -5.64527138557393e-06
3.337304280605622e-05   -6.53458594904871e-06   1.898055673721648e-05
3.337304280605622e-05   -6.53458594904871e-06   1.898055673721648e-05
3.337304280605622e-05   -6.53458594904871e-06   1.898055673721648e-05
3.337304280605622e-05   -6.53458594904871e-06   1.898055673721648e-05
4.7648120569459895e-05   -8.777136149600018e-06   4.196276073169681e-05
4.7648120569459895e-05   -8.777136149600018e-06   4.196276073169681e-05
4.7648120569459895e-05   -8.777136149600018e-06   4.196276073169681e-05
4.7648120569459895e-05   -8.777136149600018e-06   4.196276073169681e-05
1.9083301299097244e-05   -5.144532864965155e-06   -3.465709414792774e-06
1.9083301299097244e-05   -5.144532864965155e-06   -3.465709414792774e-06
1.9083301299097244e-05   -5.144532864965155e-06   -3.465709414792774e-06
1.9083301299097244e-05   -5.144532864965155e-06   -3.465709414792774e-06
1.7674933242692998e-05   -9.154646243274972e-06   3.896333070095223e-05
1.7674933242692998e-05   -9.154646243274972e-06   3.896333070095223e-05
1.7674933242692998e-05   -9.154646243274972e-06   3.896333070095223e-05
1.7674933242692998e-05   -9.154646243274972e-06   3.896333070095223e-05
4.4752192192346654e-05   -5.754168305195911e-06   -8.205720977984298e-06
4.4752192192346654e-05   -5.754168305195911e-06   -8.205720977984298e-06
4.4752192192346654e-05   -5.754168305195911e-06   -8.205720977984298e-06
4.4752192192346654e-05   -5.754168305195911e-06   -8.205720977984298e-06
3.092728375307115e-05   -6.648074130377341e-06   1.5372136582582742e-05
3.092728375307115e-05   -6.648074130377341e-06   1.5372136582582742e-05
3.092728375307115e-05   -6.648074130377341e-06   1.5372136582582742e-05
3.092728375307115e-05   -6.648074130377341e-06   1.5372136582582742e-05
2.2056061497013536e-05   -2.282428259413327e-08   6.631469259089787e-05
2.2056061497013536e-05   -2.282428259413327e-08   6.631469259089787e-05
2.2056061497013536e-05   -2.282428259413327e-08   6.631469259089787e-05
2.2056061497013536e-05   -2.282428259413327e-08   6.631469259089787e-05
-7.167005529768627e-06   1.7662295875458568e-06   1.8683013201678273e-05
-7.167005529768627e-06   1.7662295875458568e-06   1.8683013201678273e-05
-7.167005529768627e-06   1.7662295875458568e-06   1.8683013201678273e-05
-7.167005529768627e-06   1.7662295875458568e-06   1.8683013201678273e-05
-8.453558149918626e-06   -1.3149280663616973e-06   6.64475039000188e-05
-8.453558149918626e-06   -1.3149280663616973e-06   6.64475039000188e-05
-8.453558149918626e-06   -1.3149280663616973e-06   6.64475039000188e-05
-8.453558149918626e-06   -1.3149280663616973e-06   6.64475039000188e-05
2.0655170222571307e-05   4.2364728686933306e-07   1.6889811400597218e-05
2.0655170222571307e-05   4.2364728686933306e-07   1.6889811400597218e-05
2.0655170222571307e-05   4.2364728686933306e-07   1.6889811400597218e-05
2.0655170222571307e-05   4.2364728686933306e-07   1.6889811400597218e-05
6.564874205861828e-06   9.840399336265987e-08   4.056878407121805e-05
6.564874205861828e-06   9.840399336265987e-08   4.056878407121805e-05
6.564874205861828e-06   9.840399336265987e-08   4.056878407121805e-05
6.564874205861828e-06   9.840399336265987e-08   4.056878407121805e-05
2.065517022257136e-05   -1.3149280663616973e-06   6.540435868808078e-05
2.065517022257136e-05   -1.3149280663616973e-06   6.540435868808078e-05
2.065517022257136e-05   -1.3149280663616973e-06   6.540435868808078e-05
2.065517022257136e-05   -1.3149280663616973e-06   6.540435868808078e-05
-8.453558149918653e-06   4.2364728686933306e-07   1.7932956612535947e-05
-8.453558149918653e-06   4.2364728686933306e-07   1.7932956612535947e-05
-8.453558149918653e-06   4.2364728686933306e-07   1.7932956612535947e-05
-8.453558149918653e-06   4.2364728686933306e-07   1.7932956612535947e-05
-9.768616872997296e-06   -2.335663061208814e-06   6.566549472126126e-05
-9.768616872997296e-06   -2.335663061208814e-06   6.566549472126126e-05
-9.768616872997296e-06   -2.335663061208814e-06   6.566549472126126e-05
-9.768616872997296e-06   -2.335663061208814e-06   6.566549472126126e-05
1.9083301299097244e-05   -6.770981719034751e-07   1.658382550085413e-05
1.9083301299097244e-05   -6.770981719034751e-07   1.658382550085413e-05
1.9083301299097244e-05   -6.770981719034751e-07   1.658382550085413e-05
1.9083301299097244e-05   -6.770981719034751e-07   1.658382550085413e-05
5.151920735863958e-06   -7.983601502349266e-07   3.9875550293243895e-05
5.151920735863958e-06   -7.983601502349266e-07   3.9875550293243895e-05
5.151920735863958e-06   -7.983601502349266e-07   3.9875550293243895e-05
5.151920735863958e-06   -7.983601502349266e-07   3.9875550293243895e-05
1.9083301299097298e-05   -2.335663061208814e-06   6.467035578767814e-05
1.9083301299097298e-05   -2.335663061208814e-06   6.467035578767814e-05
1.9083301299097298e-05   -2.335663061208814e-06   6.467035578767814e-05
1.9083301299097298e-05   -2.335663061208814e-06   6.467035578767814e-05
-9.768616872997323e-06   -6.770981719034751e-07   1.757896443443734e-05
-9.768616872997323e-06   -6.770981719034751e-07   1.757896443443734e-05
-9.768616872997323e-06   -6.770981719034751e-07   1.757896443443734e-05
-9.768616872997323e-06   -6.770981719034751e-07   1.757896443443734e-05
-1.1072362455717124e-05   -3.2837797260651565e-06   6.627583140967567e-05
-1.1072362455717124e-05   -3.2837797260651565e-06   6.627583140967567e-05
-1.1072362455717124e-05   -3.2837797260651565e-06   6.627583140967567e-05
-1.1072362455717124e-05   -3.2837797260651565e-06   6.627583140967567e-05
1.767493324269291e-05   -1.7645659205114267e-06   1.7452143628993432e-05
1.767493324269291e-05   -1.7645659205114267e-06   1.7452143628993432e-05
1.767493324269291e-05   -1.7645659205114267e-06   1.7452143628993432e-05
1.767493324269291e-05   -1.7645659205114267e-06   1.7452143628993432e-05
4.0331080707421205e-06   -1.5485990671167474e-06   4.005893880354146e-05
4.0331080707421205e-06   -1.5485990671167474e-06   4.005893880354146e-05
4.0331080707421205e-06   -1.5485990671167474e-06   4.005893880354146e-05
4.0331080707421205e-06   -1.5485990671167474e-06   4.005893880354146e-05
-7.1670055297686e-06   6.701278607842975e-06   7.199339167113282e-05
-7.1670055297686e-06   6.701278607842975e-06   7.199339167113282e-05
-7.1670055297686e-06   6.701278607842975e-06   7.199339167113282e-05
-7.1670055297686e-06   6.701278607842975e-06   7.199339167113282e-05
-3.59140940776844e-05   6.587294445331137e-06   2.4013186927099913e-05
-3.59140940776844e-05   6.587294445331137e-06   2.4013186927099913e-05
-3.59140940776844e-05   6.587294445331137e-06   2.4013186927099913e-05
-3.59140940776844e-05   6.587294445331137e-06   2.4013186927099913e-05
-3.7182623152815994e-05   5.56342132152117e-06   7.15229229098259e-05
-3.7182623152815994e-05   5.56342132152117e-06   7.15229229098259e-05
-3.7182623152815994e-05   5.56342132152117e-06   7.15229229098259e-05
-3.7182623152815994e-05   5.56342132152117e-06   7.15229229098259e-05
-8.453558149918626e-06   5.364895462944136e-06   2.376026342014372e-05
-8.453558149918626e-06   5.364895462944136e-06   2.376026342014372e-05
-8.453558149918626e-06   5.364895462944136e-06   2.376026342014372e-05
-8.453558149918626e-06   5.364895462944136e-06   2.376026342014372e-05
-2.223441147893723e-05   5.905840268164569e-06   4.640378541871052e-05
-2.223441147893723e-05   5.905840268164569e-06   4.640378541871052e-05
-2.223441147893723e-05   5.905840268164569e-06   4.640378541871052e-05
-2.223441147893723e-05   5.905840268164569e-06   4.640378541871052e-05
-8.453558149918626e-06   5.56342132152117e-06   7.164203842497264e-05
-8.453558149918626e-06   5.56342132152117e-06   7.164203842497264e-05
-8.453558149918626e-06   5.56342132152117e-06   7.164203842497264e-05
-8.453558149918626e-06   5.56342132152117e-06   7.164203842497264e-05
-3.7182623152815994e-05   5.364895462943702e-06   2.364114790499752e-05
-3.7182623152815994e-05   5.364895462943702e-06   2.364114790499752e-05
-3.7182623152815994e-05   5.364895462943702e-06   2.364114790499752e-05
-3.7182623152815994e-05   5.364895462943702e-06   2.364114790499752e-05
-3.848197294034004e-05   4.443506096003455e-06   7.189506300770082e-05
-3.848197294034004e-05   4.443506096003455e-06   7.189506300770082e-05
-3.848197294034004e-05   4.443506096003455e-06   7.189506300770082e-05
-3.848197294034004e-05   4.443506096003455e-06   7.189506300770082e-05
-9.768616872997269e-06   4.156442611439638e-06   2.4211707652868327e-05
-9.768616872997269e-06   4.156442611439638e-06   2.4211707652868327e-05
-9.768616872997269e-06   4.156442611439638e-06   2.4211707652868327e-05
-9.768616872997269e-06   4.156442611439638e-06   2.4211707652868327e-05
-2.3396939928385156e-05   5.017579703415435e-06   4.640889715666391e-05
-2.3396939928385156e-05   5.017579703415435e-06   4.640889715666391e-05
-2.3396939928385156e-05   5.017579703415435e-06   4.640889715666391e-05
-2.3396939928385156e-05   5.017579703415435e-06   4.640889715666391e-05
-9.768616872997323e-06   4.443506096003455e-06   7.206730109843946e-05
-9.768616872997323e-06   4.443506096003455e-06   7.206730109843946e-05
-9.768616872997323e-06   4.443506096003455e-06   7.206730109843946e-05
-9.768616872997323e-06   4.443506096003455e-06   7.206730109843946e-05
-3.848197294034004e-05   4.156442611440072e-06   2.4039469562130286e-05
-3.848197294034004e-05   4.156442611440072e-06   2.4039469562130286e-05
-3.848197294034004e-05   4.156442611440072e-06   2.4039469562130286e-05
-3.848197294034004e-05   4.156442611440072e-06   2.4039469562130286e-05
-3.976650757892881e-05   3.3806063569319887e-06   7.286951900808926e-05
-3.976650757892881e-05   3.3806063569319887e-06   7.286951900808926e-05
-3.976650757892881e-05   3.3806063569319887e-06   7.286951900808926e-05
-3.976650757892881e-05   3.3806063569319887e-06   7.286951900808926e-05
-1.1072362455717097e-05   2.9926803270766307e-06   2.5278699420650192e-05
-1.1072362455717097e-05   2.9926803270766307e-06   2.5278699420650192e-05
-1.1072362455717097e-05   2.9926803270766307e-06   2.5278699420650192e-05
-1.1072362455717097e-05   2.9926803270766307e-06   2.5278699420650192e-05
-2.4612532525166325e-05   4.149933093407394e-06   4.7151297876599956e-05
-2.4612532525166325e-05   4.149933093407394e-06   4.7151297876599956e-05
-2.4612532525166325e-05   4.149933093407394e-06   4.7151297876599956e-05
-2.4612532525166325e-05   4.149933093407394e-06   4.7151297876599956e-05
-3.59140940776844e-05   1.3168518388764674e-05   6.364707614184804e-05
-3.59140940776844e-05   1.3168518388764674e-05   6.364707614184804e-05
-3.59140940776844e-05   1.3168518388764674e-05   6.364707614184804e-05
-3.59140940776844e-05   1.3168518388764674e-05   6.364707614184804e-05
-6.416181628344521e-05   1.1275553663877592e-05   1.5431760297314467e-05
-6.416181628344521e-05   1.1275553663877592e-05   1.5431760297314467e-05
-6.416181628344521e-05   1.1275553663877592e-05   1.5431760297314467e-05
-6.416181628344521e-05   1.1275553663877592e-05   1.5431760297314467e-05
-6.55216212924175e-05   1.207660820594066e-05   6.279724696694024e-05
-6.55216212924175e-05   1.207660820594066e-05   6.279724696694024e-05
-6.55216212924175e-05   1.207660820594066e-05   6.279724696694024e-05
-6.55216212924175e-05   1.207660820594066e-05   6.279724696694024e-05
-3.718262315281583e-05   1.0079695468610296e-05   1.6763731043335827e-05
-3.718262315281583e-05   1.0079695468610296e-05   1.6763731043335827e-05
-3.718262315281583e-05   1.0079695468610296e-05   1.6763731043335827e-05
-3.718262315281583e-05   1.0079695468610296e-05   1.6763731043335827e-05
-5.055233580330873e-05   1.1454589313425467e-05   3.822164915393651e-05
-5.055233580330873e-05   1.1454589313425467e-05   3.822164915393651e-05
-5.055233580330873e-05   1.1454589313425467e-05   3.822164915393651e-05
-5.055233580330873e-05   1.1454589313425467e-05   3.822164915393651e-05
-3.7182623152815994e-05   1.207660820594066e-05   6.399539460933898e-05
-3.7182623152815994e-05   1.207660820594066e-05   6.399539460933898e-05
-3.7182623152815994e-05   1.207660820594066e-05   6.399539460933898e-05
-3.7182623152815994e-05   1.207660820594066e-05   6.399539460933898e-05
-6.552162129241739e-05   1.0079695468610296e-05   1.556558340093774e-05
-6.552162129241739e-05   1.0079695468610296e-05   1.556558340093774e-05
-6.552162129241739e-05   1.0079695468610296e-05   1.556558340093774e-05
-6.552162129241739e-05   1.0079695468610296e-05   1.556558340093774e-05
-6.705283470493154e-05   1.1061272379270758e-05   6.494523685930372e-05
-6.705283470493154e-05   1.1061272379270758e-05   6.494523685930372e-05
-6.705283470493154e-05   1.1061272379270758e-05   6.494523685930372e-05
-6.705283470493154e-05   1.1061272379270758e-05   6.494523685930372e-05
-3.848197294033988e-05   8.97499940063183e-06   1.857889770550162e-05
-3.848197294033988e-05   8.97499940063183e-06   1.857889770550162e-05
-3.848197294033988e-05   8.97499940063183e-06   1.857889770550162e-05
-3.848197294033988e-05   8.97499940063183e-06   1.857889770550162e-05
-5.149806353034727e-05   1.0639182727227667e-05   3.92738720262246e-05
-5.149806353034727e-05   1.0639182727227667e-05   3.92738720262246e-05
-5.149806353034727e-05   1.0639182727227667e-05   3.92738720262246e-05
-5.149806353034727e-05   1.0639182727227667e-05   3.92738720262246e-05
-3.848197294033999e-05   1.1061272379270758e-05   6.619700064648681e-05
-3.848197294033999e-05   1.1061272379270758e-05   6.619700064648681e-05
-3.848197294033999e-05   1.1061272379270758e-05   6.619700064648681e-05
-3.848197294033999e-05   1.1061272379270758e-05   6.619700064648681e-05
-6.705283470493143e-05   8.97499940063183e-06   1.7327133918318633e-05
-6.705283470493143e-05   8.97499940063183e-06   1.7327133918318633e-05
-6.705283470493143e-05   8.97499940063183e-06   1.7327133918318633e-05
-6.705283470493143e-05   8.97499940063183e-06   1.7327133918318633e-05
-6.841558086584365e-05   9.880793335299235e-06   6.676524674425859e-05
-6.841558086584365e-05   9.880793335299235e-06   6.676524674425859e-05
-6.841558086584365e-05   9.880793335299235e-06   6.676524674425859e-05
-6.841558086584365e-05   9.880793335299235e-06   6.676524674425859e-05
-3.97665075789287e-05   7.74189536313771e-06   2.0300130049364512e-05
-3.97665075789287e-05   7.74189536313771e-06   2.0300130049364512e-05
-3.97665075789287e-05   7.74189536313771e-06   2.0300130049364512e-05
-3.97665075789287e-05   7.74189536313771e-06   2.0300130049364512e-05
-5.3030608538090794e-05   9.782992480425814e-06   4.118230671092951e-05
-5.3030608538090794e-05   9.782992480425814e-06   4.118230671092951e-05
-5.3030608538090794e-05   9.782992480425814e-06   4.118230671092951e-05
-5.3030608538090794e-05   9.782992480425814e-06   4.118230671092951e-05
-6.416181628344521e-05   1.812121420044022e-05   3.0543821897451636e-05
-6.416181628344521e-05   1.812121420044022e-05   3.0543821897451636e-05
-6.416181628344521e-05   1.812121420044022e-05   3.0543821897451636e-05
-6.416181628344521e-05   1.812121420044022e-05   3.0543821897451636e-05
-9.059933555423687e-05   1.476331908169086e-05   -1.5533447291784424e-05
-9.059933555423687e-05   1.476331908169086e-05   -1.5533447291784424e-05
-9.059933555423687e-05   1.476331908169086e-05   -1.5533447291784424e-05
-9.059933555423687e-05   1.476331908169086e-05   -1.5533447291784424e-05
-9.34389418649266e-05   1.8022603927163837e-05   3.911635055629066e-05
-9.34389418649266e-05   1.8022603927163837e-05   3.911635055629066e-05
-9.34389418649266e-05   1.8022603927163837e-05   3.911635055629066e-05
-9.34389418649266e-05   1.8022603927163837e-05   3.911635055629066e-05
-6.552162129241728e-05   1.4374958216737885e-05   -5.223929638301832e-06
-6.552162129241728e-05   1.4374958216737885e-05   -5.223929638301832e-06
-6.552162129241728e-05   1.4374958216737885e-05   -5.223929638301832e-06
-6.552162129241728e-05   1.4374958216737885e-05   -5.223929638301832e-06
-7.549230726492274e-05   1.6026594587105394e-05   1.0402898493654111e-05
-7.549230726492274e-05   1.6026594587105394e-05   1.0402898493654111e-05
-7.549230726492274e-05   1.6026594587105394e-05   1.0402898493654111e-05
-7.549230726492274e-05   1.6026594587105394e-05   1.0402898493654111e-05
-6.55216212924175e-05   1.8022603927163837e-05   4.130493798254649e-05
-6.55216212924175e-05   1.8022603927163837e-05   4.130493798254649e-05
-6.55216212924175e-05   1.8022603927163837e-05   4.130493798254649e-05
-6.55216212924175e-05   1.8022603927163837e-05   4.130493798254649e-05
-9.34389418649267e-05   1.4374958216738318e-05   -7.412517064557447e-06
-9.34389418649267e-05   1.4374958216738318e-05   -7.412517064557447e-06
-9.34389418649267e-05   1.4374958216738318e-05   -7.412517064557447e-06
-9.34389418649267e-05   1.4374958216738318e-05   -7.412517064557447e-06
-9.59188173058009e-05   1.7652677085847838e-05   4.65694001318402e-05
-9.59188173058009e-05   1.7652677085847838e-05   4.65694001318402e-05
-9.59188173058009e-05   1.7652677085847838e-05   4.65694001318402e-05
-9.59188173058009e-05   1.7652677085847838e-05   4.65694001318402e-05
-6.705283470493132e-05   1.3907050013705485e-05   7.068053736760099e-07
-6.705283470493132e-05   1.3907050013705485e-05   7.068053736760099e-07
-6.705283470493132e-05   1.3907050013705485e-05   7.068053736760099e-07
-6.705283470493132e-05   1.3907050013705485e-05   7.068053736760099e-07
-7.849139935051786e-05   1.6033525773722235e-05   1.849519432698039e-05
-7.849139935051786e-05   1.6033525773722235e-05   1.849519432698039e-05
-7.849139935051786e-05   1.6033525773722235e-05   1.849519432698039e-05
-7.849139935051786e-05   1.6033525773722235e-05   1.849519432698039e-05
-6.705283470493154e-05   1.7652677085847404e-05   4.881677637512535e-05
-6.705283470493154e-05   1.7652677085847404e-05   4.881677637512535e-05
-6.705283470493154e-05   1.7652677085847404e-05   4.881677637512535e-05
-6.705283470493154e-05   1.7652677085847404e-05   4.881677637512535e-05
-9.59188173058009e-05   1.3907050013705485e-05   -1.5405708696089246e-06
-9.59188173058009e-05   1.3907050013705485e-05   -1.5405708696089246e-06
-9.59188173058009e-05   1.3907050013705485e-05   -1.5405708696089246e-06
-9.59188173058009e-05   1.3907050013705485e-05   -1.5405708696089246e-06
-9.879753391218928e-05   1.6027254349250484e-05   5.952976731715947e-05
-9.879753391218928e-05   1.6027254349250484e-05   5.952976731715947e-05
-9.879753391218928e-05   1.6027254349250484e-05   5.952976731715947e-05
-9.879753391218928e-05   1.6027254349250484e-05   5.952976731715947e-05
-6.841558086584344e-05   1.2342163708635012e-05   1.110423329095259e-05
-6.841558086584344e-05   1.2342163708635012e-05   1.110423329095259e-05
-6.841558086584344e-05   1.2342163708635012e-05   1.110423329095259e-05
-6.841558086584344e-05   1.2342163708635012e-05   1.110423329095259e-05
-7.917580531112504e-05   1.535251650970149e-05   2.7231729019114997e-05
-7.917580531112504e-05   1.535251650970149e-05   2.7231729019114997e-05
-7.917580531112504e-05   1.535251650970149e-05   2.7231729019114997e-05
-7.917580531112504e-05   1.535251650970149e-05   2.7231729019114997e-05
2.9333052844109932e-05   -3.36401765650262e-06   4.199576515894138e-05
2.9333052844109932e-05   -3.36401765650262e-06   4.199576515894138e-05
2.9333052844109932e-05   -3.36401765650262e-06   4.199576515894138e-05
2.9333052844109932e-05   -3.36401765650262e-06   4.199576515894138e-05
7.5917108174888425e-06   1.2347201712318082e-07   7.85268891874847e-06
7.5917108174888425e-06   1.2347201712318082e-07   7.85268891874847e-06
7.5917108174888425e-06   1.2347201712318082e-07   7.85268891874847e-06
7.5917108174888425e-06   1.2347201712318082e-07   7.85268891874847e-06
6.547106752365469e-06   -4.687341686292722e-06   3.9182211137173736e-05
6.547106752365469e-06   -4.687341686292722e-06   3.9182211137173736e-05
6.547106752365469e-06   -4.687341686292722e-06   3.9182211137173736e-05
6.547106752365469e-06   -4.687341686292722e-06   3.9182211137173736e-05
2.6753315088869106e-05   -1.0603712324343262e-06   3.3290149706863606e-06
2.6753315088869106e-05   -1.0603712324343262e-06   3.3290149706863606e-06
2.6753315088869106e-05   -1.0603712324343262e-06   3.3290149706863606e-06
2.6753315088869106e-05   -1.0603712324343262e-06   3.3290149706863606e-06
1.6516058694313514e-05   -2.4146938453007208e-06   2.1203702529333447e-05
1.6516058694313514e-05   -2.4146938453007208e-06   2.1203702529333447e-05
1.6516058694313514e-05   -2.4146938453007208e-06   2.1203702529333447e-05
1.6516058694313514e-05   -2.4146938453007208e-06   2.1203702529333447e-05
2.675331508886916e-05   -4.687341686292722e-06   3.700602886485887e-05
2.675331508886916e-05   -4.687341686292722e-06   3.700602886485887e-05
2.675331508886916e-05   -4.687341686292722e-06   3.700602886485887e-05
2.675331508886916e-05   -4.687341686292722e-06   3.700602886485887e-05
6.547106752365462e-06   -1.0603712324343262e-06   5.5051972430014955e-06
6.547106752365462e-06   -1.0603712324343262e-06   5.5051972430014955e-06
6.547106752365462e-06   -1.0603712324343262e-06   5.5051972430014955e-06
6.547106752365462e-06   -1.0603712324343262e-06   5.5051972430014955e-06
5.331224257808416e-06   -5.144532864965155e-06   3.6792353692240544e-05
5.331224257808416e-06   -5.144532864965155e-06   3.6792353692240544e-05
5.331224257808416e-06   -5.144532864965155e-06   3.6792353692240544e-05
5.331224257808416e-06   -5.144532864965155e-06   3.6792353692240544e-05
2.4570835386388066e-05   -1.5731463831086985e-06   2.5835032554941476e-06
2.4570835386388066e-05   -1.5731463831086985e-06   2.5835032554941476e-06
2.4570835386388066e-05   -1.5731463831086985e-06   2.5835032554941476e-06
2.4570835386388066e-05   -1.5731463831086985e-06   2.5835032554941476e-06
1.5263667083379376e-05   -2.931214947368352e-06   1.891029156573078e-05
1.5263667083379376e-05   -2.931214947368352e-06   1.891029156573078e-05
1.5263667083379376e-05   -2.931214947368352e-06   1.891029156573078e-05
1.5263667083379376e-05   -2.931214947368352e-06   1.891029156573078e-05
2.457083538638812e-05   -5.144532864965155e-06   3.464952180312663e-05
2.457083538638812e-05   -5.144532864965155e-06   3.464952180312663e-05
2.457083538638812e-05   -5.144532864965155e-06   3.464952180312663e-05
2.457083538638812e-05   -5.144532864965155e-06   3.464952180312663e-05
5.331224257808396e-06   -1.5731463831086985e-06   4.726335144608065e-06
5.331224257808396e-06   -1.5731463831086985e-06   4.726335144608065e-06
5.331224257808396e-06   -1.5731463831086985e-06   4.726335144608065e-06
5.331224257808396e-06   -1.5731463831086985e-06   4.726335144608065e-06
4.278558180315983e-06   -5.754168305195911e-06   3.4044832461498174e-05
4.278558180315983e-06   -5.754168305195911e-06   3.4044832461498174e-05
4.278558180315983e-06   -5.754168305195911e-06   3.4044832461498174e-05
4.278558180315983e-06   -5.754168305195911e-06   3.4044832461498174e-05
2.2017672273491964e-05   -2.4317311746718112e-06   2.486180027891035e-06
2.2017672273491964e-05   -2.4317311746718112e-06   2.486180027891035e-06
2.2017672273491964e-05   -2.4317311746718112e-06   2.486180027891035e-06
2.2017672273491964e-05   -2.4317311746718112e-06   2.486180027891035e-06
1.3434233790701209e-05   -3.20197227907321e-06   1.7254055495183503e-05
1.3434233790701209e-05   -3.20197227907321e-06   1.7254055495183503e-05
1.3434233790701209e-05   -3.20197227907321e-06   1.7254055495183503e-05
1.3434233790701209e-05   -3.20197227907321e-06   1.7254055495183503e-05
7.591710817488856e-06   1.7662295875458568e-06   5.793624483003512e-05
7.591710817488856e-06   1.7662295875458568e-06   5.793624483003512e-05
7.591710817488856e-06   1.7662295875458568e-06   5.793624483003512e-05
7.591710817488856e-06   1.7662295875458568e-06   5.793624483003512e-05
-1.2228817347726046e-05   3.3405500373152874e-06   2.584662349120522e-05
-1.2228817347726046e-05   3.3405500373152874e-06   2.584662349120522e-05
-1.2228817347726046e-05   3.3405500373152874e-06   2.584662349120522e-05
-1.2228817347726046e-05   3.3405500373152874e-06   2.584662349120522e-05
-1.3145637919739572e-05   4.2364728686933306e-07   5.812518915101041e-05
-1.3145637919739572e-05   4.2364728686933306e-07   5.812518915101041e-05
-1.3145637919739572e-05   4.2364728686933306e-07   5.812518915101041e-05
-1.3145637919739572e-05   4.2364728686933306e-07   5.812518915101041e-05
6.547106752365462e-06   1.9996732907073995e-06   2.4358332428532875e-05
6.547106752365462e-06   1.9996732907073995e-06   2.4358332428532875e-05
6.547106752365462e-06   1.9996732907073995e-06   2.4358332428532875e-05
6.547106752365462e-06   1.9996732907073995e-06   2.4358332428532875e-05
-2.956171691664907e-06   1.750192428410461e-06   4.034681835262972e-05
-2.956171691664907e-06   1.750192428410461e-06   4.034681835262972e-05
-2.956171691664907e-06   1.750192428410461e-06   4.034681835262972e-05
-2.956171691664907e-06   1.750192428410461e-06   4.034681835262972e-05
6.547106752365462e-06   4.2364728686933306e-07   5.717957354870731e-05
6.547106752365462e-06   4.2364728686933306e-07   5.717957354870731e-05
6.547106752365462e-06   4.2364728686933306e-07   5.717957354870731e-05
6.547106752365462e-06   4.2364728686933306e-07   5.717957354870731e-05
-1.3145637919739572e-05   1.9996732907073995e-06   2.5303948030835867e-05
-1.3145637919739572e-05   1.9996732907073995e-06   2.5303948030835867e-05
-1.3145637919739572e-05   1.9996732907073995e-06   2.5303948030835867e-05
-1.3145637919739572e-05   1.9996732907073995e-06   2.5303948030835867e-05
-1.408887843234541e-05   -6.770981719034751e-07   5.7764731284400735e-05
-1.408887843234541e-05   -6.770981719034751e-07   5.7764731284400735e-05
-1.408887843234541e-05   -6.770981719034751e-07   5.7764731284400735e-05
-1.408887843234541e-05   -6.770981719034751e-07   5.7764731284400735e-05
5.331224257808396e-06   8.609729556189466e-07   2.447505079096456e-05
5.331224257808396e-06   8.609729556189466e-07   2.447505079096456e-05
5.331224257808396e-06   8.609729556189466e-07   2.447505079096456e-05
5.331224257808396e-06   8.609729556189466e-07   2.447505079096456e-05
-3.933836678715335e-06   8.135472225755287e-07   3.994527445833106e-05
-3.933836678715335e-06   8.135472225755287e-07   3.994527445833106e-05
-3.933836678715335e-06   8.135472225755287e-07   3.994527445833106e-05
-3.933836678715335e-06   8.135472225755287e-07   3.994527445833106e-05
5.331224257808416e-06   -6.770981719034751e-07   5.684188860788754e-05
5.331224257808416e-06   -6.770981719034751e-07   5.684188860788754e-05
5.331224257808416e-06   -6.770981719034751e-07   5.684188860788754e-05
5.331224257808416e-06   -6.770981719034751e-07   5.684188860788754e-05
-1.4088878432345464e-05   8.609729556189466e-07   2.5397893467478307e-05
-1.4088878432345464e-05   8.609729556189466e-07   2.5397893467478307e-05
-1.4088878432345464e-05   8.609729556189466e-07   2.5397893467478307e-05
-1.4088878432345464e-05   8.609729556189466e-07   2.5397893467478307e-05
-1.5017644168700784e-05   -1.7645659205114267e-06   5.853784032537439e-05
-1.5017644168700784e-05   -1.7645659205114267e-06   5.853784032537439e-05
-1.5017644168700784e-05   -1.7645659205114267e-06   5.853784032537439e-05
-1.5017644168700784e-05   -1.7645659205114267e-06   5.853784032537439e-05
4.278558180315976e-06   -3.055158876020918e-07   2.5502073057268027e-05
4.278558180315976e-06   -3.055158876020918e-07   2.5502073057268027e-05
4.278558180315976e-06   -3.055158876020918e-07   2.5502073057268027e-05
4.278558180315976e-06   -3.055158876020918e-07   2.5502073057268027e-05
-4.7632600695519145e-06   -2.96219646728213e-08   4.040623378662449e-05
-4.7632600695519145e-06   -2.96219646728213e-08   4.040623378662449e-05
-4.7632600695519145e-06   -2.96219646728213e-08   4.040623378662449e-05
-4.7632600695519145e-06   -2.96219646728213e-08   4.040623378662449e-05
-1.2228817347726046e-05   6.587294445331137e-06   6.427940132282478e-05
-1.2228817347726046e-05   6.587294445331137e-06   6.427940132282478e-05
-1.2228817347726046e-05   6.587294445331137e-06   6.427940132282478e-05
-1.2228817347726046e-05   6.587294445331137e-06   6.427940132282478e-05
-3.1722572023259955e-05   6.2023084203967176e-06   3.1558818581974664e-05
-3.1722572023259955e-05   6.2023084203967176e-06   3.1558818581974664e-05
-3.1722572023259955e-05   6.2023084203967176e-06   3.1558818581974664e-05
-3.1722572023259955e-05   6.2023084203967176e-06   3.1558818581974664e-05
-3.260149987789954e-05   5.364895462944136e-06   6.371181161493426e-05
-3.260149987789954e-05   5.364895462944136e-06   6.371181161493426e-05
-3.260149987789954e-05   5.364895462944136e-06   6.371181161493426e-05
-3.260149987789954e-05   5.364895462944136e-06   6.371181161493426e-05
-1.3145637919739544e-05   4.9637548901362676e-06   3.1526059361685146e-05
-1.3145637919739544e-05   4.9637548901362676e-06   3.1526059361685146e-05
-1.3145637919739544e-05   4.9637548901362676e-06   3.1526059361685146e-05
-1.3145637919739544e-05   4.9637548901362676e-06   3.1526059361685146e-05
-2.2465743977948484e-05   5.643618434052287e-06   4.665165133235284e-05
-2.2465743977948484e-05   5.643618434052287e-06   4.665165133235284e-05
-2.2465743977948484e-05   5.643618434052287e-06   4.665165133235284e-05
-2.2465743977948484e-05   5.643618434052287e-06   4.665165133235284e-05
-1.3145637919739572e-05   5.364895462944136e-06   6.395249595861829e-05
-1.3145637919739572e-05   5.364895462944136e-06   6.395249595861829e-05
-1.3145637919739572e-05   5.364895462944136e-06   6.395249595861829e-05
-1.3145637919739572e-05   5.364895462944136e-06   6.395249595861829e-05
-3.2601499877899485e-05   4.963754890136701e-06   3.1285375018001065e-05
-3.2601499877899485e-05   4.963754890136701e-06   3.1285375018001065e-05
-3.2601499877899485e-05   4.963754890136701e-06   3.1285375018001065e-05
-3.2601499877899485e-05   4.963754890136701e-06   3.1285375018001065e-05
-3.350953629938975e-05   4.156442611440072e-06   6.414249309784348e-05
-3.350953629938975e-05   4.156442611440072e-06   6.414249309784348e-05
-3.350953629938975e-05   4.156442611440072e-06   6.414249309784348e-05
-3.350953629938975e-05   4.156442611440072e-06   6.414249309784348e-05
-1.408887843234541e-05   3.7314736031249067e-06   3.2029711391091584e-05
-1.408887843234541e-05   3.7314736031249067e-06   3.2029711391091584e-05
-1.408887843234541e-05   3.7314736031249067e-06   3.2029711391091584e-05
-1.408887843234541e-05   3.7314736031249067e-06   3.2029711391091584e-05
-2.32489070250432e-05   4.700444196208305e-06   4.671504335640464e-05
-2.32489070250432e-05   4.700444196208305e-06   4.671504335640464e-05
-2.32489070250432e-05   4.700444196208305e-06   4.671504335640464e-05
-2.32489070250432e-05   4.700444196208305e-06   4.671504335640464e-05
-1.4088878432345464e-05   4.156442611440072e-06   6.43974745028321e-05
-1.4088878432345464e-05   4.156442611440072e-06   6.43974745028321e-05
-1.4088878432345464e-05   4.156442611440072e-06   6.43974745028321e-05
-1.4088878432345464e-05   4.156442611440072e-06   6.43974745028321e-05
-3.35095362993897e-05   3.7314736031249067e-06   3.177472998610307e-05
-3.35095362993897e-05   3.7314736031249067e-06   3.177472998610307e-05
-3.35095362993897e-05   3.7314736031249067e-06   3.177472998610307e-05
-3.35095362993897e-05   3.7314736031249067e-06   3.177472998610307e-05
-3.440358909179343e-05   2.9926803270766307e-06   6.518780490947108e-05
-3.440358909179343e-05   2.9926803270766307e-06   6.518780490947108e-05
-3.440358909179343e-05   2.9926803270766307e-06   6.518780490947108e-05
-3.440358909179343e-05   2.9926803270766307e-06   6.518780490947108e-05
-1.501764416870073e-05   2.550908786696539e-06   3.314295962854471e-05
-1.501764416870073e-05   2.550908786696539e-06   3.314295962854471e-05
-1.501764416870073e-05   2.550908786696539e-06   3.314295962854471e-05
-1.501764416870073e-05   2.550908786696539e-06   3.314295962854471e-05
-2.4081598589207134e-05   3.7758502168415073e-06   4.751458547130286e-05
-2.4081598589207134e-05   3.7758502168415073e-06   4.751458547130286e-05
-2.4081598589207134e-05   3.7758502168415073e-06   4.751458547130286e-05
-2.4081598589207134e-05   3.7758502168415073e-06   4.751458547130286e-05
-3.1722572023259955e-05   1.1275553663877592e-05   5.6602761913011196e-05
-3.1722572023259955e-05   1.1275553663877592e-05   5.6602761913011196e-05
-3.1722572023259955e-05   1.1275553663877592e-05   5.6602761913011196e-05
-3.1722572023259955e-05   1.1275553663877592e-05   5.6602761913011196e-05
-5.0848781905216394e-05   9.196630612340068e-06   2.3478391612160947e-05
-5.0848781905216394e-05   9.196630612340068e-06   2.3478391612160947e-05
-5.0848781905216394e-05   9.196630612340068e-06   2.3478391612160947e-05
-5.0848781905216394e-05   9.196630612340068e-06   2.3478391612160947e-05
-5.180595630631683e-05   1.0079695468610296e-05   5.555445773850571e-05
-5.180595630631683e-05   1.0079695468610296e-05   5.555445773850571e-05
-5.180595630631683e-05   1.0079695468610296e-05   5.555445773850571e-05
-5.180595630631683e-05   1.0079695468610296e-05   5.555445773850571e-05
-3.2601499877899485e-05   7.946467110666114e-06   2.4826967372577045e-05
-3.2601499877899485e-05   7.946467110666114e-06   2.4826967372577045e-05
-3.2601499877899485e-05   7.946467110666114e-06   2.4826967372577045e-05
-3.2601499877899485e-05   7.946467110666114e-06   2.4826967372577045e-05
-4.1644380249966574e-05   9.471026879654364e-06   3.898369879796505e-05
-4.1644380249966574e-05   9.471026879654364e-06   3.898369879796505e-05
-4.1644380249966574e-05   9.471026879654364e-06   3.898369879796505e-05
-4.1644380249966574e-05   9.471026879654364e-06   3.898369879796505e-05
-3.260149987789954e-05   1.0079695468610296e-05   5.6834394753272136e-05
-3.260149987789954e-05   1.0079695468610296e-05   5.6834394753272136e-05
-3.260149987789954e-05   1.0079695468610296e-05   5.6834394753272136e-05
-3.260149987789954e-05   1.0079695468610296e-05   5.6834394753272136e-05
-5.180595630631683e-05   7.946467110666114e-06   2.3547030357810948e-05
-5.180595630631683e-05   7.946467110666114e-06   2.3547030357810948e-05
-5.180595630631683e-05   7.946467110666114e-06   2.3547030357810948e-05
-5.180595630631683e-05   7.946467110666114e-06   2.3547030357810948e-05
-5.294052813497056e-05   8.974999400631397e-06   5.738380331998371e-05
-5.294052813497056e-05   8.974999400631397e-06   5.738380331998371e-05
-5.294052813497056e-05   8.974999400631397e-06   5.738380331998371e-05
-5.294052813497056e-05   8.974999400631397e-06   5.738380331998371e-05
-3.350953629938964e-05   6.811469531913146e-06   2.629693484858058e-05
-3.350953629938964e-05   6.811469531913146e-06   2.629693484858058e-05
-3.350953629938964e-05   6.811469531913146e-06   2.629693484858058e-05
-3.350953629938964e-05   6.811469531913146e-06   2.629693484858058e-05
-4.226728042040355e-05   8.58592794568229e-06   3.982850000200898e-05
-4.226728042040355e-05   8.58592794568229e-06   3.982850000200898e-05
-4.226728042040355e-05   8.58592794568229e-06   3.982850000200898e-05
-4.226728042040355e-05   8.58592794568229e-06   3.982850000200898e-05
-3.350953629938975e-05   8.974999400631397e-06   5.868192124121449e-05
-3.350953629938975e-05   8.974999400631397e-06   5.868192124121449e-05
-3.350953629938975e-05   8.974999400631397e-06   5.868192124121449e-05
-3.350953629938975e-05   8.974999400631397e-06   5.868192124121449e-05
-5.2940528134970345e-05   6.811469531913146e-06   2.499881692734937e-05
-5.2940528134970345e-05   6.811469531913146e-06   2.499881692734937e-05
-5.2940528134970345e-05   6.811469531913146e-06   2.499881692734937e-05
-5.2940528134970345e-05   6.811469531913146e-06   2.499881692734937e-05
-5.39154029948149e-05   7.74189536313771e-06   5.915700037648292e-05
-5.39154029948149e-05   7.74189536313771e-06   5.915700037648292e-05
-5.39154029948149e-05   7.74189536313771e-06   5.915700037648292e-05
-5.39154029948149e-05   7.74189536313771e-06   5.915700037648292e-05
-3.4403589091793266e-05   5.600244063777571e-06   2.7922301317729985e-05
-3.4403589091793266e-05   5.600244063777571e-06   2.7922301317729985e-05
-3.4403589091793266e-05   5.600244063777571e-06   2.7922301317729985e-05
-3.4403589091793266e-05   5.600244063777571e-06   2.7922301317729985e-05
-4.3333407043262865e-05   7.70139498394544e-06   4.154464068474757e-05
-4.3333407043262865e-05   7.70139498394544e-06   4.154464068474757e-05
-4.3333407043262865e-05   7.70139498394544e-06   4.154464068474757e-05
-4.3333407043262865e-05   7.70139498394544e-06   4.154464068474757e-05
-5.084878190521661e-05   1.4763319081690426e-05   2.640493756423919e-05
-5.084878190521661e-05   1.4763319081690426e-05   2.640493756423919e-05
-5.084878190521661e-05   1.4763319081690426e-05   2.640493756423919e-05
-5.084878190521661e-05   1.4763319081690426e-05   2.640493756423919e-05
-6.804600317679335e-05   1.1288197342781796e-05   -4.342170931733781e-06
-6.804600317679335e-05   1.1288197342781796e-05   -4.342170931733781e-06
-6.804600317679335e-05   1.1288197342781796e-05   -4.342170931733781e-06
-6.804600317679335e-05   1.1288197342781796e-05   -4.342170931733781e-06
-7.049755299938791e-05   1.4374958216738318e-05   3.25267563955167e-05
-7.049755299938791e-05   1.4374958216738318e-05   3.25267563955167e-05
-7.049755299938791e-05   1.4374958216738318e-05   3.25267563955167e-05
-7.049755299938791e-05   1.4374958216738318e-05   3.25267563955167e-05
-5.1805956306316724e-05   1.064464437715686e-05   3.6122835441476393e-06
-5.1805956306316724e-05   1.064464437715686e-05   3.6122835441476393e-06
-5.1805956306316724e-05   1.064464437715686e-05   3.6122835441476393e-06
-5.1805956306316724e-05   1.064464437715686e-05   3.6122835441476393e-06
-5.810499629389776e-05   1.2536845568602607e-05   1.2975362808584096e-05
-5.810499629389776e-05   1.2536845568602607e-05   1.2975362808584096e-05
-5.810499629389776e-05   1.2536845568602607e-05   1.2975362808584096e-05
-5.810499629389776e-05   1.2536845568602607e-05   1.2975362808584096e-05
-5.1805956306316724e-05   1.4374958216738318e-05   3.476494469926549e-05
-5.1805956306316724e-05   1.4374958216738318e-05   3.476494469926549e-05
-5.1805956306316724e-05   1.4374958216738318e-05   3.476494469926549e-05
-5.1805956306316724e-05   1.4374958216738318e-05   3.476494469926549e-05
-7.049755299938824e-05   1.0644644377156426e-05   1.3740952403983628e-06
-7.049755299938824e-05   1.0644644377156426e-05   1.3740952403983628e-06
-7.049755299938824e-05   1.0644644377156426e-05   1.3740952403983628e-06
-7.049755299938824e-05   1.0644644377156426e-05   1.3740952403983628e-06
-7.26105810493579e-05   1.3907050013705919e-05   3.8485400895904576e-05
-7.26105810493579e-05   1.3907050013705919e-05   3.8485400895904576e-05
-7.26105810493579e-05   1.3907050013705919e-05   3.8485400895904576e-05
-7.26105810493579e-05   1.3907050013705919e-05   3.8485400895904576e-05
-5.2940528134970345e-05   1.0110260214644777e-05   7.980053251362184e-06
-5.2940528134970345e-05   1.0110260214644777e-05   7.980053251362184e-06
-5.2940528134970345e-05   1.0110260214644777e-05   7.980053251362184e-06
-5.2940528134970345e-05   1.0110260214644777e-05   7.980053251362184e-06
-6.0453779743426265e-05   1.2367803905724648e-05   1.9147613050808643e-05
-6.0453779743426265e-05   1.2367803905724648e-05   1.9147613050808643e-05
-6.0453779743426265e-05   1.2367803905724648e-05   1.9147613050808643e-05
-6.0453779743426265e-05   1.2367803905724648e-05   1.9147613050808643e-05
-5.2940528134970454e-05   1.3907050013705919e-05   4.076347477534109e-05
-5.2940528134970454e-05   1.3907050013705919e-05   4.076347477534109e-05
-5.2940528134970454e-05   1.3907050013705919e-05   4.076347477534109e-05
-5.2940528134970454e-05   1.3907050013705919e-05   4.076347477534109e-05
-7.261058104935823e-05   1.011026021464521e-05   5.701979371925943e-06
-7.261058104935823e-05   1.011026021464521e-05   5.701979371925943e-06
-7.261058104935823e-05   1.011026021464521e-05   5.701979371925943e-06
-7.261058104935823e-05   1.011026021464521e-05   5.701979371925943e-06
-7.514206712350114e-05   1.2342163708635012e-05   4.903646013274714e-05
-7.514206712350114e-05   1.2342163708635012e-05   4.903646013274714e-05
-7.514206712350114e-05   1.2342163708635012e-05   4.903646013274714e-05
-7.514206712350114e-05   1.2342163708635012e-05   4.903646013274714e-05
-5.3915402994814685e-05   8.662193260935026e-06   1.5866668853556972e-05
-5.3915402994814685e-05   8.662193260935026e-06   1.5866668853556972e-05
-5.3915402994814685e-05   8.662193260935026e-06   1.5866668853556972e-05
-5.3915402994814685e-05   8.662193260935026e-06   1.5866668853556972e-05
-6.104990385453866e-05   1.1709334173740267e-05   2.5929219072081712e-05
-6.104990385453866e-05   1.1709334173740267e-05   2.5929219072081712e-05
-6.104990385453866e-05   1.1709334173740267e-05   2.5929219072081712e-05
-6.104990385453866e-05   1.1709334173740267e-05   2.5929219072081712e-05
5.557187561321239e-06   1.2347201712318082e-07   3.122755451476179e-05
5.557187561321239e-06   1.2347201712318082e-07   3.122755451476179e-05
5.557187561321239e-06   1.2347201712318082e-07   3.122755451476179e-05
5.557187561321239e-06   1.2347201712318082e-07   3.122755451476179e-05
-6.787571386959897e-06   3.4637791623878117e-06   1.2657140554785378e-05
-6.787571386959897e-06   3.4637791623878117e-06   1.2657140554785378e-05
-6.787571386959897e-06   3.4637791623878117e-06   1.2657140554785378e-05
-6.787571386959897e-06   3.4637791623878117e-06   1.2657140554785378e-05
-7.522476027198962e-06   -1.0603712324343262e-06   3.084212766000876e-05
-7.522476027198962e-06   -1.0603712324343262e-06   3.084212766000876e-05
-7.522476027198962e-06   -1.0603712324343262e-06   3.084212766000876e-05
-7.522476027198962e-06   -1.0603712324343262e-06   3.084212766000876e-05
3.3165492400823496e-06   2.359739017225842e-06   1.0725019398077277e-05
3.3165492400823496e-06   2.359739017225842e-06   1.0725019398077277e-05
3.3165492400823496e-06   2.359739017225842e-06   1.0725019398077277e-05
3.3165492400823496e-06   2.359739017225842e-06   1.0725019398077277e-05
-1.639098491804355e-06   1.03384539912061e-06   1.9779968455418007e-05
-1.639098491804355e-06   1.03384539912061e-06   1.9779968455418007e-05
-1.639098491804355e-06   1.03384539912061e-06   1.9779968455418007e-05
-1.639098491804355e-06   1.03384539912061e-06   1.9779968455418007e-05
3.3165492400823496e-06   -1.0603712324343262e-06   2.879006151021283e-05
3.3165492400823496e-06   -1.0603712324343262e-06   2.879006151021283e-05
3.3165492400823496e-06   -1.0603712324343262e-06   2.879006151021283e-05
3.3165492400823496e-06   -1.0603712324343262e-06   2.879006151021283e-05
-7.522476027198962e-06   2.359739017225842e-06   1.2777085547873313e-05
-7.522476027198962e-06   2.359739017225842e-06   1.2777085547873313e-05
-7.522476027198962e-06   2.359739017225842e-06   1.2777085547873313e-05
-7.522476027198962e-06   2.359739017225842e-06   1.2777085547873313e-05
-8.429493358033236e-06   -1.5731463831091322e-06   3.0061611334052888e-05
-8.429493358033236e-06   -1.5731463831091322e-06   3.0061611334052888e-05
-8.429493358033236e-06   -1.5731463831091322e-06   3.0061611334052888e-05
-8.429493358033236e-06   -1.5731463831091322e-06   3.0061611334052888e-05
1.3744033675230894e-06   1.748649738143697e-06   1.1728705785373796e-05
1.3744033675230894e-06   1.748649738143697e-06   1.1728705785373796e-05
1.3744033675230894e-06   1.748649738143697e-06   1.1728705785373796e-05
1.3744033675230894e-06   1.748649738143697e-06   1.1728705785373796e-05
-2.8517760449728583e-06   5.631548954214416e-07   1.9483635045167212e-05
-2.8517760449728583e-06   5.631548954214416e-07   1.9483635045167212e-05
-2.8517760449728583e-06   5.631548954214416e-07   1.9483635045167212e-05
-2.8517760449728583e-06   5.631548954214416e-07   1.9483635045167212e-05
1.3744033675230894e-06   -1.5731463831091322e-06   2.8068533661300714e-05
1.3744033675230894e-06   -1.5731463831091322e-06   2.8068533661300714e-05
1.3744033675230894e-06   -1.5731463831091322e-06   2.8068533661300714e-05
1.3744033675230894e-06   -1.5731463831091322e-06   2.8068533661300714e-05
-8.42949335803323e-06   1.748649738143697e-06   1.3721783458125374e-05
-8.42949335803323e-06   1.748649738143697e-06   1.3721783458125374e-05
-8.42949335803323e-06   1.748649738143697e-06   1.3721783458125374e-05
-8.42949335803323e-06   1.748649738143697e-06   1.3721783458125374e-05
-9.186146905683829e-06   -2.4317311746718112e-06   2.9822877052940568e-05
-9.186146905683829e-06   -2.4317311746718112e-06   2.9822877052940568e-05
-9.186146905683829e-06   -2.4317311746718112e-06   2.9822877052940568e-05
-9.186146905683829e-06   -2.4317311746718112e-06   2.9822877052940568e-05
-1.0604454028741899e-06   4.493063663975512e-07   1.4551418690283415e-05
-1.0604454028741899e-06   4.493063663975512e-07   1.4551418690283415e-05
-1.0604454028741899e-06   4.493063663975512e-07   1.4551418690283415e-05
-1.0604454028741899e-06   4.493063663975512e-07   1.4551418690283415e-05
-4.146086244029371e-06   1.2677647788983046e-07   1.988767135864631e-05
-4.146086244029371e-06   1.2677647788983046e-07   1.988767135864631e-05
-4.146086244029371e-06   1.2677647788983046e-07   1.988767135864631e-05
-4.146086244029371e-06   1.2677647788983046e-07   1.988767135864631e-05
-6.787571386959897e-06   3.3405500373148538e-06   5.028108110451579e-05
-6.787571386959897e-06   3.3405500373148538e-06   5.028108110451579e-05
-6.787571386959897e-06   3.3405500373148538e-06   5.028108110451579e-05
-6.787571386959897e-06   3.3405500373148538e-06   5.028108110451579e-05
-1.712693295851693e-05   3.993187666857627e-06   3.3440394396313166e-05
-1.712693295851693e-05   3.993187666857627e-06   3.3440394396313166e-05
-1.712693295851693e-05   3.993187666857627e-06   3.3440394396313166e-05
-1.712693295851693e-05   3.993187666857627e-06   3.3440394396313166e-05
-1.7679432007786035e-05   1.999673290706966e-06   5.0150527173707356e-05
-1.7679432007786035e-05   1.999673290706966e-06   5.0150527173707356e-05
-1.7679432007786035e-05   1.999673290706966e-06   5.0150527173707356e-05
-1.7679432007786035e-05   1.999673290706966e-06   5.0150527173707356e-05
-7.522476027198962e-06   2.7584471709854105e-06   3.276700287789541e-05
-7.522476027198962e-06   2.7584471709854105e-06   3.276700287789541e-05
-7.522476027198962e-06   2.7584471709854105e-06   3.276700287789541e-05
-7.522476027198962e-06   2.7584471709854105e-06   3.276700287789541e-05
-1.2348818091357557e-05   2.8816400382942163e-06   4.073699059777404e-05
-1.2348818091357557e-05   2.8816400382942163e-06   4.073699059777404e-05
-1.2348818091357557e-05   2.8816400382942163e-06   4.073699059777404e-05
-1.2348818091357557e-05   2.8816400382942163e-06   4.073699059777404e-05
-7.522476027198976e-06   1.999673290706966e-06   4.969526284554003e-05
-7.522476027198976e-06   1.999673290706966e-06   4.969526284554003e-05
-7.522476027198976e-06   1.999673290706966e-06   4.969526284554003e-05
-7.522476027198976e-06   1.999673290706966e-06   4.969526284554003e-05
-1.767943200778598e-05   2.7584471709854105e-06   3.322226720606225e-05
-1.767943200778598e-05   2.7584471709854105e-06   3.322226720606225e-05
-1.767943200778598e-05   2.7584471709854105e-06   3.322226720606225e-05
-1.767943200778598e-05   2.7584471709854105e-06   3.322226720606225e-05
-1.8249054933492184e-05   8.609729556189466e-07   5.0263114318927415e-05
-1.8249054933492184e-05   8.609729556189466e-07   5.0263114318927415e-05
-1.8249054933492184e-05   8.609729556189466e-07   5.0263114318927415e-05
-1.8249054933492184e-05   8.609729556189466e-07   5.0263114318927415e-05
-8.42949335803323e-06   1.6156185198160436e-06   3.344439102131099e-05
-8.42949335803323e-06   1.6156185198160436e-06   3.344439102131099e-05
-8.42949335803323e-06   1.6156185198160436e-06   3.344439102131099e-05
-8.42949335803323e-06   1.6156185198160436e-06   3.344439102131099e-05
-1.2912395328095327e-05   1.9775044836243746e-06   4.069876272646351e-05
-1.2912395328095327e-05   1.9775044836243746e-06   4.069876272646351e-05
-1.2912395328095327e-05   1.9775044836243746e-06   4.069876272646351e-05
-1.2912395328095327e-05   1.9775044836243746e-06   4.069876272646351e-05
-8.429493358033236e-06   8.609729556193803e-07   4.981032698040907e-05
-8.429493358033236e-06   8.609729556193803e-07   4.981032698040907e-05
-8.429493358033236e-06   8.609729556193803e-07   4.981032698040907e-05
-8.429493358033236e-06   8.609729556193803e-07   4.981032698040907e-05
-1.8249054933492184e-05   1.6156185198160436e-06   3.389717835982926e-05
-1.8249054933492184e-05   1.6156185198160436e-06   3.389717835982926e-05
-1.8249054933492184e-05   1.6156185198160436e-06   3.389717835982926e-05
-1.8249054933492184e-05   1.6156185198160436e-06   3.389717835982926e-05
-1.880716789850491e-05   -3.055158876020918e-07   5.125317317384182e-05
-1.880716789850491e-05   -3.055158876020918e-07   5.125317317384182e-05
-1.880716789850491e-05   -3.055158876020918e-07   5.125317317384182e-05
-1.880716789850491e-05   -3.055158876020918e-07   5.125317317384182e-05
-9.186146905683829e-06   3.7425972879492897e-07   3.4810272815968533e-05
-9.186146905683829e-06   3.7425972879492897e-07   3.4810272815968533e-05
-9.186146905683829e-06   3.7425972879492897e-07   3.4810272815968533e-05
-9.186146905683829e-06   3.7425972879492897e-07   3.4810272815968533e-05
-1.3476430571806271e-05   1.0859335383616928e-06   4.1533741307099646e-05
-1.3476430571806271e-05   1.0859335383616928e-06   4.1533741307099646e-05
-1.3476430571806271e-05   1.0859335383616928e-06   4.1533741307099646e-05
-1.3476430571806271e-05   1.0859335383616928e-06   4.1533741307099646e-05
-1.712693295851693e-05   6.2023084203967176e-06   5.661585038797194e-05
-1.712693295851693e-05   6.2023084203967176e-06   5.661585038797194e-05
-1.712693295851693e-05   6.2023084203967176e-06   5.661585038797194e-05
-1.712693295851693e-05   6.2023084203967176e-06   5.661585038797194e-05
-2.7447890683281737e-05   4.768471238959793e-06   3.855395187116813e-05
-2.7447890683281737e-05   4.768471238959793e-06   3.855395187116813e-05
-2.7447890683281737e-05   4.768471238959793e-06   3.855395187116813e-05
-2.7447890683281737e-05   4.768471238959793e-06   3.855395187116813e-05
-2.7914351999448934e-05   4.9637548901362676e-06   5.556747983734376e-05
-2.7914351999448934e-05   4.9637548901362676e-06   5.556747983734376e-05
-2.7914351999448934e-05   4.9637548901362676e-06   5.556747983734376e-05
-2.7914351999448934e-05   4.9637548901362676e-06   5.556747983734376e-05
-1.767943200778598e-05   3.6218237781148258e-06   3.9314438518452165e-05
-1.767943200778598e-05   3.6218237781148258e-06   3.9314438518452165e-05
-1.767943200778598e-05   3.6218237781148258e-06   3.9314438518452165e-05
-1.767943200778598e-05   3.6218237781148258e-06   3.9314438518452165e-05
-2.2552281485431654e-05   4.7972756587679084e-06   4.673058318613646e-05
-2.2552281485431654e-05   4.7972756587679084e-06   4.673058318613646e-05
-2.2552281485431654e-05   4.7972756587679084e-06   4.673058318613646e-05
-2.2552281485431654e-05   4.7972756587679084e-06   4.673058318613646e-05
-1.767943200778598e-05   4.9637548901362676e-06   5.6372638504557015e-05
-1.767943200778598e-05   4.9637548901362676e-06   5.6372638504557015e-05
-1.767943200778598e-05   4.9637548901362676e-06   5.6372638504557015e-05
-1.767943200778598e-05   4.9637548901362676e-06   5.6372638504557015e-05
-2.7914351999448934e-05   3.6218237781148258e-06   3.850927985123902e-05
-2.7914351999448934e-05   3.6218237781148258e-06   3.850927985123902e-05
-2.7914351999448934e-05   3.6218237781148258e-06   3.850927985123902e-05
-2.7914351999448934e-05   3.6218237781148258e-06   3.850927985123902e-05
-2.841463998447079e-05   3.7314736031253404e-06   5.612975575060471e-05
-2.841463998447079e-05   3.7314736031253404e-06   5.612975575060471e-05
-2.841463998447079e-05   3.7314736031253404e-06   5.612975575060471e-05
-2.841463998447079e-05   3.7314736031253404e-06   5.612975575060471e-05
-1.8249054933492184e-05   2.4561794498977225e-06   3.995229049090981e-05
-1.8249054933492184e-05   2.4561794498977225e-06   3.995229049090981e-05
-1.8249054933492184e-05   2.4561794498977225e-06   3.995229049090981e-05
-1.8249054933492184e-05   2.4561794498977225e-06   3.995229049090981e-05
-2.2950753866049137e-05   3.877761590339191e-06   4.6935506094239986e-05
-2.2950753866049137e-05   3.877761590339191e-06   4.6935506094239986e-05
-2.2950753866049137e-05   3.877761590339191e-06   4.6935506094239986e-05
-2.2950753866049137e-05   3.877761590339191e-06   4.6935506094239986e-05
-1.8249054933492184e-05   3.7314736031249067e-06   5.68949322425408e-05
-1.8249054933492184e-05   3.7314736031249067e-06   5.68949322425408e-05
-1.8249054933492184e-05   3.7314736031249067e-06   5.68949322425408e-05
-1.8249054933492184e-05   3.7314736031249067e-06   5.68949322425408e-05
-2.8414639984470844e-05   2.4561794498977225e-06   3.9187113998973445e-05
-2.8414639984470844e-05   2.4561794498977225e-06   3.9187113998973445e-05
-2.8414639984470844e-05   2.4561794498977225e-06   3.9187113998973445e-05
-2.8414639984470844e-05   2.4561794498977225e-06   3.9187113998973445e-05
-2.8904570616766843e-05   2.550908786696539e-06   5.729805065917467e-05
-2.8904570616766843e-05   2.550908786696539e-06   5.729805065917467e-05
-2.8904570616766843e-05   2.550908786696539e-06   5.729805065917467e-05
-2.8904570616766843e-05   2.550908786696539e-06   5.729805065917467e-05
-1.8807167898504857e-05   1.3499436763660978e-06   4.118962519493685e-05
-1.8807167898504857e-05   1.3499436763660978e-06   4.118962519493685e-05
-1.8807167898504857e-05   1.3499436763660978e-06   4.118962519493685e-05
-1.8807167898504857e-05   1.3499436763660978e-06   4.118962519493685e-05
-2.339482113029138e-05   2.9715908620000023e-06   4.7862725603200216e-05
-2.339482113029138e-05   2.9715908620000023e-06   4.7862725603200216e-05
-2.339482113029138e-05   2.9715908620000023e-06   4.7862725603200216e-05
-2.339482113029138e-05   2.9715908620000023e-06   4.7862725603200216e-05
-2.7447890683281846e-05   9.196630612339635e-06   4.892247494021852e-05
-2.7447890683281846e-05   9.196630612339635e-06   4.892247494021852e-05
-2.7447890683281846e-05   9.196630612339635e-06   4.892247494021852e-05
-2.7447890683281846e-05   9.196630612339635e-06   4.892247494021852e-05
-3.759089003021771e-05   6.43344404390421e-06   3.0359564087597255e-05
-3.759089003021771e-05   6.43344404390421e-06   3.0359564087597255e-05
-3.759089003021771e-05   6.43344404390421e-06   3.0359564087597255e-05
-3.759089003021771e-05   6.43344404390421e-06   3.0359564087597255e-05
-3.8103036258166985e-05   7.946467110666114e-06   4.747725999606177e-05
-3.8103036258166985e-05   7.946467110666114e-06   4.747725999606177e-05
-3.8103036258166985e-05   7.946467110666114e-06   4.747725999606177e-05
-3.8103036258166985e-05   7.946467110666114e-06   4.747725999606177e-05
-2.7914351999448934e-05   5.226780117568303e-06   3.2127931760723765e-05
-2.7914351999448934e-05   5.226780117568303e-06   3.2127931760723765e-05
-2.7914351999448934e-05   5.226780117568303e-06   3.2127931760723765e-05
-2.7914351999448934e-05   5.226780117568303e-06   3.2127931760723765e-05
-3.2694702829132914e-05   7.142867959174064e-06   3.8945530438567284e-05
-3.2694702829132914e-05   7.142867959174064e-06   3.8945530438567284e-05
-3.2694702829132914e-05   7.142867959174064e-06   3.8945530438567284e-05
-3.2694702829132914e-05   7.142867959174064e-06   3.8945530438567284e-05
-2.7914351999448934e-05   7.946467110666548e-06   4.910907219192028e-05
-2.7914351999448934e-05   7.946467110666548e-06   4.910907219192028e-05
-2.7914351999448934e-05   7.946467110666548e-06   4.910907219192028e-05
-2.7914351999448934e-05   7.946467110666548e-06   4.910907219192028e-05
-3.810303625816677e-05   5.226780117568303e-06   3.0496119564865198e-05
-3.810303625816677e-05   5.226780117568303e-06   3.0496119564865198e-05
-3.810303625816677e-05   5.226780117568303e-06   3.0496119564865198e-05
-3.810303625816677e-05   5.226780117568303e-06   3.0496119564865198e-05
-3.881312588023295e-05   6.811469531913146e-06   4.905780051669582e-05
-3.881312588023295e-05   6.811469531913146e-06   4.905780051669582e-05
-3.881312588023295e-05   6.811469531913146e-06   4.905780051669582e-05
-3.881312588023295e-05   6.811469531913146e-06   4.905780051669582e-05
-2.841463998447079e-05   4.154536037934663e-06   3.332115078681229e-05
-2.841463998447079e-05   4.154536037934663e-06   3.332115078681229e-05
-2.841463998447079e-05   4.154536037934663e-06   3.332115078681229e-05
-2.841463998447079e-05   4.154536037934663e-06   3.332115078681229e-05
-3.297327305739131e-05   6.251614474019496e-06   3.966062551336198e-05
-3.297327305739131e-05   6.251614474019496e-06   3.966062551336198e-05
-3.297327305739131e-05   6.251614474019496e-06   3.966062551336198e-05
-3.297327305739131e-05   6.251614474019496e-06   3.966062551336198e-05
-2.8414639984470844e-05   6.811469531913146e-06   5.065196061308178e-05
-2.8414639984470844e-05   6.811469531913146e-06   5.065196061308178e-05
-2.8414639984470844e-05   6.811469531913146e-06   5.065196061308178e-05
-2.8414639984470844e-05   6.811469531913146e-06   5.065196061308178e-05
-3.881312588023284e-05   4.154536037935096e-06   3.1726990690425136e-05
-3.881312588023284e-05   4.154536037935096e-06   3.1726990690425136e-05
-3.881312588023284e-05   4.154536037935096e-06   3.1726990690425136e-05
-3.881312588023284e-05   4.154536037935096e-06   3.1726990690425136e-05
-3.938292605206665e-05   5.600244063777571e-06   5.082044833867481e-05
-3.938292605206665e-05   5.600244063777571e-06   5.082044833867481e-05
-3.938292605206665e-05   5.600244063777571e-06   5.082044833867481e-05
-3.938292605206665e-05   5.600244063777571e-06   5.082044833867481e-05
-2.890457061676679e-05   3.063565840589859e-06   3.4878529547088376e-05
-2.890457061676679e-05   3.063565840589859e-06   3.4878529547088376e-05
-2.890457061676679e-05   3.063565840589859e-06   3.4878529547088376e-05
-2.890457061676679e-05   3.063565840589859e-06   3.4878529547088376e-05
-3.3560131448149725e-05   5.405564429954157e-06   4.123259844577556e-05
-3.3560131448149725e-05   5.405564429954157e-06   4.123259844577556e-05
-3.3560131448149725e-05   5.405564429954157e-06   4.123259844577556e-05
-3.3560131448149725e-05   5.405564429954157e-06   4.123259844577556e-05
-3.759089003021771e-05   1.1288197342781796e-05   2.1529073498607323e-05
-3.759089003021771e-05   1.1288197342781796e-05   2.1529073498607323e-05
-3.759089003021771e-05   1.1288197342781796e-05   2.1529073498607323e-05
-3.759089003021771e-05   1.1288197342781796e-05   2.1529073498607323e-05
-4.5492634725701094e-05   7.578247117965252e-06   6.1335288712455346e-06
-4.5492634725701094e-05   7.578247117965252e-06   6.1335288712455346e-06
-4.5492634725701094e-05   7.578247117965252e-06   6.1335288712455346e-06
-4.5492634725701094e-05   7.578247117965252e-06   6.1335288712455346e-06
-4.74438383539443e-05   1.064464437715686e-05   2.522070068267145e-05
-4.74438383539443e-05   1.064464437715686e-05   2.522070068267145e-05
-4.74438383539443e-05   1.064464437715686e-05   2.522070068267145e-05
-4.74438383539443e-05   1.064464437715686e-05   2.522070068267145e-05
-3.810303625816688e-05   6.774956877612492e-06   1.1974509689435505e-05
-3.810303625816688e-05   6.774956877612492e-06   1.1974509689435505e-05
-3.810303625816688e-05   6.774956877612492e-06   1.1974509689435505e-05
-3.810303625816688e-05   6.774956877612492e-06   1.1974509689435505e-05
-4.069638074442379e-05   8.984489492085395e-06   1.4971030931179618e-05
-4.069638074442379e-05   8.984489492085395e-06   1.4971030931179618e-05
-4.069638074442379e-05   8.984489492085395e-06   1.4971030931179618e-05
-4.069638074442379e-05   8.984489492085395e-06   1.4971030931179618e-05
-3.810303625816688e-05   1.0644644377156426e-05   2.7542513182397593e-05
-3.810303625816688e-05   1.0644644377156426e-05   2.7542513182397593e-05
-3.810303625816688e-05   1.0644644377156426e-05   2.7542513182397593e-05
-3.810303625816688e-05   1.0644644377156426e-05   2.7542513182397593e-05
-4.744383835394452e-05   6.774956877612058e-06   9.652697189708877e-06
-4.744383835394452e-05   6.774956877612058e-06   9.652697189708877e-06
-4.744383835394452e-05   6.774956877612058e-06   9.652697189708877e-06
-4.744383835394452e-05   6.774956877612058e-06   9.652697189708877e-06
-4.9120789350372653e-05   1.0110260214644777e-05   2.9707573705350498e-05
-4.9120789350372653e-05   1.0110260214644777e-05   2.9707573705350498e-05
-4.9120789350372653e-05   1.0110260214644777e-05   2.9707573705350498e-05
-4.9120789350372653e-05   1.0110260214644777e-05   2.9707573705350498e-05
-3.881312588023295e-05   6.224488322382517e-06   1.4859597723808696e-05
-3.881312588023295e-05   6.224488322382517e-06   1.4859597723808696e-05
-3.881312588023295e-05   6.224488322382517e-06   1.4859597723808696e-05
-3.881312588023295e-05   6.224488322382517e-06   1.4859597723808696e-05
-4.2346651980516685e-05   8.667055999048677e-06   1.9283267284949746e-05
-4.2346651980516685e-05   8.667055999048677e-06   1.9283267284949746e-05
-4.2346651980516685e-05   8.667055999048677e-06   1.9283267284949746e-05
-4.2346651980516685e-05   8.667055999048677e-06   1.9283267284949746e-05
-3.881312588023295e-05   1.0110260214644777e-05   3.20390368407082e-05
-3.881312588023295e-05   1.0110260214644777e-05   3.20390368407082e-05
-3.881312588023295e-05   1.0110260214644777e-05   3.20390368407082e-05
-3.881312588023295e-05   1.0110260214644777e-05   3.20390368407082e-05
-4.912078935037276e-05   6.224488322382517e-06   1.2528134588451138e-05
-4.912078935037276e-05   6.224488322382517e-06   1.2528134588451138e-05
-4.912078935037276e-05   6.224488322382517e-06   1.2528134588451138e-05
-4.912078935037276e-05   6.224488322382517e-06   1.2528134588451138e-05
-5.125999808578633e-05   8.662193260935026e-06   3.783233828222711e-05
-5.125999808578633e-05   8.662193260935026e-06   3.783233828222711e-05
-5.125999808578633e-05   8.662193260935026e-06   3.783233828222711e-05
-5.125999808578633e-05   8.662193260935026e-06   3.783233828222711e-05
-3.938292605206654e-05   4.9664126411165e-06   2.0254686597918643e-05
-3.938292605206654e-05   4.9664126411165e-06   2.0254686597918643e-05
-3.938292605206654e-05   4.9664126411165e-06   2.0254686597918643e-05
-3.938292605206654e-05   4.9664126411165e-06   2.0254686597918643e-05
-4.28234738154619e-05   8.066510806978896e-06   2.4128873970726732e-05
-4.28234738154619e-05   8.066510806978896e-06   2.4128873970726732e-05
-4.28234738154619e-05   8.066510806978896e-06   2.4128873970726732e-05
-4.28234738154619e-05   8.066510806978896e-06   2.4128873970726732e-05
-1.9192526609305874e-05   3.4637791623878117e-06   2.2171381701119796e-05
-1.9192526609305874e-05   3.4637791623878117e-06   2.2171381701119796e-05
-1.9192526609305874e-05   3.4637791623878117e-06   2.2171381701119796e-05
-1.9192526609305874e-05   3.4637791623878117e-06   2.2171381701119796e-05
-2.074047964172904e-05   6.497118722579567e-06   2.1411463716529628e-05
-2.074047964172904e-05   6.497118722579567e-06   2.1411463716529628e-05
-2.074047964172904e-05   6.497118722579567e-06   2.1411463716529628e-05
-2.074047964172904e-05   6.497118722579567e-06   2.1411463716529628e-05
-2.126140190565089e-05   2.359739017225842e-06   2.3884924229271298e-05
-2.126140190565089e-05   2.359739017225842e-06   2.3884924229271298e-05
-2.126140190565089e-05   2.359739017225842e-06   2.3884924229271298e-05
-2.126140190565089e-05   2.359739017225842e-06   2.3884924229271298e-05
-2.1409343355014598e-05   5.08499766141055e-06   2.2496338125033556e-05
-2.1409343355014598e-05   5.08499766141055e-06   2.2496338125033556e-05
-2.1409343355014598e-05   5.08499766141055e-06   2.2496338125033556e-05
-2.1409343355014598e-05   5.08499766141055e-06   2.2496338125033556e-05
-2.0130551675843963e-05   4.071898469837614e-06   2.0972878174692865e-05
-2.0130551675843963e-05   4.071898469837614e-06   2.0972878174692865e-05
-2.0130551675843963e-05   4.071898469837614e-06   2.0972878174692865e-05
-2.0130551675843963e-05   4.071898469837614e-06   2.0972878174692865e-05
-2.1409343355014652e-05   2.3597390172262755e-06   2.2249769042760256e-05
-2.1409343355014652e-05   2.3597390172262755e-06   2.2249769042760256e-05
-2.1409343355014652e-05   2.3597390172262755e-06   2.2249769042760256e-05
-2.1409343355014652e-05   2.3597390172262755e-06   2.2249769042760256e-05
-2.126140190565089e-05   5.08499766141055e-06   2.413149331154411e-05
-2.126140190565089e-05   5.08499766141055e-06   2.413149331154411e-05
-2.126140190565089e-05   5.08499766141055e-06   2.413149331154411e-05
-2.126140190565089e-05   5.08499766141055e-06   2.413149331154411e-05
-2.1937987073215268e-05   1.748649738143697e-06   2.467971150801483e-05
-2.1937987073215268e-05   1.748649738143697e-06   2.467971150801483e-05
-2.1937987073215268e-05   1.748649738143697e-06   2.467971150801483e-05
-2.1937987073215268e-05   1.748649738143697e-06   2.467971150801483e-05
-2.3562520228309164e-05   4.105246704145084e-06   2.597330858690347e-05
-2.3562520228309164e-05   4.105246704145084e-06   2.597330858690347e-05
-2.3562520228309164e-05   4.105246704145084e-06   2.597330858690347e-05
-2.3562520228309164e-05   4.105246704145084e-06   2.597330858690347e-05
-2.1451404929249902e-05   3.46175675188117e-06   2.2840877059828997e-05
-2.1451404929249902e-05   3.46175675188117e-06   2.2840877059828997e-05
-2.1451404929249902e-05   3.46175675188117e-06   2.2840877059828997e-05
-2.1451404929249902e-05   3.46175675188117e-06   2.2840877059828997e-05
-2.3562520228309245e-05   1.748649738143697e-06   2.32657533284135e-05
-2.3562520228309245e-05   1.748649738143697e-06   2.32657533284135e-05
-2.3562520228309245e-05   1.748649738143697e-06   2.32657533284135e-05
-2.3562520228309245e-05   1.748649738143697e-06   2.32657533284135e-05
-2.1937987073215268e-05   4.105246704145084e-06   2.7387266766504097e-05
-2.1937987073215268e-05   4.105246704145084e-06   2.7387266766504097e-05
-2.1937987073215268e-05   4.105246704145084e-06   2.7387266766504097e-05
-2.1937987073215268e-05   4.105246704145084e-06   2.7387266766504097e-05
-2.2364080257174927e-05   4.493063663975512e-07   2.7193413811236154e-05
-2.2364080257174927e-05   4.493063663975512e-07   2.7193413811236154e-05
-2.2364080257174927e-05   4.493063663975512e-07   2.7193413811236154e-05
-2.2364080257174927e-05   4.493063663975512e-07   2.7193413811236154e-05
-2.5853238723326695e-05   1.6934933985040049e-06   3.2262165702224644e-05
-2.5853238723326695e-05   1.6934933985040049e-06   3.2262165702224644e-05
-2.5853238723326695e-05   1.6934933985040049e-06   3.2262165702224644e-05
-2.5853238723326695e-05   1.6934933985040049e-06   3.2262165702224644e-05
-2.236441710631771e-05   2.7084641867755263e-06   2.5838480534246054e-05
-2.236441710631771e-05   2.7084641867755263e-06   2.5838480534246054e-05
-2.236441710631771e-05   2.7084641867755263e-06   2.5838480534246054e-05
-2.236441710631771e-05   2.7084641867755263e-06   2.5838480534246054e-05
-2.0740479641729005e-05   3.993187666857627e-06   4.438305670103693e-05
-2.0740479641729005e-05   3.993187666857627e-06   4.438305670103693e-05
-2.0740479641729005e-05   3.993187666857627e-06   4.438305670103693e-05
-2.0740479641729005e-05   3.993187666857627e-06   4.438305670103693e-05
-2.087143061013842e-05   1.6794140822982712e-06   4.277654093628558e-05
-2.087143061013842e-05   1.6794140822982712e-06   4.277654093628558e-05
-2.087143061013842e-05   1.6794140822982712e-06   4.277654093628558e-05
-2.087143061013842e-05   1.6794140822982712e-06   4.277654093628558e-05
-2.1025746601374727e-05   2.758447170984977e-06   4.2706799407074385e-05
-2.1025746601374727e-05   2.758447170984977e-06   4.2706799407074385e-05
-2.1025746601374727e-05   2.758447170984977e-06   4.2706799407074385e-05
-2.1025746601374727e-05   2.758447170984977e-06   4.2706799407074385e-05
-2.126140190565089e-05   8.117102506201204e-07   4.4267600399753584e-05
-2.126140190565089e-05   8.117102506201204e-07   4.4267600399753584e-05
-2.126140190565089e-05   8.117102506201204e-07   4.4267600399753584e-05
-2.126140190565089e-05   8.117102506201204e-07   4.4267600399753584e-05
-2.0907226720051507e-05   2.0459185586735665e-06   4.293678343892266e-05
-2.0907226720051507e-05   2.0459185586735665e-06   4.293678343892266e-05
-2.0907226720051507e-05   2.0459185586735665e-06   4.293678343892266e-05
-2.0907226720051507e-05   2.0459185586735665e-06   4.293678343892266e-05
-2.126140190565087e-05   2.758447170984977e-06   4.387484155929269e-05
-2.126140190565087e-05   2.758447170984977e-06   4.387484155929269e-05
-2.126140190565087e-05   2.758447170984977e-06   4.387484155929269e-05
-2.126140190565087e-05   2.758447170984977e-06   4.387484155929269e-05
-2.1025746601374673e-05   8.117102506201204e-07   4.309955824753468e-05
-2.1025746601374673e-05   8.117102506201204e-07   4.309955824753468e-05
-2.1025746601374673e-05   8.117102506201204e-07   4.309955824753468e-05
-2.1025746601374673e-05   8.117102506201204e-07   4.309955824753468e-05
-2.121825881455701e-05   1.6156185198160436e-06   4.3312747960957704e-05
-2.121825881455701e-05   1.6156185198160436e-06   4.3312747960957704e-05
-2.121825881455701e-05   1.6156185198160436e-06   4.3312747960957704e-05
-2.121825881455701e-05   1.6156185198160436e-06   4.3312747960957704e-05
-2.1937987073215268e-05   -2.0033333058915546e-07   4.5601866168963986e-05
-2.1937987073215268e-05   -2.0033333058915546e-07   4.5601866168963986e-05
-2.1937987073215268e-05   -2.0033333058915546e-07   4.5601866168963986e-05
-2.1937987073215268e-05   -2.0033333058915546e-07   4.5601866168963986e-05
-2.1097763005289645e-05   1.323989972301957e-06   4.328689874068611e-05
-2.1097763005289645e-05   1.323989972301957e-06   4.328689874068611e-05
-2.1097763005289645e-05   1.323989972301957e-06   4.328689874068611e-05
-2.1097763005289645e-05   1.323989972301957e-06   4.328689874068611e-05
-2.1937987073215268e-05   1.6156185198160436e-06   4.4402319071199826e-05
-2.1937987073215268e-05   1.6156185198160436e-06   4.4402319071199826e-05
-2.1937987073215268e-05   1.6156185198160436e-06   4.4402319071199826e-05
-2.1937987073215268e-05   1.6156185198160436e-06   4.4402319071199826e-05
-2.1218258814556957e-05   -2.0033333058893862e-07   4.451229505872086e-05
-2.1218258814556957e-05   -2.0033333058893862e-07   4.451229505872086e-05
-2.1218258814556957e-05   -2.0033333058893862e-07   4.451229505872086e-05
-2.1218258814556957e-05   -2.0033333058893862e-07   4.451229505872086e-05
-2.1354497781407578e-05   3.7425972879492897e-07   4.45787729921052e-05
-2.1354497781407578e-05   3.7425972879492897e-07   4.45787729921052e-05
-2.1354497781407578e-05   3.7425972879492897e-07   4.45787729921052e-05
-2.1354497781407578e-05   3.7425972879492897e-07   4.45787729921052e-05
-2.2364080257174893e-05   -1.53386097149588e-06   4.740628287189163e-05
-2.2364080257174893e-05   -1.53386097149588e-06   4.740628287189163e-05
-2.2364080257174893e-05   -1.53386097149588e-06   4.740628287189163e-05
-2.2364080257174893e-05   -1.53386097149588e-06   4.740628287189163e-05
-2.1405072079529715e-05   4.7206642566450727e-07   4.460437947085248e-05
-2.1405072079529715e-05   4.7206642566450727e-07   4.460437947085248e-05
-2.1405072079529715e-05   4.7206642566450727e-07   4.460437947085248e-05
-2.1405072079529715e-05   4.7206642566450727e-07   4.460437947085248e-05
-2.0871430610138473e-05   4.768471238959793e-06   4.896865233401876e-05
-2.0871430610138473e-05   4.768471238959793e-06   4.896865233401876e-05
-2.0871430610138473e-05   4.768471238959793e-06   4.896865233401876e-05
-2.0871430610138473e-05   4.768471238959793e-06   4.896865233401876e-05
-2.2354253120099028e-05   4.6397629475990534e-07   4.391458451756411e-05
-2.2354253120099028e-05   4.6397629475990534e-07   4.391458451756411e-05
-2.2354253120099028e-05   4.6397629475990534e-07   4.391458451756411e-05
-2.2354253120099028e-05   4.6397629475990534e-07   4.391458451756411e-05
-2.2399331337642748e-05   3.6218237781148258e-06   4.646230535448621e-05
-2.2399331337642748e-05   3.6218237781148258e-06   4.646230535448621e-05
-2.2399331337642748e-05   3.6218237781148258e-06   4.646230535448621e-05
-2.2399331337642748e-05   3.6218237781148258e-06   4.646230535448621e-05
-2.1025746601374673e-05   -2.726184968485177e-07   4.650966282568434e-05
-2.1025746601374673e-05   -2.726184968485177e-07   4.650966282568434e-05
-2.1025746601374673e-05   -2.726184968485177e-07   4.650966282568434e-05
-2.1025746601374673e-05   -2.726184968485177e-07   4.650966282568434e-05
-2.1624001113788378e-05   2.07491430308758e-06   4.609823399974531e-05
-2.1624001113788378e-05   2.07491430308758e-06   4.609823399974531e-05
-2.1624001113788378e-05   2.07491430308758e-06   4.609823399974531e-05
-2.1624001113788378e-05   2.07491430308758e-06   4.609823399974531e-05
-2.1025746601374673e-05   3.6218237781148258e-06   4.879897071946408e-05
-2.1025746601374673e-05   3.6218237781148258e-06   4.879897071946408e-05
-2.1025746601374673e-05   3.6218237781148258e-06   4.879897071946408e-05
-2.1025746601374673e-05   3.6218237781148258e-06   4.879897071946408e-05
-2.2399331337642748e-05   -2.7261849684873454e-07   4.417299746070614e-05
-2.2399331337642748e-05   -2.7261849684873454e-07   4.417299746070614e-05
-2.2399331337642748e-05   -2.7261849684873454e-07   4.417299746070614e-05
-2.2399331337642748e-05   -2.7261849684873454e-07   4.417299746070614e-05
-2.248908289011946e-05   2.4561794498977225e-06   4.7201186793055386e-05
-2.248908289011946e-05   2.4561794498977225e-06   4.7201186793055386e-05
-2.248908289011946e-05   2.4561794498977225e-06   4.7201186793055386e-05
-2.248908289011946e-05   2.4561794498977225e-06   4.7201186793055386e-05
-2.121825881455701e-05   -1.1549427150734943e-06   4.724981996610041e-05
-2.121825881455701e-05   -1.1549427150734943e-06   4.724981996610041e-05
-2.121825881455701e-05   -1.1549427150734943e-06   4.724981996610041e-05
-2.121825881455701e-05   -1.1549427150734943e-06   4.724981996610041e-05
-2.1626465145325644e-05   1.3437661186045408e-06   4.643093855050671e-05
-2.1626465145325644e-05   1.3437661186045408e-06   4.643093855050671e-05
-2.1626465145325644e-05   1.3437661186045408e-06   4.643093855050671e-05
-2.1626465145325644e-05   1.3437661186045408e-06   4.643093855050671e-05
-2.121825881455701e-05   2.4561794498977225e-06   4.936786009203755e-05
-2.121825881455701e-05   2.4561794498977225e-06   4.936786009203755e-05
-2.121825881455701e-05   2.4561794498977225e-06   4.936786009203755e-05
-2.121825881455701e-05   2.4561794498977225e-06   4.936786009203755e-05
-2.248908289011935e-05   -1.1549427150734943e-06   4.50831466671177e-05
-2.248908289011935e-05   -1.1549427150734943e-06   4.50831466671177e-05
-2.248908289011935e-05   -1.1549427150734943e-06   4.50831466671177e-05
-2.248908289011935e-05   -1.1549427150734943e-06   4.50831466671177e-05
-2.2542611540094784e-05   1.3499436763660978e-06   4.8514363773896575e-05
-2.2542611540094784e-05   1.3499436763660978e-06   4.8514363773896575e-05
-2.2542611540094784e-05   1.3499436763660978e-06   4.8514363773896575e-05
-2.2542611540094784e-05   1.3499436763660978e-06   4.8514363773896575e-05
-2.1354497781407632e-05   -2.0432167025319706e-06   4.8570070403422733e-05
-2.1354497781407632e-05   -2.0432167025319706e-06   4.8570070403422733e-05
-2.1354497781407632e-05   -2.0432167025319706e-06   4.8570070403422733e-05
-2.1354497781407632e-05   -2.0432167025319706e-06   4.8570070403422733e-05
-2.1664352366129454e-05   5.915846002443881e-07   4.750561392962522e-05
-2.1664352366129454e-05   5.915846002443881e-07   4.750561392962522e-05
-2.1664352366129454e-05   5.915846002443881e-07   4.750561392962522e-05
-2.1664352366129454e-05   5.915846002443881e-07   4.750561392962522e-05
-2.2354253120099028e-05   6.43344404390421e-06   3.9849479524989165e-05
-2.2354253120099028e-05   6.43344404390421e-06   3.9849479524989165e-05
-2.2354253120099028e-05   6.43344404390421e-06   3.9849479524989165e-05
-2.2354253120099028e-05   6.43344404390421e-06   3.9849479524989165e-05
-2.455044556436809e-05   2.1063633328512014e-06   3.3592910357909126e-05
-2.455044556436809e-05   2.1063633328512014e-06   3.3592910357909126e-05
-2.455044556436809e-05   2.1063633328512014e-06   3.3592910357909126e-05
-2.455044556436809e-05   2.1063633328512014e-06   3.3592910357909126e-05
-2.4580626241028827e-05   5.226780117568736e-06   3.762718585053693e-05
-2.4580626241028827e-05   5.226780117568736e-06   3.762718585053693e-05
-2.4580626241028827e-05   5.226780117568736e-06   3.762718585053693e-05
-2.4580626241028827e-05   5.226780117568736e-06   3.762718585053693e-05
-2.2399331337642748e-05   1.1371610951786595e-06   3.644546575832749e-05
-2.2399331337642748e-05   1.1371610951786595e-06   3.644546575832749e-05
-2.2399331337642748e-05   1.1371610951786595e-06   3.644546575832749e-05
-2.2399331337642748e-05   1.1371610951786595e-06   3.644546575832749e-05
-2.3409521494863466e-05   3.817316836191541e-06   3.652102257575428e-05
-2.3409521494863466e-05   3.817316836191541e-06   3.652102257575428e-05
-2.3409521494863466e-05   3.817316836191541e-06   3.652102257575428e-05
-2.3409521494863466e-05   3.817316836191541e-06   3.652102257575428e-05
-2.2399331337642748e-05   5.226780117568736e-06   4.008095726397063e-05
-2.2399331337642748e-05   5.226780117568736e-06   4.008095726397063e-05
-2.2399331337642748e-05   5.226780117568736e-06   4.008095726397063e-05
-2.2399331337642748e-05   5.226780117568736e-06   4.008095726397063e-05
-2.4580626241028827e-05   1.1371610951788763e-06   3.3991694344893505e-05
-2.4580626241028827e-05   1.1371610951788763e-06   3.3991694344893505e-05
-2.4580626241028827e-05   1.1371610951788763e-06   3.3991694344893505e-05
-2.4580626241028827e-05   1.1371610951788763e-06   3.3991694344893505e-05
-2.4838938431252745e-05   4.154536037934663e-06   3.902727831441065e-05
-2.4838938431252745e-05   4.154536037934663e-06   3.902727831441065e-05
-2.4838938431252745e-05   4.154536037934663e-06   3.902727831441065e-05
-2.4838938431252745e-05   4.154536037934663e-06   3.902727831441065e-05
-2.248908289011946e-05   3.079605937960847e-07   3.741879767900488e-05
-2.248908289011946e-05   3.079605937960847e-07   3.741879767900488e-05
-2.248908289011946e-05   3.079605937960847e-07   3.741879767900488e-05
-2.248908289011946e-05   3.079605937960847e-07   3.741879767900488e-05
-2.333356982052009e-05   3.0193559977622405e-06   3.7199438653957905e-05
-2.333356982052009e-05   3.0193559977622405e-06   3.7199438653957905e-05
-2.333356982052009e-05   3.0193559977622405e-06   3.7199438653957905e-05
-2.333356982052009e-05   3.0193559977622405e-06   3.7199438653957905e-05
-2.248908289011935e-05   4.154536037934663e-06   4.133522358089293e-05
-2.248908289011935e-05   4.154536037934663e-06   4.133522358089293e-05
-2.248908289011935e-05   4.154536037934663e-06   4.133522358089293e-05
-2.248908289011935e-05   4.154536037934663e-06   4.133522358089293e-05
-2.4838938431252745e-05   3.0796059379586786e-07   3.51108524125218e-05
-2.4838938431252745e-05   3.0796059379586786e-07   3.51108524125218e-05
-2.4838938431252745e-05   3.0796059379586786e-07   3.51108524125218e-05
-2.4838938431252745e-05   3.0796059379586786e-07   3.51108524125218e-05
-2.4990160687618067e-05   3.063565840589859e-06   4.076923041830159e-05
-2.4990160687618067e-05   3.063565840589859e-06   4.076923041830159e-05
-2.4990160687618067e-05   3.063565840589859e-06   4.076923041830159e-05
-2.4990160687618067e-05   3.063565840589859e-06   4.076923041830159e-05
-2.2542611540094784e-05   -5.274621159845339e-07   3.884459861304044e-05
-2.2542611540094784e-05   -5.274621159845339e-07   3.884459861304044e-05
-2.2542611540094784e-05   -5.274621159845339e-07   3.884459861304044e-05
-2.2542611540094784e-05   -5.274621159845339e-07   3.884459861304044e-05
-2.3440904988518592e-05   2.307621080573259e-06   3.8640704442477816e-05
-2.3440904988518592e-05   2.307621080573259e-06   3.8640704442477816e-05
-2.3440904988518592e-05   2.307621080573259e-06   3.8640704442477816e-05
-2.3440904988518592e-05   2.307621080573259e-06   3.8640704442477816e-05
-2.455044556436798e-05   7.578247117965252e-06   1.5253166016895338e-05
-2.455044556436798e-05   7.578247117965252e-06   1.5253166016895338e-05
-2.455044556436798e-05   7.578247117965252e-06   1.5253166016895338e-05
-2.455044556436798e-05   7.578247117965252e-06   1.5253166016895338e-05
-2.4103970612418925e-05   3.454819546905557e-06   1.3523234394174411e-05
-2.4103970612418925e-05   3.454819546905557e-06   1.3523234394174411e-05
-2.4103970612418925e-05   3.454819546905557e-06   1.3523234394174411e-05
-2.4103970612418925e-05   3.454819546905557e-06   1.3523234394174411e-05
-2.5342741811442923e-05   6.774956877612492e-06   1.6703232254527533e-05
-2.5342741811442923e-05   6.774956877612492e-06   1.6703232254527533e-05
-2.5342741811442923e-05   6.774956877612492e-06   1.6703232254527533e-05
-2.5342741811442923e-05   6.774956877612492e-06   1.6703232254527533e-05
-2.4580626241028718e-05   2.771050676645759e-06   1.783538335775039e-05
-2.4580626241028718e-05   2.771050676645759e-06   1.783538335775039e-05
-2.4580626241028718e-05   2.771050676645759e-06   1.783538335775039e-05
-2.4580626241028718e-05   2.771050676645759e-06   1.783538335775039e-05
-2.3845138940395308e-05   5.3253940082876195e-06   1.507696519104291e-05
-2.3845138940395308e-05   5.3253940082876195e-06   1.507696519104291e-05
-2.3845138940395308e-05   5.3253940082876195e-06   1.507696519104291e-05
-2.3845138940395308e-05   5.3253940082876195e-06   1.507696519104291e-05
-2.458062624102861e-05   6.774956877612492e-06   1.910557597510675e-05
-2.458062624102861e-05   6.774956877612492e-06   1.910557597510675e-05
-2.458062624102861e-05   6.774956877612492e-06   1.910557597510675e-05
-2.458062624102861e-05   6.774956877612492e-06   1.910557597510675e-05
-2.5342741811442923e-05   2.771050676645759e-06   1.5433039637170526e-05
-2.5342741811442923e-05   2.771050676645759e-06   1.5433039637170526e-05
-2.5342741811442923e-05   2.771050676645759e-06   1.5433039637170526e-05
-2.5342741811442923e-05   2.771050676645759e-06   1.5433039637170526e-05
-2.6431577433151687e-05   6.224488322382083e-06   1.9819240571755138e-05
-2.6431577433151687e-05   6.224488322382083e-06   1.9819240571755138e-05
-2.6431577433151687e-05   6.224488322382083e-06   1.9819240571755138e-05
-2.6431577433151687e-05   6.224488322382083e-06   1.9819240571755138e-05
-2.4838938431252637e-05   2.323413695650041e-06   1.9505487011295397e-05
-2.4838938431252637e-05   2.323413695650041e-06   1.9505487011295397e-05
-2.4838938431252637e-05   2.323413695650041e-06   1.9505487011295397e-05
-2.4838938431252637e-05   2.323413695650041e-06   1.9505487011295397e-05
-2.4724271700518315e-05   4.9226927178365205e-06   1.775480838009185e-05
-2.4724271700518315e-05   4.9226927178365205e-06   1.775480838009185e-05
-2.4724271700518315e-05   4.9226927178365205e-06   1.775480838009185e-05
-2.4724271700518315e-05   4.9226927178365205e-06   1.775480838009185e-05
-2.4838938431252637e-05   6.224488322382517e-06   2.2159885347793453e-05
-2.4838938431252637e-05   6.224488322382517e-06   2.2159885347793453e-05
-2.4838938431252637e-05   6.224488322382517e-06   2.2159885347793453e-05
-2.4838938431252637e-05   6.224488322382517e-06   2.2159885347793453e-05
-2.6431577433151904e-05   2.3234136956502578e-06   1.716484223525578e-05
-2.6431577433151904e-05   2.3234136956502578e-06   1.716484223525578e-05
-2.6431577433151904e-05   2.3234136956502578e-06   1.716484223525578e-05
-2.6431577433151904e-05   2.3234136956502578e-06   1.716484223525578e-05
-2.805913167779528e-05   4.9664126411165e-06   2.5545135838929596e-05
-2.805913167779528e-05   4.9664126411165e-06   2.5545135838929596e-05
-2.805913167779528e-05   4.9664126411165e-06   2.5545135838929596e-05
-2.805913167779528e-05   4.9664126411165e-06   2.5545135838929596e-05
-2.4990160687618067e-05   1.4293150342582859e-06   2.255244275274908e-05
-2.4990160687618067e-05   1.4293150342582859e-06   2.255244275274908e-05
-2.4990160687618067e-05   1.4293150342582859e-06   2.255244275274908e-05
-2.4990160687618067e-05   1.4293150342582859e-06   2.255244275274908e-05
-2.502065116876626e-05   4.44875954170058e-06   2.0791593516861348e-05
-2.502065116876626e-05   4.44875954170058e-06   2.0791593516861348e-05
-2.502065116876626e-05   4.44875954170058e-06   2.0791593516861348e-05
-2.502065116876626e-05   4.44875954170058e-06   2.0791593516861348e-05
-4.908890779973618e-05   6.497118722579784e-06   1.8453721716938688e-05
-4.908890779973618e-05   6.497118722579784e-06   1.8453721716938688e-05
-4.908890779973618e-05   6.497118722579784e-06   1.8453721716938688e-05
-4.908890779973618e-05   6.497118722579784e-06   1.8453721716938688e-05
-3.301908396195782e-05   9.01138088426907e-06   4.674531874358312e-05
-3.301908396195782e-05   9.01138088426907e-06   4.674531874358312e-05
-3.301908396195782e-05   9.01138088426907e-06   4.674531874358312e-05
-3.301908396195782e-05   9.01138088426907e-06   4.674531874358312e-05
-3.299478298997508e-05   5.08499766141055e-06   2.107748045385117e-05
-3.299478298997508e-05   5.08499766141055e-06   2.107748045385117e-05
-3.299478298997508e-05   5.08499766141055e-06   2.107748045385117e-05
-3.299478298997508e-05   5.08499766141055e-06   2.107748045385117e-05
-5.4003232731146994e-05   3.712154352451943e-06   5.6915269341179886e-05
-5.4003232731146994e-05   3.712154352451943e-06   5.6915269341179886e-05
-5.4003232731146994e-05   3.712154352451943e-06   5.6915269341179886e-05
-5.4003232731146994e-05   3.712154352451943e-06   5.6915269341179886e-05
-4.009748557232785e-05   5.354302076845258e-06   3.2753735441845284e-05
-4.009748557232785e-05   5.354302076845258e-06   3.2753735441845284e-05
-4.009748557232785e-05   5.354302076845258e-06   3.2753735441845284e-05
-4.009748557232785e-05   5.354302076845258e-06   3.2753735441845284e-05
-5.4003232731147076e-05   5.08499766141055e-06   2.1901186439226422e-05
-5.4003232731147076e-05   5.08499766141055e-06   2.1901186439226422e-05
-5.4003232731147076e-05   5.08499766141055e-06   2.1901186439226422e-05
-5.4003232731147076e-05   5.08499766141055e-06   2.1901186439226422e-05
-3.299478298997508e-05   3.712154352451943e-06   5.609156335580469e-05
-3.299478298997508e-05   3.712154352451943e-06   5.609156335580469e-05
-3.299478298997508e-05   3.712154352451943e-06   5.609156335580469e-05
-3.299478298997508e-05   3.712154352451943e-06   5.609156335580469e-05
-3.3423248802721394e-05   4.105246704145084e-06   2.363016654244386e-05
-3.3423248802721394e-05   4.105246704145084e-06   2.363016654244386e-05
-3.3423248802721394e-05   4.105246704145084e-06   2.363016654244386e-05
-3.3423248802721394e-05   4.105246704145084e-06   2.363016654244386e-05
-5.417368612999261e-05   2.685627700658587e-06   5.90660001566541e-05
-5.417368612999261e-05   2.685627700658587e-06   5.90660001566541e-05
-5.417368612999261e-05   2.685627700658587e-06   5.90660001566541e-05
-5.417368612999261e-05   2.685627700658587e-06   5.90660001566541e-05
-4.2752684629204064e-05   3.3677274417630732e-06   3.962173781067686e-05
-4.2752684629204064e-05   3.3677274417630732e-06   3.962173781067686e-05
-4.2752684629204064e-05   3.3677274417630732e-06   3.962173781067686e-05
-4.2752684629204064e-05   3.3677274417630732e-06   3.962173781067686e-05
-5.4173686129992704e-05   4.105246704145084e-06   2.448193794453565e-05
-5.4173686129992704e-05   4.105246704145084e-06   2.448193794453565e-05
-5.4173686129992704e-05   4.105246704145084e-06   2.448193794453565e-05
-5.4173686129992704e-05   4.105246704145084e-06   2.448193794453565e-05
-3.342324880272134e-05   2.685627700658587e-06   5.821422875456239e-05
-3.342324880272134e-05   2.685627700658587e-06   5.821422875456239e-05
-3.342324880272134e-05   2.685627700658587e-06   5.821422875456239e-05
-3.342324880272134e-05   2.685627700658587e-06   5.821422875456239e-05
-3.304515793926813e-05   1.6934933985040049e-06   2.809925531645544e-05
-3.304515793926813e-05   1.6934933985040049e-06   2.809925531645544e-05
-3.304515793926813e-05   1.6934933985040049e-06   2.809925531645544e-05
-3.304515793926813e-05   1.6934933985040049e-06   2.809925531645544e-05
-5.472616737209916e-05   -1.666885421949078e-06   6.625049833011219e-05
-5.472616737209916e-05   -1.666885421949078e-06   6.625049833011219e-05
-5.472616737209916e-05   -1.666885421949078e-06   6.625049833011219e-05
-5.472616737209916e-05   -1.666885421949078e-06   6.625049833011219e-05
-4.2078226242677146e-05   1.6604795502763413e-06   4.3174177464406984e-05
-4.2078226242677146e-05   1.6604795502763413e-06   4.3174177464406984e-05
-4.2078226242677146e-05   1.6604795502763413e-06   4.3174177464406984e-05
-4.2078226242677146e-05   1.6604795502763413e-06   4.3174177464406984e-05
-3.301908396195787e-05   1.6794140822982712e-06   4.271562038444404e-05
-3.301908396195787e-05   1.6794140822982712e-06   4.271562038444404e-05
-3.301908396195787e-05   1.6794140822982712e-06   4.271562038444404e-05
-3.301908396195787e-05   1.6794140822982712e-06   4.271562038444404e-05
-2.0201752146674064e-05   -9.977762417147091e-06   5.70835341769166e-05
-2.0201752146674064e-05   -9.977762417147091e-06   5.70835341769166e-05
-2.0201752146674064e-05   -9.977762417147091e-06   5.70835341769166e-05
-2.0201752146674064e-05   -9.977762417147091e-06   5.70835341769166e-05
-2.022896548048626e-05   8.117102506203372e-07   3.583511192320357e-05
-2.022896548048626e-05   8.117102506203372e-07   3.583511192320357e-05
-2.022896548048626e-05   8.117102506203372e-07   3.583511192320357e-05
-2.022896548048626e-05   8.117102506203372e-07   3.583511192320357e-05
-3.299478298997508e-05   -8.152415780808423e-06   6.248995005787576e-05
-3.299478298997508e-05   -8.152415780808423e-06   6.248995005787576e-05
-3.299478298997508e-05   -8.152415780808423e-06   6.248995005787576e-05
-3.299478298997508e-05   -8.152415780808423e-06   6.248995005787576e-05
-2.6464835183378852e-05   -4.930388045249574e-06   4.9673487072213586e-05
-2.6464835183378852e-05   -4.930388045249574e-06   4.9673487072213586e-05
-2.6464835183378852e-05   -4.930388045249574e-06   4.9673487072213586e-05
-2.6464835183378852e-05   -4.930388045249574e-06   4.9673487072213586e-05
-3.2994782989975106e-05   8.117102506203372e-07   4.121358754206048e-05
-3.2994782989975106e-05   8.117102506203372e-07   4.121358754206048e-05
-3.2994782989975106e-05   8.117102506203372e-07   4.121358754206048e-05
-3.2994782989975106e-05   8.117102506203372e-07   4.121358754206048e-05
-2.0228965480486205e-05   -8.152415780808423e-06   5.7111474439018524e-05
-2.0228965480486205e-05   -8.152415780808423e-06   5.7111474439018524e-05
-2.0228965480486205e-05   -8.152415780808423e-06   5.7111474439018524e-05
-2.0228965480486205e-05   -8.152415780808423e-06   5.7111474439018524e-05
-2.0288931331257807e-05   -2.0033333058915546e-07   3.695904369889198e-05
-2.0288931331257807e-05   -2.0033333058915546e-07   3.695904369889198e-05
-2.0288931331257807e-05   -2.0033333058915546e-07   3.695904369889198e-05
-2.0288931331257807e-05   -2.0033333058915546e-07   3.695904369889198e-05
-3.342324880272134e-05   -8.343203740608109e-06   6.373529506400907e-05
-3.342324880272134e-05   -8.343203740608109e-06   6.373529506400907e-05
-3.342324880272134e-05   -8.343203740608109e-06   6.373529506400907e-05
-3.342324880272134e-05   -8.343203740608109e-06   6.373529506400907e-05
-2.6257753328611144e-05   -4.3067198315295974e-06   4.937091226171129e-05
-2.6257753328611144e-05   -4.3067198315295974e-06   4.937091226171129e-05
-2.6257753328611144e-05   -4.3067198315295974e-06   4.937091226171129e-05
-2.6257753328611144e-05   -4.3067198315295974e-06   4.937091226171129e-05
-3.3423248802721394e-05   -2.0033333058915546e-07   4.18447659449034e-05
-3.3423248802721394e-05   -2.0033333058915546e-07   4.18447659449034e-05
-3.3423248802721394e-05   -2.0033333058915546e-07   4.18447659449034e-05
-3.3423248802721394e-05   -2.0033333058915546e-07   4.18447659449034e-05
-2.0288931331257807e-05   -8.343203740608109e-06   5.8849572817997576e-05
-2.0288931331257807e-05   -8.343203740608109e-06   5.8849572817997576e-05
-2.0288931331257807e-05   -8.343203740608109e-06   5.8849572817997576e-05
-2.0288931331257807e-05   -8.343203740608109e-06   5.8849572817997576e-05
-2.0067500682333832e-05   -1.53386097149588e-06   3.8355893185203866e-05
-2.0067500682333832e-05   -1.53386097149588e-06   3.8355893185203866e-05
-2.0067500682333832e-05   -1.53386097149588e-06   3.8355893185203866e-05
-2.0067500682333832e-05   -1.53386097149588e-06   3.8355893185203866e-05
-3.304515793926805e-05   -8.435472774253336e-06   6.412628902841507e-05
-3.304515793926805e-05   -8.435472774253336e-06   6.412628902841507e-05
-3.304515793926805e-05   -8.435472774253336e-06   6.412628902841507e-05
-3.304515793926805e-05   -8.435472774253336e-06   6.412628902841507e-05
-2.635927728619136e-05   -4.846984051726146e-06   5.083006137310438e-05
-2.635927728619136e-05   -4.846984051726146e-06   5.083006137310438e-05
-2.635927728619136e-05   -4.846984051726146e-06   5.083006137310438e-05
-2.635927728619136e-05   -4.846984051726146e-06   5.083006137310438e-05
-2.0201752146674064e-05   4.639762947596885e-07   3.9442055032575495e-05
-2.0201752146674064e-05   4.639762947596885e-07   3.9442055032575495e-05
-2.0201752146674064e-05   4.639762947596885e-07   3.9442055032575495e-05
-2.0201752146674064e-05   4.639762947596885e-07   3.9442055032575495e-05
-1.479835254010616e-05   -7.792646185783981e-06   4.349374755519592e-05
-1.479835254010616e-05   -7.792646185783981e-06   4.349374755519592e-05
-1.479835254010616e-05   -7.792646185783981e-06   4.349374755519592e-05
-1.479835254010616e-05   -7.792646185783981e-06   4.349374755519592e-05
-1.4650985614050285e-05   -2.726184968485177e-07   3.481686385070366e-05
-1.4650985614050285e-05   -2.726184968485177e-07   3.481686385070366e-05
-1.4650985614050285e-05   -2.726184968485177e-07   3.481686385070366e-05
-1.4650985614050285e-05   -2.726184968485177e-07   3.481686385070366e-05
-2.0228965480486205e-05   -7.653206247931104e-06   4.854184961208005e-05
-2.0228965480486205e-05   -7.653206247931104e-06   4.854184961208005e-05
-2.0228965480486205e-05   -7.653206247931104e-06   4.854184961208005e-05
-2.0228965480486205e-05   -7.653206247931104e-06   4.854184961208005e-05
-1.7360370133413702e-05   -3.94197693857185e-06   4.153411978134378e-05
-1.7360370133413702e-05   -3.94197693857185e-06   4.153411978134378e-05
-1.7360370133413702e-05   -3.94197693857185e-06   4.153411978134378e-05
-1.7360370133413702e-05   -3.94197693857185e-06   4.153411978134378e-05
-2.0228965480486205e-05   -2.726184968485177e-07   3.924521650135301e-05
-2.0228965480486205e-05   -2.726184968485177e-07   3.924521650135301e-05
-2.0228965480486205e-05   -2.726184968485177e-07   3.924521650135301e-05
-2.0228965480486205e-05   -2.726184968485177e-07   3.924521650135301e-05
-1.4650985614050285e-05   -7.653206247931104e-06   4.411349696143049e-05
-1.4650985614050285e-05   -7.653206247931104e-06   4.411349696143049e-05
-1.4650985614050285e-05   -7.653206247931104e-06   4.411349696143049e-05
-1.4650985614050285e-05   -7.653206247931104e-06   4.411349696143049e-05
-1.4519472718322766e-05   -1.1549427150734943e-06   3.5655356305430144e-05
-1.4519472718322766e-05   -1.1549427150734943e-06   3.5655356305430144e-05
-1.4519472718322766e-05   -1.1549427150734943e-06   3.5655356305430144e-05
-1.4519472718322766e-05   -1.1549427150734943e-06   3.5655356305430144e-05
-2.0288931331257807e-05   -7.890296549809103e-06   4.931233296116301e-05
-2.0288931331257807e-05   -7.890296549809103e-06   4.931233296116301e-05
-2.0288931331257807e-05   -7.890296549809103e-06   4.931233296116301e-05
-2.0288931331257807e-05   -7.890296549809103e-06   4.931233296116301e-05
-1.7191889168630277e-05   -4.211802799159673e-06   4.1943499773059866e-05
-1.7191889168630277e-05   -4.211802799159673e-06   4.1943499773059866e-05
-1.7191889168630277e-05   -4.211802799159673e-06   4.1943499773059866e-05
-1.7191889168630277e-05   -4.211802799159673e-06   4.1943499773059866e-05
-2.0288931331257807e-05   -1.1549427150734943e-06   3.969656860627153e-05
-2.0288931331257807e-05   -1.1549427150734943e-06   3.969656860627153e-05
-2.0288931331257807e-05   -1.1549427150734943e-06   3.969656860627153e-05
-2.0288931331257807e-05   -1.1549427150734943e-06   3.969656860627153e-05
-1.4519472718322766e-05   -7.890296549809212e-06   4.52711206603218e-05
-1.4519472718322766e-05   -7.890296549809212e-06   4.52711206603218e-05
-1.4519472718322766e-05   -7.890296549809212e-06   4.52711206603218e-05
-1.4519472718322766e-05   -7.890296549809212e-06   4.52711206603218e-05
-1.4213515698635929e-05   -2.0432167025319706e-06   3.695144161749704e-05
-1.4213515698635929e-05   -2.0432167025319706e-06   3.695144161749704e-05
-1.4213515698635929e-05   -2.0432167025319706e-06   3.695144161749704e-05
-1.4213515698635929e-05   -2.0432167025319706e-06   3.695144161749704e-05
-2.0067500682333832e-05   -8.231735901552623e-06   5.042119477640587e-05
-2.0067500682333832e-05   -8.231735901552623e-06   5.042119477640587e-05
-2.0067500682333832e-05   -8.231735901552623e-06   5.042119477640587e-05
-2.0067500682333832e-05   -8.231735901552623e-06   5.042119477640587e-05
-1.6993785545312722e-05   -4.6017910039872646e-06   4.312036927616499e-05
-1.6993785545312722e-05   -4.6017910039872646e-06   4.312036927616499e-05
-1.6993785545312722e-05   -4.6017910039872646e-06   4.312036927616499e-05
-1.6993785545312722e-05   -4.6017910039872646e-06   4.312036927616499e-05
-1.479835254010616e-05   2.1063633328512014e-06   2.6762655811226016e-05
-1.479835254010616e-05   2.1063633328512014e-06   2.6762655811226016e-05
-1.479835254010616e-05   2.1063633328512014e-06   2.6762655811226016e-05
-1.479835254010616e-05   2.1063633328512014e-06   2.6762655811226016e-05
-1.2262807093310884e-05   -3.1911298133953207e-06   2.781006900147014e-05
-1.2262807093310884e-05   -3.1911298133953207e-06   2.781006900147014e-05
-1.2262807093310884e-05   -3.1911298133953207e-06   2.781006900147014e-05
-1.2262807093310884e-05   -3.1911298133953207e-06   2.781006900147014e-05
-1.1981978777057551e-05   1.1371610951786595e-06   2.416209631701978e-05
-1.1981978777057551e-05   1.1371610951786595e-06   2.416209631701978e-05
-1.1981978777057551e-05   1.1371610951786595e-06   2.416209631701978e-05
-1.1981978777057551e-05   1.1371610951786595e-06   2.416209631701978e-05
-1.4650985614050285e-05   -3.7415652903296593e-06   3.1537676876646414e-05
-1.4650985614050285e-05   -3.7415652903296593e-06   3.1537676876646414e-05
-1.4650985614050285e-05   -3.7415652903296593e-06   3.1537676876646414e-05
-1.4650985614050285e-05   -3.7415652903296593e-06   3.1537676876646414e-05
-1.3324798702439957e-05   -7.269455759948296e-07   2.7518593528695406e-05
-1.3324798702439957e-05   -7.269455759948296e-07   2.7518593528695406e-05
-1.3324798702439957e-05   -7.269455759948296e-07   2.7518593528695406e-05
-1.3324798702439957e-05   -7.269455759948296e-07   2.7518593528695406e-05
-1.4650985614050285e-05   1.1371610951786595e-06   2.7089332148324792e-05
-1.4650985614050285e-05   1.1371610951786595e-06   2.7089332148324792e-05
-1.4650985614050285e-05   1.1371610951786595e-06   2.7089332148324792e-05
-1.4650985614050285e-05   1.1371610951786595e-06   2.7089332148324792e-05
-1.1981978777057551e-05   -3.7415652903296593e-06   2.861044104534124e-05
-1.1981978777057551e-05   -3.7415652903296593e-06   2.861044104534124e-05
-1.1981978777057551e-05   -3.7415652903296593e-06   2.861044104534124e-05
-1.1981978777057551e-05   -3.7415652903296593e-06   2.861044104534124e-05
-1.184537735954283e-05   3.0796059379586786e-07   2.53092912923282e-05
-1.184537735954283e-05   3.0796059379586786e-07   2.53092912923282e-05
-1.184537735954283e-05   3.0796059379586786e-07   2.53092912923282e-05
-1.184537735954283e-05   3.0796059379586786e-07   2.53092912923282e-05
-1.4519472718322658e-05   -4.16156611451955e-06   3.244783291528352e-05
-1.4519472718322658e-05   -4.16156611451955e-06   3.244783291528352e-05
-1.4519472718322658e-05   -4.16156611451955e-06   3.244783291528352e-05
-1.4519472718322658e-05   -4.16156611451955e-06   3.244783291528352e-05
-1.3046896741742559e-05   -1.3199308273278195e-06   2.8288558448667095e-05
-1.3046896741742559e-05   -1.3199308273278195e-06   2.8288558448667095e-05
-1.3046896741742559e-05   -1.3199308273278195e-06   2.8288558448667095e-05
-1.3046896741742559e-05   -1.3199308273278195e-06   2.8288558448667095e-05
-1.4519472718322766e-05   3.0796059379586786e-07   2.7991007317317105e-05
-1.4519472718322766e-05   3.0796059379586786e-07   2.7991007317317105e-05
-1.4519472718322766e-05   3.0796059379586786e-07   2.7991007317317105e-05
-1.4519472718322766e-05   3.0796059379586786e-07   2.7991007317317105e-05
-1.184537735954283e-05   -4.161566114519442e-06   2.9766116890294454e-05
-1.184537735954283e-05   -4.161566114519442e-06   2.9766116890294454e-05
-1.184537735954283e-05   -4.161566114519442e-06   2.9766116890294454e-05
-1.184537735954283e-05   -4.161566114519442e-06   2.9766116890294454e-05
-1.1630804370515177e-05   -5.274621159845339e-07   2.6749991482845218e-05
-1.1630804370515177e-05   -5.274621159845339e-07   2.6749991482845218e-05
-1.1630804370515177e-05   -5.274621159845339e-07   2.6749991482845218e-05
-1.1630804370515177e-05   -5.274621159845339e-07   2.6749991482845218e-05
-1.4213515698635929e-05   -4.713919735331454e-06   3.35663849346542e-05
-1.4213515698635929e-05   -4.713919735331454e-06   3.35663849346542e-05
-1.4213515698635929e-05   -4.713919735331454e-06   3.35663849346542e-05
-1.4213515698635929e-05   -4.713919735331454e-06   3.35663849346542e-05
-1.28252685472638e-05   -1.838013948584575e-06   2.9527096210320205e-05
-1.28252685472638e-05   -1.838013948584575e-06   2.9527096210320205e-05
-1.28252685472638e-05   -1.838013948584575e-06   2.9527096210320205e-05
-1.28252685472638e-05   -1.838013948584575e-06   2.9527096210320205e-05
-1.2262807093310884e-05   3.454819546905557e-06   5.988540502379356e-06
-1.2262807093310884e-05   3.454819546905557e-06   5.988540502379356e-06
-1.2262807093310884e-05   3.454819546905557e-06   5.988540502379356e-06
-1.2262807093310884e-05   3.454819546905557e-06   5.988540502379356e-06
-6.975598403093021e-06   -3.6761949870887413e-07   1.2507091558707373e-05
-6.975598403093021e-06   -3.6761949870887413e-07   1.2507091558707373e-05
-6.975598403093021e-06   -3.6761949870887413e-07   1.2507091558707373e-05
-6.975598403093021e-06   -3.6761949870887413e-07   1.2507091558707373e-05
-7.3581162059462935e-06   2.771050676645759e-06   6.038267714675825e-06
-7.3581162059462935e-06   2.771050676645759e-06   6.038267714675825e-06
-7.3581162059462935e-06   2.771050676645759e-06   6.038267714675825e-06
-7.3581162059462935e-06   2.771050676645759e-06   6.038267714675825e-06
-1.1981978777057551e-05   -5.081453486892231e-07   1.5712222948395397e-05
-1.1981978777057551e-05   -5.081453486892231e-07   1.5712222948395397e-05
-1.1981978777057551e-05   -5.081453486892231e-07   1.5712222948395397e-05
-1.1981978777057551e-05   -5.081453486892231e-07   1.5712222948395397e-05
-9.313302163300075e-06   1.773375882221451e-06   9.895515853587493e-06
-9.313302163300075e-06   1.773375882221451e-06   9.895515853587493e-06
-9.313302163300075e-06   1.773375882221451e-06   9.895515853587493e-06
-9.313302163300075e-06   1.773375882221451e-06   9.895515853587493e-06
-1.1981978777057551e-05   2.771050676645759e-06   8.005785329876273e-06
-1.1981978777057551e-05   2.771050676645759e-06   8.005785329876273e-06
-1.1981978777057551e-05   2.771050676645759e-06   8.005785329876273e-06
-1.1981978777057551e-05   2.771050676645759e-06   8.005785329876273e-06
-7.358116205946402e-06   -5.081453486892231e-07   1.3744705333194624e-05
-7.358116205946402e-06   -5.081453486892231e-07   1.3744705333194624e-05
-7.358116205946402e-06   -5.081453486892231e-07   1.3744705333194624e-05
-7.358116205946402e-06   -5.081453486892231e-07   1.3744705333194624e-05
-7.669828280835599e-06   2.323413695650041e-06   7.889970991466124e-06
-7.669828280835599e-06   2.323413695650041e-06   7.889970991466124e-06
-7.669828280835599e-06   2.323413695650041e-06   7.889970991466124e-06
-7.669828280835599e-06   2.323413695650041e-06   7.889970991466124e-06
-1.184537735954283e-05   -6.99844470409129e-07   1.6663174355613592e-05
-1.184537735954283e-05   -6.99844470409129e-07   1.6663174355613592e-05
-1.184537735954283e-05   -6.99844470409129e-07   1.6663174355613592e-05
-1.184537735954283e-05   -6.99844470409129e-07   1.6663174355613592e-05
-9.459335108117056e-06   1.4324746240572828e-06   1.1407045813223177e-05
-9.459335108117056e-06   1.4324746240572828e-06   1.1407045813223177e-05
-9.459335108117056e-06   1.4324746240572828e-06   1.1407045813223177e-05
-9.459335108117056e-06   1.4324746240572828e-06   1.1407045813223177e-05
-1.184537735954283e-05   2.3234136956502578e-06   9.703925891101865e-06
-1.184537735954283e-05   2.3234136956502578e-06   9.703925891101865e-06
-1.184537735954283e-05   2.3234136956502578e-06   9.703925891101865e-06
-1.184537735954283e-05   2.3234136956502578e-06   9.703925891101865e-06
-7.669828280835599e-06   -6.998444704092374e-07   1.4849219455978068e-05
-7.669828280835599e-06   -6.998444704092374e-07   1.4849219455978068e-05
-7.669828280835599e-06   -6.998444704092374e-07   1.4849219455978068e-05
-7.669828280835599e-06   -6.998444704092374e-07   1.4849219455978068e-05
-8.466764422765697e-06   1.4293150342582859e-06   1.1198362317907471e-05
-8.466764422765697e-06   1.4293150342582859e-06   1.1198362317907471e-05
-8.466764422765697e-06   1.4293150342582859e-06   1.1198362317907471e-05
-8.466764422765697e-06   1.4293150342582859e-06   1.1198362317907471e-05
-1.1630804370515177e-05   -9.275017633938142e-07   1.7885852309414054e-05
-1.1630804370515177e-05   -9.275017633938142e-07   1.7885852309414054e-05
-1.1630804370515177e-05   -9.275017633938142e-07   1.7885852309414054e-05
-1.1630804370515177e-05   -9.275017633938142e-07   1.7885852309414054e-05
-9.465852999535594e-06   1.204456132795689e-06   1.299842528673439e-05
-9.465852999535594e-06   1.204456132795689e-06   1.299842528673439e-05
-9.465852999535594e-06   1.204456132795689e-06   1.299842528673439e-05
-9.465852999535594e-06   1.204456132795689e-06   1.299842528673439e-05
-0.00011430692710570322   9.01138088426907e-06   4.8166818268729724e-05
-0.00011430692710570322   9.01138088426907e-06   4.8166818268729724e-05
-0.00011430692710570322   9.01138088426907e-06   4.8166818268729724e-05
-0.00011430692710570322   9.01138088426907e-06   4.8166818268729724e-05
-2.6966434159688438e-05   -5.4854748303014e-05   0.0001554146289997179
-2.6966434159688438e-05   -5.4854748303014e-05   0.0001554146289997179
-2.6966434159688438e-05   -5.4854748303014e-05   0.0001554146289997179
-2.6966434159688438e-05   -5.4854748303014e-05   0.0001554146289997179
-3.1587330067133816e-05   3.712154352451943e-06   2.6522459274706442e-05
-3.1587330067133816e-05   3.712154352451943e-06   2.6522459274706442e-05
-3.1587330067133816e-05   3.712154352451943e-06   2.6522459274706442e-05
-3.1587330067133816e-05   3.712154352451943e-06   2.6522459274706442e-05
-0.00010425056435142605   -4.248452174156595e-05   0.0001753458554049373
-0.00010425056435142605   -4.248452174156595e-05   0.0001753458554049373
-0.00010425056435142605   -4.248452174156595e-05   0.0001753458554049373
-0.00010425056435142605   -4.248452174156595e-05   0.0001753458554049373
-6.953345581219379e-05   -2.1157622582838583e-05   0.00010468786834431377
-6.953345581219379e-05   -2.1157622582838583e-05   0.00010468786834431377
-6.953345581219379e-05   -2.1157622582838583e-05   0.00010468786834431377
-6.953345581219379e-05   -2.1157622582838583e-05   0.00010468786834431377
-0.00010425056435142587   3.712154352451943e-06   5.424046493111709e-05
-0.00010425056435142587   3.712154352451943e-06   5.424046493111709e-05
-0.00010425056435142587   3.712154352451943e-06   5.424046493111709e-05
-0.00010425056435142587   3.712154352451943e-06   5.424046493111709e-05
-3.158733006713387e-05   -4.248452174156595e-05   0.0001476278497485266
-3.158733006713387e-05   -4.248452174156595e-05   0.0001476278497485266
-3.158733006713387e-05   -4.248452174156595e-05   0.0001476278497485266
-3.158733006713387e-05   -4.248452174156595e-05   0.0001476278497485266
-3.226940297469063e-05   2.6856277006586955e-06   2.913926620061623e-05
-3.226940297469063e-05   2.6856277006586955e-06   2.913926620061623e-05
-3.226940297469063e-05   2.6856277006586955e-06   2.913926620061623e-05
-3.226940297469063e-05   2.6856277006586955e-06   2.913926620061623e-05
-9.835620029671384e-05   -3.650367978889558e-05   0.00016279751289772056
-9.835620029671384e-05   -3.650367978889558e-05   0.00016279751289772056
-9.835620029671384e-05   -3.650367978889558e-05   0.00016279751289772056
-9.835620029671384e-05   -3.650367978889558e-05   0.00016279751289772056
-6.74284337322784e-05   -2.0028635501028326e-05   0.00010136620871760791
-6.74284337322784e-05   -2.0028635501028326e-05   0.00010136620871760791
-6.74284337322784e-05   -2.0028635501028326e-05   0.00010136620871760791
-6.74284337322784e-05   -2.0028635501028326e-05   0.00010136620871760791
-9.835620029671368e-05   2.6856277006586955e-06   5.2652850694348715e-05
-9.835620029671368e-05   2.6856277006586955e-06   5.2652850694348715e-05
-9.835620029671368e-05   2.6856277006586955e-06   5.2652850694348715e-05
-9.835620029671368e-05   2.6856277006586955e-06   5.2652850694348715e-05
-3.2269402974690684e-05   -3.650367978889558e-05   0.00013928392840398805
-3.2269402974690684e-05   -3.650367978889558e-05   0.00013928392840398805
-3.2269402974690684e-05   -3.650367978889558e-05   0.00013928392840398805
-3.2269402974690684e-05   -3.650367978889558e-05   0.00013928392840398805
-3.528187690042501e-05   -1.6668854219489696e-06   3.6519233930027984e-05
-3.528187690042501e-05   -1.6668854219489696e-06   3.6519233930027984e-05
-3.528187690042501e-05   -1.6668854219489696e-06   3.6519233930027984e-05
-3.528187690042501e-05   -1.6668854219489696e-06   3.6519233930027984e-05
-9.081134412095185e-05   -2.8574104476697524e-05   0.00014521267739708827
-9.081134412095185e-05   -2.8574104476697524e-05   0.00014521267739708827
-9.081134412095185e-05   -2.8574104476697524e-05   0.00014521267739708827
-9.081134412095185e-05   -2.8574104476697524e-05   0.00014521267739708827
-6.482255675383616e-05   -1.8481092399615724e-05   9.58422245389798e-05
-6.482255675383616e-05   -1.8481092399615724e-05   9.58422245389798e-05
-6.482255675383616e-05   -1.8481092399615724e-05   9.58422245389798e-05
-6.482255675383616e-05   -1.8481092399615724e-05   9.58422245389798e-05
-2.696643415968841e-05   -9.977762417147091e-06   2.7179662089360556e-05
-2.696643415968841e-05   -9.977762417147091e-06   2.7179662089360556e-05
-2.696643415968841e-05   -9.977762417147091e-06   2.7179662089360556e-05
-2.696643415968841e-05   -9.977762417147091e-06   2.7179662089360556e-05
-9.421050241187638e-06   -1.672815970662855e-05   5.237173024650644e-05
-9.421050241187638e-06   -1.672815970662855e-05   5.237173024650644e-05
-9.421050241187638e-06   -1.672815970662855e-05   5.237173024650644e-05
-9.421050241187638e-06   -1.672815970662855e-05   5.237173024650644e-05
-1.0486432107207797e-05   -8.152415780808423e-06   2.4435717237181165e-05
-1.0486432107207797e-05   -8.152415780808423e-06   2.4435717237181165e-05
-1.0486432107207797e-05   -8.152415780808423e-06   2.4435717237181165e-05
-1.0486432107207797e-05   -8.152415780808423e-06   2.4435717237181165e-05
-3.158733006713387e-05   -2.2294297013468928e-05   6.808900924332081e-05
-3.158733006713387e-05   -2.2294297013468928e-05   6.808900924332081e-05
-3.158733006713387e-05   -2.2294297013468928e-05   6.808900924332081e-05
-3.158733006713387e-05   -2.2294297013468928e-05   6.808900924332081e-05
-1.8593000748502358e-05   -1.1722355322865566e-05   4.00886286979061e-05
-1.8593000748502358e-05   -1.1722355322865566e-05   4.00886286979061e-05
-1.8593000748502358e-05   -1.1722355322865566e-05   4.00886286979061e-05
-1.8593000748502358e-05   -1.1722355322865566e-05   4.00886286979061e-05
-3.1587330067133775e-05   -8.152415780808423e-06   3.2920845976777105e-05
-3.1587330067133775e-05   -8.152415780808423e-06   3.2920845976777105e-05
-3.1587330067133775e-05   -8.152415780808423e-06   3.2920845976777105e-05
-3.1587330067133775e-05   -8.152415780808423e-06   3.2920845976777105e-05
-1.0486432107207797e-05   -2.2294297013468928e-05   5.960388050372454e-05
-1.0486432107207797e-05   -2.2294297013468928e-05   5.960388050372454e-05
-1.0486432107207797e-05   -2.2294297013468928e-05   5.960388050372454e-05
-1.0486432107207797e-05   -2.2294297013468928e-05   5.960388050372454e-05
-1.139629272519548e-05   -8.343203740608218e-06   2.7470863408571452e-05
-1.139629272519548e-05   -8.343203740608218e-06   2.7470863408571452e-05
-1.139629272519548e-05   -8.343203740608218e-06   2.7470863408571452e-05
-1.139629272519548e-05   -8.343203740608218e-06   2.7470863408571452e-05
-3.2269402974690684e-05   -2.032565224309408e-05   6.944884959255479e-05
-3.2269402974690684e-05   -2.032565224309408e-05   6.944884959255479e-05
-3.2269402974690684e-05   -2.032565224309408e-05   6.944884959255479e-05
-3.2269402974690684e-05   -2.032565224309408e-05   6.944884959255479e-05
-2.0923457583171965e-05   -1.436822249252604e-05   4.6964482756349686e-05
-2.0923457583171965e-05   -1.436822249252604e-05   4.6964482756349686e-05
-2.0923457583171965e-05   -1.436822249252604e-05   4.6964482756349686e-05
-2.0923457583171965e-05   -1.436822249252604e-05   4.6964482756349686e-05
-3.226940297469063e-05   -8.343203740608218e-06   3.4660332510063046e-05
-3.226940297469063e-05   -8.343203740608218e-06   3.4660332510063046e-05
-3.226940297469063e-05   -8.343203740608218e-06   3.4660332510063046e-05
-3.226940297469063e-05   -8.343203740608218e-06   3.4660332510063046e-05
-1.1396292725195534e-05   -2.032565224309408e-05   6.225938049106327e-05
-1.1396292725195534e-05   -2.032565224309408e-05   6.225938049106327e-05
-1.1396292725195534e-05   -2.032565224309408e-05   6.225938049106327e-05
-1.1396292725195534e-05   -2.032565224309408e-05   6.225938049106327e-05
-1.2870005469629582e-05   -8.435472774253336e-06   3.001807553540143e-05
-1.2870005469629582e-05   -8.435472774253336e-06   3.001807553540143e-05
-1.2870005469629582e-05   -8.435472774253336e-06   3.001807553540143e-05
-1.2870005469629582e-05   -8.435472774253336e-06   3.001807553540143e-05
-3.528187690042505e-05   -1.90907667495893e-05   7.37643709719284e-05
-3.528187690042505e-05   -1.90907667495893e-05   7.37643709719284e-05
-3.528187690042505e-05   -1.90907667495893e-05   7.37643709719284e-05
-3.528187690042505e-05   -1.90907667495893e-05   7.37643709719284e-05
-2.2261936873088463e-05   -1.3112795039292287e-05   4.8477687900189235e-05
-2.2261936873088463e-05   -1.3112795039292287e-05   4.8477687900189235e-05
-2.2261936873088463e-05   -1.3112795039292287e-05   4.8477687900189235e-05
-2.2261936873088463e-05   -1.3112795039292287e-05   4.8477687900189235e-05
-9.421050241187638e-06   -7.792646185783873e-06   1.4493610582277093e-05
-9.421050241187638e-06   -7.792646185783873e-06   1.4493610582277093e-05
-9.421050241187638e-06   -7.792646185783873e-06   1.4493610582277093e-05
-9.421050241187638e-06   -7.792646185783873e-06   1.4493610582277093e-05
-5.2392095054470435e-06   -4.517068463219954e-06   2.3428691775383105e-05
-5.2392095054470435e-06   -4.517068463219954e-06   2.3428691775383105e-05
-5.2392095054470435e-06   -4.517068463219954e-06   2.3428691775383105e-05
-5.2392095054470435e-06   -4.517068463219954e-06   2.3428691775383105e-05
-5.016351871948185e-06   -7.653206247931212e-06   1.6879589609490272e-05
-5.016351871948185e-06   -7.653206247931212e-06   1.6879589609490272e-05
-5.016351871948185e-06   -7.653206247931212e-06   1.6879589609490272e-05
-5.016351871948185e-06   -7.653206247931212e-06   1.6879589609490272e-05
-1.0486432107207797e-05   -5.964044249184977e-06   2.4982892802341496e-05
-1.0486432107207797e-05   -5.964044249184977e-06   2.4982892802341496e-05
-1.0486432107207797e-05   -5.964044249184977e-06   2.4982892802341496e-05
-1.0486432107207797e-05   -5.964044249184977e-06   2.4982892802341496e-05
-7.065412179685403e-06   -6.160412796631521e-06   1.9399014051605388e-05
-7.065412179685403e-06   -6.160412796631521e-06   1.9399014051605388e-05
-7.065412179685403e-06   -6.160412796631521e-06   1.9399014051605388e-05
-7.065412179685403e-06   -6.160412796631521e-06   1.9399014051605388e-05
-1.0486432107207743e-05   -7.653206247931104e-06   1.5866092410242504e-05
-1.0486432107207743e-05   -7.653206247931104e-06   1.5866092410242504e-05
-1.0486432107207743e-05   -7.653206247931104e-06   1.5866092410242504e-05
-1.0486432107207743e-05   -7.653206247931104e-06   1.5866092410242504e-05
-5.016351871948185e-06   -5.964044249184977e-06   2.599639000158921e-05
-5.016351871948185e-06   -5.964044249184977e-06   2.599639000158921e-05
-5.016351871948185e-06   -5.964044249184977e-06   2.599639000158921e-05
-5.016351871948185e-06   -5.964044249184977e-06   2.599639000158921e-05
-5.0055292157289485e-06   -7.890296549809103e-06   1.803497047078446e-05
-5.0055292157289485e-06   -7.890296549809103e-06   1.803497047078446e-05
-5.0055292157289485e-06   -7.890296549809103e-06   1.803497047078446e-05
-5.0055292157289485e-06   -7.890296549809103e-06   1.803497047078446e-05
-1.1396292725195534e-05   -7.721385018063272e-06   2.8584896067514252e-05
-1.1396292725195534e-05   -7.721385018063272e-06   2.8584896067514252e-05
-1.1396292725195534e-05   -7.721385018063272e-06   2.8584896067514252e-05
-1.1396292725195534e-05   -7.721385018063272e-06   2.8584896067514252e-05
-7.467911357444604e-06   -6.736767748484658e-06   2.1446823426182326e-05
-7.467911357444604e-06   -6.736767748484658e-06   2.1446823426182326e-05
-7.467911357444604e-06   -6.736767748484658e-06   2.1446823426182326e-05
-7.467911357444604e-06   -6.736767748484658e-06   2.1446823426182326e-05
-1.139629272519548e-05   -7.890296549809103e-06   1.793362355173697e-05
-1.139629272519548e-05   -7.890296549809103e-06   1.793362355173697e-05
-1.139629272519548e-05   -7.890296549809103e-06   1.793362355173697e-05
-1.139629272519548e-05   -7.890296549809103e-06   1.793362355173697e-05
-5.0055292157289485e-06   -7.721385018063272e-06   2.8686242986561742e-05
-5.0055292157289485e-06   -7.721385018063272e-06   2.8686242986561742e-05
-5.0055292157289485e-06   -7.721385018063272e-06   2.8686242986561742e-05
-5.0055292157289485e-06   -7.721385018063272e-06   2.8686242986561742e-05
-5.046823255319471e-06   -8.231735901552731e-06   1.975634197290345e-05
-5.046823255319471e-06   -8.231735901552731e-06   1.975634197290345e-05
-5.046823255319471e-06   -8.231735901552731e-06   1.975634197290345e-05
-5.046823255319471e-06   -8.231735901552731e-06   1.975634197290345e-05
-1.2870005469629582e-05   -9.394413221791459e-06   3.349258538889663e-05
-1.2870005469629582e-05   -9.394413221791459e-06   3.349258538889663e-05
-1.2870005469629582e-05   -9.394413221791459e-06   3.349258538889663e-05
-1.2870005469629582e-05   -9.394413221791459e-06   3.349258538889663e-05
-7.921856835241872e-06   -7.3745874164188796e-06   2.403377551502689e-05
-7.921856835241872e-06   -7.3745874164188796e-06   2.403377551502689e-05
-7.921856835241872e-06   -7.3745874164188796e-06   2.403377551502689e-05
-7.921856835241872e-06   -7.3745874164188796e-06   2.403377551502689e-05
-5.2392095054470435e-06   -3.1911298133953207e-06   3.95377454983747e-06
-5.2392095054470435e-06   -3.1911298133953207e-06   3.95377454983747e-06
-5.2392095054470435e-06   -3.1911298133953207e-06   3.95377454983747e-06
-5.2392095054470435e-06   -3.1911298133953207e-06   3.95377454983747e-06
-3.853821800076291e-06   9.55947306962779e-07   8.751000331003764e-06
-3.853821800076291e-06   9.55947306962779e-07   8.751000331003764e-06
-3.853821800076291e-06   9.55947306962779e-07   8.751000331003764e-06
-3.853821800076291e-06   9.55947306962779e-07   8.751000331003764e-06
-3.1027006273282335e-06   -3.7415652903296593e-06   6.819397750148495e-06
-3.1027006273282335e-06   -3.7415652903296593e-06   6.819397750148495e-06
-3.1027006273282335e-06   -3.7415652903296593e-06   6.819397750148495e-06
-3.1027006273282335e-06   -3.7415652903296593e-06   6.819397750148495e-06
-5.016351871948185e-06   4.5114841874059467e-07   7.493188265739279e-06
-5.016351871948185e-06   4.5114841874059467e-07   7.493188265739279e-06
-5.016351871948185e-06   4.5114841874059467e-07   7.493188265739279e-06
-5.016351871948185e-06   4.5114841874059467e-07   7.493188265739279e-06
-4.038857415146957e-06   -1.445266138383396e-06   7.001879572011115e-06
-4.038857415146957e-06   -1.445266138383396e-06   7.001879572011115e-06
-4.038857415146957e-06   -1.445266138383396e-06   7.001879572011115e-06
-4.038857415146957e-06   -1.445266138383396e-06   7.001879572011115e-06
-5.016351871948185e-06   -3.7415652903296593e-06   4.3037695247063155e-06
-5.016351871948185e-06   -3.7415652903296593e-06   4.3037695247063155e-06
-5.016351871948185e-06   -3.7415652903296593e-06   4.3037695247063155e-06
-5.016351871948185e-06   -3.7415652903296593e-06   4.3037695247063155e-06
-3.1027006273282335e-06   4.5114841874059467e-07   1.0008816491181459e-05
-3.1027006273282335e-06   4.5114841874059467e-07   1.0008816491181459e-05
-3.1027006273282335e-06   4.5114841874059467e-07   1.0008816491181459e-05
-3.1027006273282335e-06   4.5114841874059467e-07   1.0008816491181459e-05
-2.6838769934624035e-06   -4.16156611451955e-06   7.489756333814001e-06
-2.6838769934624035e-06   -4.16156611451955e-06   7.489756333814001e-06
-2.6838769934624035e-06   -4.16156611451955e-06   7.489756333814001e-06
-2.6838769934624035e-06   -4.16156611451955e-06   7.489756333814001e-06
-5.0055292157289485e-06   -3.647767677398498e-07   9.081103096190307e-06
-5.0055292157289485e-06   -3.647767677398498e-07   9.081103096190307e-06
-5.0055292157289485e-06   -3.647767677398498e-07   9.081103096190307e-06
-5.0055292157289485e-06   -3.647767677398498e-07   9.081103096190307e-06
-3.6462854267576943e-06   -1.8627683780223316e-06   7.714491747408013e-06
-3.6462854267576943e-06   -1.8627683780223316e-06   7.714491747408013e-06
-3.6462854267576943e-06   -1.8627683780223316e-06   7.714491747408013e-06
-3.6462854267576943e-06   -1.8627683780223316e-06   7.714491747408013e-06
-5.0055292157289485e-06   -4.16156611451955e-06   5.211682725746083e-06
-5.0055292157289485e-06   -4.16156611451955e-06   5.211682725746083e-06
-5.0055292157289485e-06   -4.16156611451955e-06   5.211682725746083e-06
-5.0055292157289485e-06   -4.16156611451955e-06   5.211682725746083e-06
-2.6838769934624035e-06   -3.647767677398498e-07   1.135917670425817e-05
-2.6838769934624035e-06   -3.647767677398498e-07   1.135917670425817e-05
-2.6838769934624035e-06   -3.647767677398498e-07   1.135917670425817e-05
-2.6838769934624035e-06   -3.647767677398498e-07   1.135917670425817e-05
-2.040490277602832e-06   -4.713919735331454e-06   8.206858387695961e-06
-2.040490277602832e-06   -4.713919735331454e-06   8.206858387695961e-06
-2.040490277602832e-06   -4.713919735331454e-06   8.206858387695961e-06
-2.040490277602832e-06   -4.713919735331454e-06   8.206858387695961e-06
-5.046823255319471e-06   -2.060228506778519e-06   1.1625198613424777e-05
-5.046823255319471e-06   -2.060228506778519e-06   1.1625198613424777e-05
-5.046823255319471e-06   -2.060228506778519e-06   1.1625198613424777e-05
-5.046823255319471e-06   -2.060228506778519e-06   1.1625198613424777e-05
-3.318831764840364e-06   -2.5089242672598653e-06   9.01443025224909e-06
-3.318831764840364e-06   -2.5089242672598653e-06   9.01443025224909e-06
-3.318831764840364e-06   -2.5089242672598653e-06   9.01443025224909e-06
-3.318831764840364e-06   -2.5089242672598653e-06   9.01443025224909e-06
-3.853821800076291e-06   -3.6761949870887413e-07   -6.567493193341547e-06
-3.853821800076291e-06   -3.6761949870887413e-07   -6.567493193341547e-06
-3.853821800076291e-06   -3.6761949870887413e-07   -6.567493193341547e-06
-3.853821800076291e-06   -3.6761949870887413e-07   -6.567493193341547e-06
-6.779438312374837e-07   5.674659245334619e-07   -7.133119913314834e-07
-6.779438312374837e-07   5.674659245334619e-07   -7.133119913314834e-07
-6.779438312374837e-07   5.674659245334619e-07   -7.133119913314834e-07
-6.779438312374837e-07   5.674659245334619e-07   -7.133119913314834e-07
6.107202939350208e-08   -5.081453486892231e-07   -5.181182457821357e-06
6.107202939350208e-08   -5.081453486892231e-07   -5.181182457821357e-06
6.107202939350208e-08   -5.081453486892231e-07   -5.181182457821357e-06
6.107202939350208e-08   -5.081453486892231e-07   -5.181182457821357e-06
-3.1027006273282335e-06   9.879177996037145e-07   -8.05865918927914e-07
-3.1027006273282335e-06   9.879177996037145e-07   -8.05865918927914e-07
-3.1027006273282335e-06   9.879177996037145e-07   -8.05865918927914e-07
-3.1027006273282335e-06   9.879177996037145e-07   -8.05865918927914e-07
-1.7308884585660747e-06   2.576920037475252e-07   -2.654084056017943e-06
-1.7308884585660747e-06   2.576920037475252e-07   -2.654084056017943e-06
-1.7308884585660747e-06   2.576920037475252e-07   -2.654084056017943e-06
-1.7308884585660747e-06   2.576920037475252e-07   -2.654084056017943e-06
-3.1027006273282335e-06   -5.081453486891147e-07   -6.078820346797889e-06
-3.1027006273282335e-06   -5.081453486891147e-07   -6.078820346797889e-06
-3.1027006273282335e-06   -5.081453486891147e-07   -6.078820346797889e-06
-3.1027006273282335e-06   -5.081453486891147e-07   -6.078820346797889e-06
6.107202939371892e-08   9.879177996037145e-07   9.177197004780514e-08
6.107202939371892e-08   9.879177996037145e-07   9.177197004780514e-08
6.107202939371892e-08   9.879177996037145e-07   9.177197004780514e-08
6.107202939371892e-08   9.879177996037145e-07   9.177197004780514e-08
4.5515099694900217e-07   -6.998444704092374e-07   -4.675728506997774e-06
4.5515099694900217e-07   -6.998444704092374e-07   -4.675728506997774e-06
4.5515099694900217e-07   -6.998444704092374e-07   -4.675728506997774e-06
4.5515099694900217e-07   -6.998444704092374e-07   -4.675728506997774e-06
-2.6838769934624035e-06   8.625850193719686e-07   -3.81472883514717e-07
-2.6838769934624035e-06   8.625850193719686e-07   -3.81472883514717e-07
-2.6838769934624035e-06   8.625850193719686e-07   -3.81472883514717e-07
-2.6838769934624035e-06   8.625850193719686e-07   -3.81472883514717e-07
-1.1813631405621096e-06   1.696603052084647e-07   -2.4699078098495975e-06
-1.1813631405621096e-06   1.696603052084647e-07   -2.4699078098495975e-06
-1.1813631405621096e-06   1.696603052084647e-07   -2.4699078098495975e-06
-1.1813631405621096e-06   1.696603052084647e-07   -2.4699078098495975e-06
-2.6838769934624035e-06   -6.99844470409129e-07   -5.613186200866861e-06
-2.6838769934624035e-06   -6.99844470409129e-07   -5.613186200866861e-06
-2.6838769934624035e-06   -6.99844470409129e-07   -5.613186200866861e-06
-2.6838769934624035e-06   -6.99844470409129e-07   -5.613186200866861e-06
4.5515099694900217e-07   8.625850193719686e-07   5.559848103540987e-07
4.5515099694900217e-07   8.625850193719686e-07   5.559848103540987e-07
4.5515099694900217e-07   8.625850193719686e-07   5.559848103540987e-07
4.5515099694900217e-07   8.625850193719686e-07   5.559848103540987e-07
9.501258255303294e-07   -9.275017633939226e-07   -3.9422912570512975e-06
9.501258255303294e-07   -9.275017633939226e-07   -3.9422912570512975e-06
9.501258255303294e-07   -9.275017633939226e-07   -3.9422912570512975e-06
9.501258255303294e-07   -9.275017633939226e-07   -3.9422912570512975e-06
-2.040490277602832e-06   7.71678918081093e-07   2.256050595232824e-08
-2.040490277602832e-06   7.71678918081093e-07   2.256050595232824e-08
-2.040490277602832e-06   7.71678918081093e-07   2.256050595232824e-08
-2.040490277602832e-06   7.71678918081093e-07   2.256050595232824e-08
-6.824122578261344e-07   6.634120811168731e-08   -1.8177002343606075e-06
-6.824122578261344e-07   6.634120811168731e-08   -1.8177002343606075e-06
-6.824122578261344e-07   6.634120811168731e-08   -1.8177002343606075e-06
-6.824122578261344e-07   6.634120811168731e-08   -1.8177002343606075e-06
              </DataArray>   
             <DataArray type="Float64" NumberOfComponents="3" Name="Stress" format="ascii">   
-5.919486674188899   -1.4798716685472248   -1.4798716685472248
-5.919486674188899   -1.4798716685472248   -1.4798716685472248
-5.919486674188899   -1.4798716685472248   -1.4798716685472248
-5.919486674188899   -1.4798716685472248   -1.4798716685472248
-3.42595374178607   -0.10769803249710486   -0.06835749764766064
-3.42595374178607   -0.10769803249710486   -0.06835749764766064
-3.42595374178607   -0.10769803249710486   -0.06835749764766064
-3.42595374178607   -0.10769803249710486   -0.06835749764766064
-3.693552655422867   -0.9233881638557168   -0.9233881638557168
-3.693552655422867   -0.9233881638557168   -0.9233881638557168
-3.693552655422867   -0.9233881638557168   -0.9233881638557168
-3.693552655422867   -0.9233881638557168   -0.9233881638557168
-5.705474397435884   -0.4678772902989271   -0.17872155704993034
-5.705474397435884   -0.4678772902989271   -0.17872155704993034
-5.705474397435884   -0.4678772902989271   -0.17872155704993034
-5.705474397435884   -0.4678772902989271   -0.17872155704993034
-4.474980284560642   -0.7332522290696747   -0.012310702107098483
-4.474980284560642   -0.7332522290696747   -0.012310702107098483
-4.474980284560642   -0.7332522290696747   -0.012310702107098483
-4.474980284560642   -0.7332522290696747   -0.012310702107098483
-6.195727364406801   -1.5489318411017003   -1.5489318411017003
-6.195727364406801   -1.5489318411017003   -1.5489318411017003
-6.195727364406801   -1.5489318411017003   -1.5489318411017003
-6.195727364406801   -1.5489318411017003   -1.5489318411017003
-3.3194957662999878   0.041470309099026714   -0.017962191196064514
-3.3194957662999878   0.041470309099026714   -0.017962191196064514
-3.3194957662999878   0.041470309099026714   -0.017962191196064514
-3.3194957662999878   0.041470309099026714   -0.017962191196064514
-3.704585088675637   -0.9261462721689092   -0.9261462721689092
-3.704585088675637   -0.9261462721689092   -0.9261462721689092
-3.704585088675637   -0.9261462721689092   -0.9261462721689092
-3.704585088675637   -0.9261462721689092   -0.9261462721689092
-5.897916258422928   -0.4725585856865736   -0.2619719914311158
-5.897916258422928   -0.4725585856865736   -0.2619719914311158
-5.897916258422928   -0.4725585856865736   -0.2619719914311158
-5.897916258422928   -0.4725585856865736   -0.2619719914311158
-4.64254768483881   -0.6905906069027918   -0.2464447978558083
-4.64254768483881   -0.6905906069027918   -0.2464447978558083
-4.64254768483881   -0.6905906069027918   -0.2464447978558083
-4.64254768483881   -0.6905906069027918   -0.2464447978558083
-6.390011269999333   -1.5975028174998334   -1.5975028174998334
-6.390011269999333   -1.5975028174998334   -1.5975028174998334
-6.390011269999333   -1.5975028174998334   -1.5975028174998334
-6.390011269999333   -1.5975028174998334   -1.5975028174998334
-3.3104221189035146   0.10086591784007726   0.017656386682717295
-3.3104221189035146   0.10086591784007726   0.017656386682717295
-3.3104221189035146   0.10086591784007726   0.017656386682717295
-3.3104221189035146   0.10086591784007726   0.017656386682717295
-3.7033322372074404   -0.9258330593018601   -0.9258330593018601
-3.7033322372074404   -0.9258330593018601   -0.9258330593018601
-3.7033322372074404   -0.9258330593018601   -0.9258330593018601
-3.7033322372074404   -0.9258330593018601   -0.9258330593018601
-6.241502467734553   -0.4149315714519056   -0.15684603200025962
-6.241502467734553   -0.4149315714519056   -0.15684603200025962
-6.241502467734553   -0.4149315714519056   -0.15684603200025962
-6.241502467734553   -0.4149315714519056   -0.15684603200025962
-4.767115900328208   -0.680032179670851   -0.44552443075499015
-4.767115900328208   -0.680032179670851   -0.44552443075499015
-4.767115900328208   -0.680032179670851   -0.44552443075499015
-4.767115900328208   -0.680032179670851   -0.44552443075499015
-3.7674918175079144   -0.9418729543769786   -0.9418729543769786
-3.7674918175079144   -0.9418729543769786   -0.9418729543769786
-3.7674918175079144   -0.9418729543769786   -0.9418729543769786
-3.7674918175079144   -0.9418729543769786   -0.9418729543769786
-1.571086822257027   -0.10398233064516862   -0.033844534236201824
-1.571086822257027   -0.10398233064516862   -0.033844534236201824
-1.571086822257027   -0.10398233064516862   -0.033844534236201824
-1.571086822257027   -0.10398233064516862   -0.033844534236201824
-1.6500859986359357   -0.41252149965898394   -0.41252149965898394
-1.6500859986359357   -0.41252149965898394   -0.41252149965898394
-1.6500859986359357   -0.41252149965898394   -0.41252149965898394
-1.6500859986359357   -0.41252149965898394   -0.41252149965898394
-3.4304976547866746   -0.40314554231842686   -0.1283557822120453
-3.4304976547866746   -0.40314554231842686   -0.1283557822120453
-3.4304976547866746   -0.40314554231842686   -0.1283557822120453
-3.4304976547866746   -0.40314554231842686   -0.1283557822120453
-2.5297435176684067   -0.47903814235637343   0.019870640337983244
-2.5297435176684067   -0.47903814235637343   0.019870640337983244
-2.5297435176684067   -0.47903814235637343   0.019870640337983244
-2.5297435176684067   -0.47903814235637343   0.019870640337983244
-3.6935526554228635   -0.9233881638557159   -0.9233881638557159
-3.6935526554228635   -0.9233881638557159   -0.9233881638557159
-3.6935526554228635   -0.9233881638557159   -0.9233881638557159
-3.6935526554228635   -0.9233881638557159   -0.9233881638557159
-1.482831458417979   0.01192066146007048   -0.0006909596882540975
-1.482831458417979   0.01192066146007048   -0.0006909596882540975
-1.482831458417979   0.01192066146007048   -0.0006909596882540975
-1.482831458417979   0.01192066146007048   -0.0006909596882540975
-1.6138667011411936   -0.4034666752852984   -0.4034666752852984
-1.6138667011411936   -0.4034666752852984   -0.4034666752852984
-1.6138667011411936   -0.4034666752852984   -0.4034666752852984
-1.6138667011411936   -0.4034666752852984   -0.4034666752852984
-3.4224675585570905   -0.32904523523149687   -0.11265965851358975
-3.4224675585570905   -0.32904523523149687   -0.11265965851358975
-3.4224675585570905   -0.32904523523149687   -0.11265965851358975
-3.4224675585570905   -0.32904523523149687   -0.11265965851358975
-2.4951254596657892   -0.40341233143065947   -0.13052141462917394
-2.4951254596657892   -0.40341233143065947   -0.13052141462917394
-2.4951254596657892   -0.40341233143065947   -0.13052141462917394
-2.4951254596657892   -0.40341233143065947   -0.13052141462917394
-3.704585088675637   -0.9261462721689092   -0.9261462721689092
-3.704585088675637   -0.9261462721689092   -0.9261462721689092
-3.704585088675637   -0.9261462721689092   -0.9261462721689092
-3.704585088675637   -0.9261462721689092   -0.9261462721689092
-1.4245356849143862   0.10084784776037498   0.038873882803065
-1.4245356849143862   0.10084784776037498   0.038873882803065
-1.4245356849143862   0.10084784776037498   0.038873882803065
-1.4245356849143862   0.10084784776037498   0.038873882803065
-1.5809879471014823   -0.39524698677537057   -0.39524698677537057
-1.5809879471014823   -0.39524698677537057   -0.39524698677537057
-1.5809879471014823   -0.39524698677537057   -0.39524698677537057
-1.5809879471014823   -0.39524698677537057   -0.39524698677537057
-3.3979821764775817   -0.25407250546196336   -0.07084330949250542
-3.3979821764775817   -0.25407250546196336   -0.07084330949250542
-3.3979821764775817   -0.25407250546196336   -0.07084330949250542
-3.3979821764775817   -0.25407250546196336   -0.07084330949250542
-2.5081189987622574   -0.35716856845442313   -0.29088709485834935
-2.5081189987622574   -0.35716856845442313   -0.29088709485834935
-2.5081189987622574   -0.35716856845442313   -0.29088709485834935
-2.5081189987622574   -0.35716856845442313   -0.29088709485834935
-1.7150238325341727   -0.42875595813354317   -0.42875595813354317
-1.7150238325341727   -0.42875595813354317   -0.42875595813354317
-1.7150238325341727   -0.42875595813354317   -0.42875595813354317
-1.7150238325341727   -0.42875595813354317   -0.42875595813354317
0.2053070170814234   0.01373274992290464   0.0016556366785334146
0.2053070170814234   0.01373274992290464   0.0016556366785334146
0.2053070170814234   0.01373274992290464   0.0016556366785334146
0.2053070170814234   0.01373274992290464   0.0016556366785334146
0.26586344623890346   0.06646586155972586   0.06646586155972586
0.26586344623890346   0.06646586155972586   0.06646586155972586
0.26586344623890346   0.06646586155972586   0.06646586155972586
0.26586344623890346   0.06646586155972586   0.06646586155972586
-1.551246561493693   -0.2681381647102217   -0.06270764889654493
-1.551246561493693   -0.2681381647102217   -0.06270764889654493
-1.551246561493693   -0.2681381647102217   -0.06270764889654493
-1.551246561493693   -0.2681381647102217   -0.06270764889654493
-0.6631721753053428   -0.1682696958888807   0.11301968852650913
-0.6631721753053428   -0.1682696958888807   0.11301968852650913
-0.6631721753053428   -0.1682696958888807   0.11301968852650913
-0.6631721753053428   -0.1682696958888807   0.11301968852650913
-1.6500859986359357   -0.41252149965898394   -0.41252149965898394
-1.6500859986359357   -0.41252149965898394   -0.41252149965898394
-1.6500859986359357   -0.41252149965898394   -0.41252149965898394
-1.6500859986359357   -0.41252149965898394   -0.41252149965898394
0.2705128462975261   0.11665915942486968   0.03951956398769298
0.2705128462975261   0.11665915942486968   0.03951956398769298
0.2705128462975261   0.11665915942486968   0.03951956398769298
0.2705128462975261   0.11665915942486968   0.03951956398769298
0.2982714120093916   0.0745678530023479   0.0745678530023479
0.2982714120093916   0.0745678530023479   0.0745678530023479
0.2982714120093916   0.0745678530023479   0.0745678530023479
0.2982714120093916   0.0745678530023479   0.0745678530023479
-1.4970350497426486   -0.18071606944391155   -0.04205902413398524
-1.4970350497426486   -0.18071606944391155   -0.04205902413398524
-1.4970350497426486   -0.18071606944391155   -0.04205902413398524
-1.4970350497426486   -0.18071606944391155   -0.04205902413398524
-0.6368178934332082   -0.10409088715377002   -0.038415760102553105
-0.6368178934332082   -0.10409088715377002   -0.038415760102553105
-0.6368178934332082   -0.10409088715377002   -0.038415760102553105
-0.6368178934332082   -0.10409088715377002   -0.038415760102553105
-1.6138667011411936   -0.4034666752852984   -0.4034666752852984
-1.6138667011411936   -0.4034666752852984   -0.4034666752852984
-1.6138667011411936   -0.4034666752852984   -0.4034666752852984
-1.6138667011411936   -0.4034666752852984   -0.4034666752852984
0.3228074021585585   0.2050227975943604   0.0667928591561674
0.3228074021585585   0.2050227975943604   0.0667928591561674
0.3228074021585585   0.2050227975943604   0.0667928591561674
0.3228074021585585   0.2050227975943604   0.0667928591561674
0.3420809568624184   0.0855202392156046   0.0855202392156046
0.3420809568624184   0.0855202392156046   0.0855202392156046
0.3420809568624184   0.0855202392156046   0.0855202392156046
0.3420809568624184   0.0855202392156046   0.0855202392156046
-1.4380260583476934   -0.07640897362178581   0.0007244438399706329
-1.4380260583476934   -0.07640897362178581   0.0007244438399706329
-1.4380260583476934   -0.07640897362178581   0.0007244438399706329
-1.4380260583476934   -0.07640897362178581   0.0007244438399706329
-0.6184478647548781   -0.042221359968456385   -0.18850003917869596
-0.6184478647548781   -0.042221359968456385   -0.18850003917869596
-0.6184478647548781   -0.042221359968456385   -0.18850003917869596
-0.6184478647548781   -0.042221359968456385   -0.18850003917869596
0.2246992664012624   0.0561748166003156   0.0561748166003156
0.2246992664012624   0.0561748166003156   0.0561748166003156
0.2246992664012624   0.0561748166003156   0.0561748166003156
0.2246992664012624   0.0561748166003156   0.0561748166003156
2.1493508234275858   0.197127929091997   0.06590735487392389
2.1493508234275858   0.197127929091997   0.06590735487392389
2.1493508234275858   0.197127929091997   0.06590735487392389
2.1493508234275858   0.197127929091997   0.06590735487392389
2.3330485534282066   0.5832621383570517   0.5832621383570517
2.3330485534282066   0.5832621383570517   0.5832621383570517
2.3330485534282066   0.5832621383570517   0.5832621383570517
2.3330485534282066   0.5832621383570517   0.5832621383570517
0.2026127497766838   -0.151409993687213   -0.03191176550443765
0.2026127497766838   -0.151409993687213   -0.03191176550443765
0.2026127497766838   -0.151409993687213   -0.03191176550443765
0.2026127497766838   -0.151409993687213   -0.03191176550443765
1.2260850406094101   0.15260927201552382   0.22288333641522118
1.2260850406094101   0.15260927201552382   0.22288333641522118
1.2260850406094101   0.15260927201552382   0.22288333641522118
1.2260850406094101   0.15260927201552382   0.22288333641522118
0.26586344623890434   0.06646586155972609   0.06646586155972609
0.26586344623890434   0.06646586155972609   0.06646586155972609
0.26586344623890434   0.06646586155972609   0.06646586155972609
0.26586344623890434   0.06646586155972609   0.06646586155972609
2.174072604180173   0.26966103032429956   0.1019835001496357
2.174072604180173   0.26966103032429956   0.1019835001496357
2.174072604180173   0.26966103032429956   0.1019835001496357
2.174072604180173   0.26966103032429956   0.1019835001496357
2.3223589463557905   0.5805897365889476   0.5805897365889476
2.3223589463557905   0.5805897365889476   0.5805897365889476
2.3223589463557905   0.5805897365889476   0.5805897365889476
2.3223589463557905   0.5805897365889476   0.5805897365889476
0.25524255631605874   -0.06595187214033059   -5.6700321640540396e-05
0.25524255631605874   -0.06595187214033059   -5.6700321640540396e-05
0.25524255631605874   -0.06595187214033059   -5.6700321640540396e-05
0.25524255631605874   -0.06595187214033059   -5.6700321640540396e-05
1.216326196873912   0.20002195231745337   0.05810864871404386
1.216326196873912   0.20002195231745337   0.05810864871404386
1.216326196873912   0.20002195231745337   0.05810864871404386
1.216326196873912   0.20002195231745337   0.05810864871404386
0.2982714120093919   0.07456785300234797   0.07456785300234797
0.2982714120093919   0.07456785300234797   0.07456785300234797
0.2982714120093919   0.07456785300234797   0.07456785300234797
0.2982714120093919   0.07456785300234797   0.07456785300234797
2.1845208323796688   0.3452607531634808   0.12672815013380623
2.1845208323796688   0.3452607531634808   0.12672815013380623
2.1845208323796688   0.3452607531634808   0.12672815013380623
2.1845208323796688   0.3452607531634808   0.12672815013380623
2.3666658476607716   0.5916664619151929   0.5916664619151929
2.3666658476607716   0.5916664619151929   0.5916664619151929
2.3666658476607716   0.5916664619151929   0.5916664619151929
2.3666658476607716   0.5916664619151929   0.5916664619151929
0.32441620777838875   0.04717222687483068   0.035544506136227505
0.32441620777838875   0.04717222687483068   0.035544506136227505
0.32441620777838875   0.04717222687483068   0.035544506136227505
0.32441620777838875   0.04717222687483068   0.035544506136227505
1.2345211976587633   0.27117546711453955   -0.09467831307858784
1.2345211976587633   0.27117546711453955   -0.09467831307858784
1.2345211976587633   0.27117546711453955   -0.09467831307858784
1.2345211976587633   0.27117546711453955   -0.09467831307858784
2.329715296260446   0.5824288240651115   0.5824288240651115
2.329715296260446   0.5824288240651115   0.5824288240651115
2.329715296260446   0.5824288240651115   0.5824288240651115
2.329715296260446   0.5824288240651115   0.5824288240651115
4.828477360093023   0.36783371103728846   0.12531828015229857
4.828477360093023   0.36783371103728846   0.12531828015229857
4.828477360093023   0.36783371103728846   0.12531828015229857
4.828477360093023   0.36783371103728846   0.12531828015229857
4.934603792381203   1.2336509480953008   1.2336509480953008
4.934603792381203   1.2336509480953008   1.2336509480953008
4.934603792381203   1.2336509480953008   1.2336509480953008
4.934603792381203   1.2336509480953008   1.2336509480953008
2.073664236762308   -0.11811813194821608   -0.012279174667174708
2.073664236762308   -0.11811813194821608   -0.012279174667174708
2.073664236762308   -0.11811813194821608   -0.012279174667174708
2.073664236762308   -0.11811813194821608   -0.012279174667174708
3.444203640662961   0.48723388051494954   0.38906637335614325
3.444203640662961   0.48723388051494954   0.38906637335614325
3.444203640662961   0.48723388051494954   0.38906637335614325
3.444203640662961   0.48723388051494954   0.38906637335614325
2.3330485534282044   0.5832621383570511   0.5832621383570511
2.3330485534282044   0.5832621383570511   0.5832621383570511
2.3330485534282044   0.5832621383570511   0.5832621383570511
2.3330485534282044   0.5832621383570511   0.5832621383570511
4.572636547773038   0.42968774984778046   0.22777792330206986
4.572636547773038   0.42968774984778046   0.22777792330206986
4.572636547773038   0.42968774984778046   0.22777792330206986
4.572636547773038   0.42968774984778046   0.22777792330206986
4.786363461605844   1.196590865401461   1.196590865401461
4.786363461605844   1.196590865401461   1.196590865401461
4.786363461605844   1.196590865401461   1.196590865401461
4.786363461605844   1.196590865401461   1.196590865401461
2.0802585396246562   -0.0655092013762073   0.01618664089843061
2.0802585396246562   -0.0655092013762073   0.01618664089843061
2.0802585396246562   -0.0655092013762073   0.01618664089843061
2.0802585396246562   -0.0655092013762073   0.01618664089843061
3.3412728293377985   0.5010857901419314   0.1866013227204553
3.3412728293377985   0.5010857901419314   0.1866013227204553
3.3412728293377985   0.5010857901419314   0.1866013227204553
3.3412728293377985   0.5010857901419314   0.1866013227204553
2.3223589463557905   0.5805897365889476   0.5805897365889476
2.3223589463557905   0.5805897365889476   0.5805897365889476
2.3223589463557905   0.5805897365889476   0.5805897365889476
2.3223589463557905   0.5805897365889476   0.5805897365889476
4.424670631585895   0.43089950414750366   0.153818076555743
4.424670631585895   0.43089950414750366   0.153818076555743
4.424670631585895   0.43089950414750366   0.153818076555743
4.424670631585895   0.43089950414750366   0.153818076555743
4.566162818210723   1.1415407045526806   1.1415407045526806
4.566162818210723   1.1415407045526806   1.1415407045526806
4.566162818210723   1.1415407045526806   1.1415407045526806
4.566162818210723   1.1415407045526806   1.1415407045526806
2.1565332748948487   0.06715964333052205   0.06551041667025008
2.1565332748948487   0.06715964333052205   0.06551041667025008
2.1565332748948487   0.06715964333052205   0.06551041667025008
2.1565332748948487   0.06715964333052205   0.06551041667025008
3.198688688194798   0.5430570801297372   -0.04878760943042365
3.198688688194798   0.5430570801297372   -0.04878760943042365
3.198688688194798   0.5430570801297372   -0.04878760943042365
3.198688688194798   0.5430570801297372   -0.04878760943042365
-4.684509779460036   -0.33534205789725224   0.05197841302557252
-4.684509779460036   -0.33534205789725224   0.05197841302557252
-4.684509779460036   -0.33534205789725224   0.05197841302557252
-4.684509779460036   -0.33534205789725224   0.05197841302557252
-2.981015801534189   -0.06805256116085612   -0.01901321140369308
-2.981015801534189   -0.06805256116085612   -0.01901321140369308
-2.981015801534189   -0.06805256116085612   -0.01901321140369308
-2.981015801534189   -0.06805256116085612   -0.01901321140369308
-3.001827621941437   0.12103941955633846   0.062215216731954265
-3.001827621941437   0.12103941955633846   0.062215216731954265
-3.001827621941437   0.12103941955633846   0.062215216731954265
-3.001827621941437   0.12103941955633846   0.062215216731954265
-4.754565083735112   -0.3239408934677058   -0.05596476327139985
-4.754565083735112   -0.3239408934677058   -0.05596476327139985
-4.754565083735112   -0.3239408934677058   -0.05596476327139985
-4.754565083735112   -0.3239408934677058   -0.05596476327139985
-3.703686573217883   -0.12625577937608712   -0.014292755182944233
-3.703686573217883   -0.12625577937608712   -0.014292755182944233
-3.703686573217883   -0.12625577937608712   -0.014292755182944233
-3.703686573217883   -0.12625577937608712   -0.014292755182944233
-4.720347480988929   -0.2307259368343243   0.02190829382613188
-4.720347480988929   -0.2307259368343243   0.02190829382613188
-4.720347480988929   -0.2307259368343243   0.02190829382613188
-4.720347480988929   -0.2307259368343243   0.02190829382613188
-3.0410704700138638   0.02279921759672321   -0.03575882167051769
-3.0410704700138638   0.02279921759672321   -0.03575882167051769
-3.0410704700138638   0.02279921759672321   -0.03575882167051769
-3.0410704700138638   0.02279921759672321   -0.03575882167051769
-3.0058084587718774   0.17245168148730095   0.07097154478721049
-3.0058084587718774   0.17245168148730095   0.07097154478721049
-3.0058084587718774   0.17245168148730095   0.07097154478721049
-3.0058084587718774   0.17245168148730095   0.07097154478721049
-4.783952289565575   -0.2854846546011278   -0.07391996371636167
-4.783952289565575   -0.2854846546011278   -0.07391996371636167
-4.783952289565575   -0.2854846546011278   -0.07391996371636167
-4.783952289565575   -0.2854846546011278   -0.07391996371636167
-3.808197746142388   -0.08468552246778616   -0.03592637997340892
-3.808197746142388   -0.08468552246778616   -0.03592637997340892
-3.808197746142388   -0.08468552246778616   -0.03592637997340892
-3.808197746142388   -0.08468552246778616   -0.03592637997340892
-4.6984515620797245   -0.13887620359113928   0.20697522270285676
-4.6984515620797245   -0.13887620359113928   0.20697522270285676
-4.6984515620797245   -0.13887620359113928   0.20697522270285676
-4.6984515620797245   -0.13887620359113928   0.20697522270285676
-3.055598049414333   0.061554367320704295   -0.06707909425844327
-3.055598049414333   0.061554367320704295   -0.06707909425844327
-3.055598049414333   0.061554367320704295   -0.06707909425844327
-3.055598049414333   0.061554367320704295   -0.06707909425844327
-2.951587546380457   0.30028191952377825   0.1293065015240675
-2.951587546380457   0.30028191952377825   0.1293065015240675
-2.951587546380457   0.30028191952377825   0.1293065015240675
-2.951587546380457   0.30028191952377825   0.1293065015240675
-4.652586905790971   -0.23070137773873511   -0.12110645695377889
-4.652586905790971   -0.23070137773873511   -0.12110645695377889
-4.652586905790971   -0.23070137773873511   -0.12110645695377889
-4.652586905790971   -0.23070137773873511   -0.12110645695377889
-3.6631879574850834   0.033790041099892254   0.08105073678969263
-3.6631879574850834   0.033790041099892254   0.08105073678969263
-3.6631879574850834   0.033790041099892254   0.08105073678969263
-3.6631879574850834   0.033790041099892254   0.08105073678969263
-3.0552871639507404   -0.4047816742217777   -0.05364091042552965
-3.0552871639507404   -0.4047816742217777   -0.05364091042552965
-3.0552871639507404   -0.4047816742217777   -0.05364091042552965
-3.0552871639507404   -0.4047816742217777   -0.05364091042552965
-1.4066004879979328   -0.03079581831049305   0.01504290008616864
-1.4066004879979328   -0.03079581831049305   0.01504290008616864
-1.4066004879979328   -0.03079581831049305   0.01504290008616864
-1.4066004879979328   -0.03079581831049305   0.01504290008616864
-1.4276255984604298   0.027321729916313986   0.02110852263541442
-1.4276255984604298   0.027321729916313986   0.02110852263541442
-1.4276255984604298   0.027321729916313986   0.02110852263541442
-1.4276255984604298   0.027321729916313986   0.02110852263541442
-3.1160895293339665   -0.29636454661906525   -0.09169035405529048
-3.1160895293339665   -0.29636454661906525   -0.09169035405529048
-3.1160895293339665   -0.29636454661906525   -0.09169035405529048
-3.1160895293339665   -0.29636454661906525   -0.09169035405529048
-2.251303016612411   -0.182563061339223   -0.05141329332235384
-2.251303016612411   -0.182563061339223   -0.05141329332235384
-2.251303016612411   -0.182563061339223   -0.05141329332235384
-2.251303016612411   -0.182563061339223   -0.05141329332235384
-3.113235042075258   -0.32398196350824965   -0.049800500872575745
-3.113235042075258   -0.32398196350824965   -0.049800500872575745
-3.113235042075258   -0.32398196350824965   -0.049800500872575745
-3.113235042075258   -0.32398196350824965   -0.049800500872575745
-1.4249183639509848   0.06050086857365189   0.001465556525313369
-1.4249183639509848   0.06050086857365189   0.001465556525313369
-1.4249183639509848   0.06050086857365189   0.001465556525313369
-1.4249183639509848   0.06050086857365189   0.001465556525313369
-1.422613487482035   0.09922001159126526   0.028812504525172852
-1.422613487482035   0.09922001159126526   0.028812504525172852
-1.422613487482035   0.09922001159126526   0.028812504525172852
-1.422613487482035   0.09922001159126526   0.028812504525172852
-3.1177981553503487   -0.2173842119672343   -0.09914104465060837
-3.1177981553503487   -0.2173842119672343   -0.09914104465060837
-3.1177981553503487   -0.2173842119672343   -0.09914104465060837
-3.1177981553503487   -0.2173842119672343   -0.09914104465060837
-2.2473087010580777   -0.10168569245855413   -0.024427857252677418
-2.2473087010580777   -0.10168569245855413   -0.024427857252677418
-2.2473087010580777   -0.10168569245855413   -0.024427857252677418
-2.2473087010580777   -0.10168569245855413   -0.024427857252677418
-3.1056734947302997   -0.2452790678891183   -0.010622885628480364
-3.1056734947302997   -0.2452790678891183   -0.010622885628480364
-3.1056734947302997   -0.2452790678891183   -0.010622885628480364
-3.1056734947302997   -0.2452790678891183   -0.010622885628480364
-1.4244157245170612   0.13743729109817843   -0.0184159601568471
-1.4244157245170612   0.13743729109817843   -0.0184159601568471
-1.4244157245170612   0.13743729109817843   -0.0184159601568471
-1.4244157245170612   0.13743729109817843   -0.0184159601568471
-1.3991393825912577   0.17148065620512992   0.05807970495664093
-1.3991393825912577   0.17148065620512992   0.05807970495664093
-1.3991393825912577   0.17148065620512992   0.05807970495664093
-1.3991393825912577   0.17148065620512992   0.05807970495664093
-3.084824580043005   -0.1261345611804887   -0.11046218608441696
-3.084824580043005   -0.1261345611804887   -0.11046218608441696
-3.084824580043005   -0.1261345611804887   -0.11046218608441696
-3.084824580043005   -0.1261345611804887   -0.11046218608441696
-2.238321135025207   -0.025158096403834762   0.011255537617888903
-2.238321135025207   -0.025158096403834762   0.011255537617888903
-2.238321135025207   -0.025158096403834762   0.011255537617888903
-2.238321135025207   -0.025158096403834762   0.011255537617888903
-1.483413917193642   -0.33692214759032557   -0.06289791661255623
-1.483413917193642   -0.33692214759032557   -0.06289791661255623
-1.483413917193642   -0.33692214759032557   -0.06289791661255623
-1.483413917193642   -0.33692214759032557   -0.06289791661255623
0.15572104745890855   0.03541726755836811   0.057791695052812286
0.15572104745890855   0.03541726755836811   0.057791695052812286
0.15572104745890855   0.03541726755836811   0.057791695052812286
0.15572104745890855   0.03541726755836811   0.057791695052812286
0.1483535087253781   0.08523651678901069   0.004565688380545952
0.1483535087253781   0.08523651678901069   0.004565688380545952
0.1483535087253781   0.08523651678901069   0.004565688380545952
0.1483535087253781   0.08523651678901069   0.004565688380545952
-1.490009033539043   -0.2233393979011517   -0.04014752494018513
-1.490009033539043   -0.2233393979011517   -0.04014752494018513
-1.490009033539043   -0.2233393979011517   -0.04014752494018513
-1.490009033539043   -0.2233393979011517   -0.04014752494018513
-0.6737845007621798   -0.11157416108550289   -0.02121552943506038
-0.6737845007621798   -0.11157416108550289   -0.02121552943506038
-0.6737845007621798   -0.11157416108550289   -0.02121552943506038
-0.6737845007621798   -0.11157416108550289   -0.02121552943506038
-1.5003063107810972   -0.2570027054989293   -0.05797060355267849
-1.5003063107810972   -0.2570027054989293   -0.05797060355267849
-1.5003063107810972   -0.2570027054989293   -0.05797060355267849
-1.5003063107810972   -0.2570027054989293   -0.05797060355267849
0.16440071439736637   0.12464975281672228   0.04538848071277544
0.16440071439736637   0.12464975281672228   0.04538848071277544
0.16440071439736637   0.12464975281672228   0.04538848071277544
0.16440071439736637   0.12464975281672228   0.04538848071277544
0.15964927502282233   0.16441208740159932   0.026897435328098164
0.15964927502282233   0.16441208740159932   0.026897435328098164
0.15964927502282233   0.16441208740159932   0.026897435328098164
0.15964927502282233   0.16441208740159932   0.026897435328098164
-1.4855377559049323   -0.13652527534820166   -0.05006355064984685
-1.4855377559049323   -0.13652527534820166   -0.05006355064984685
-1.4855377559049323   -0.13652527534820166   -0.05006355064984685
-1.4855377559049323   -0.13652527534820166   -0.05006355064984685
-0.6635564578430316   -0.027409065950504727   0.008012969349650515
-0.6635564578430316   -0.027409065950504727   0.008012969349650515
-0.6635564578430316   -0.027409065950504727   0.008012969349650515
-0.6635564578430316   -0.027409065950504727   0.008012969349650515
-1.4894904909044469   -0.17672154420716546   -0.02963095678845637
-1.4894904909044469   -0.17672154420716546   -0.02963095678845637
-1.4894904909044469   -0.17672154420716546   -0.02963095678845637
-1.4894904909044469   -0.17672154420716546   -0.02963095678845637
0.1697856286213945   0.21079197485962042   0.031199315862936845
0.1697856286213945   0.21079197485962042   0.031199315862936845
0.1697856286213945   0.21079197485962042   0.031199315862936845
0.1697856286213945   0.21079197485962042   0.031199315862936845
0.16302371181909125   0.25252333745568567   0.044336229060539384
0.16302371181909125   0.25252333745568567   0.044336229060539384
0.16302371181909125   0.25252333745568567   0.044336229060539384
0.16302371181909125   0.25252333745568567   0.044336229060539384
-1.4663975745943023   -0.043692342051261934   -0.0630382568021834
-1.4663975745943023   -0.043692342051261934   -0.0630382568021834
-1.4663975745943023   -0.043692342051261934   -0.0630382568021834
-1.4663975745943023   -0.043692342051261934   -0.0630382568021834
-0.6472412987092984   0.06060948312702916   0.04001022447020727
-0.6472412987092984   0.06060948312702916   0.04001022447020727
-0.6472412987092984   0.06060948312702916   0.04001022447020727
-0.6472412987092984   0.06060948312702916   0.04001022447020727
0.07228916568223742   -0.24687996890524241   -0.07707047736693282
0.07228916568223742   -0.24687996890524241   -0.07707047736693282
0.07228916568223742   -0.24687996890524241   -0.07707047736693282
0.07228916568223742   -0.24687996890524241   -0.07707047736693282
1.7703018566154056   0.12238888602144243   0.10595061490332926
1.7703018566154056   0.12238888602144243   0.10595061490332926
1.7703018566154056   0.12238888602144243   0.10595061490332926
1.7703018566154056   0.12238888602144243   0.10595061490332926
1.767906512899063   0.1646559306542874   -0.016875906919322586
1.767906512899063   0.1646559306542874   -0.016875906919322586
1.767906512899063   0.1646559306542874   -0.016875906919322586
1.767906512899063   0.1646559306542874   -0.016875906919322586
0.10276911594123372   -0.14853134499064086   0.01041158623947553
0.10276911594123372   -0.14853134499064086   0.01041158623947553
0.10276911594123372   -0.14853134499064086   0.01041158623947553
0.10276911594123372   -0.14853134499064086   0.01041158623947553
0.9168978791715346   -0.0210141338271726   0.0020486979702162775
0.9168978791715346   -0.0210141338271726   0.0020486979702162775
0.9168978791715346   -0.0210141338271726   0.0020486979702162775
0.9168978791715346   -0.0210141338271726   0.0020486979702162775
0.08280756751872737   -0.1804784810088793   -0.057449019854816555
0.08280756751872737   -0.1804784810088793   -0.057449019854816555
0.08280756751872737   -0.1804784810088793   -0.057449019854816555
0.08280756751872737   -0.1804784810088793   -0.057449019854816555
1.7981824065953178   0.20691741194627214   0.09224208026995631
1.7981824065953178   0.20691741194627214   0.09224208026995631
1.7981824065953178   0.20691741194627214   0.09224208026995631
1.7981824065953178   0.20691741194627214   0.09224208026995631
1.7815310344540185   0.24294349956197767   0.01813168005194083
1.7815310344540185   0.24294349956197767   0.01813168005194083
1.7815310344540185   0.24294349956197767   0.01813168005194083
1.7815310344540185   0.24294349956197767   0.01813168005194083
0.10611687061907066   -0.07096188390236068   -0.005390615386700291
0.10611687061907066   -0.07096188390236068   -0.005390615386700291
0.10611687061907066   -0.07096188390236068   -0.005390615386700291
0.10611687061907066   -0.07096188390236068   -0.005390615386700291
0.9288205308783718   0.0538313759682254   0.03796815176340724
0.9288205308783718   0.0538313759682254   0.03796815176340724
0.9288205308783718   0.0538313759682254   0.03796815176340724
0.9288205308783718   0.0538313759682254   0.03796815176340724
0.09160757160386152   -0.10703943990955199   -0.04185955445555409
0.09160757160386152   -0.10703943990955199   -0.04185955445555409
0.09160757160386152   -0.10703943990955199   -0.04185955445555409
0.09160757160386152   -0.10703943990955199   -0.04185955445555409
1.803500962643862   0.28648168474379915   0.08444313581930743
1.803500962643862   0.28648168474379915   0.08444313581930743
1.803500962643862   0.28648168474379915   0.08444313581930743
1.803500962643862   0.28648168474379915   0.08444313581930743
1.752670810597943   0.3333077554588011   0.037967546236525464
1.752670810597943   0.3333077554588011   0.037967546236525464
1.752670810597943   0.3333077554588011   0.037967546236525464
1.752670810597943   0.3333077554588011   0.037967546236525464
0.10490409831870476   0.025164070153180784   -0.018902571138888265
0.10490409831870476   0.025164070153180784   -0.018902571138888265
0.10490409831870476   0.025164070153180784   -0.018902571138888265
0.10490409831870476   0.025164070153180784   -0.018902571138888265
0.9422467436211267   0.13940884384723828   0.07119802040209053
0.9422467436211267   0.13940884384723828   0.07119802040209053
0.9422467436211267   0.13940884384723828   0.07119802040209053
0.9422467436211267   0.13940884384723828   0.07119802040209053
1.6311727814111214   -0.3251266964574013   -0.14217917863924828
1.6311727814111214   -0.3251266964574013   -0.14217917863924828
1.6311727814111214   -0.3251266964574013   -0.14217917863924828
1.6311727814111214   -0.3251266964574013   -0.14217917863924828
3.3571254044870136   0.22172454520701346   0.10288590837597236
3.3571254044870136   0.22172454520701346   0.10288590837597236
3.3571254044870136   0.22172454520701346   0.10288590837597236
3.3571254044870136   0.22172454520701346   0.10288590837597236
3.394750793222998   0.10578776999117157   -0.21383622143093123
3.394750793222998   0.10578776999117157   -0.21383622143093123
3.394750793222998   0.10578776999117157   -0.21383622143093123
3.394750793222998   0.10578776999117157   -0.21383622143093123
1.7371907366211208   -0.0672078927957992   0.06140903514102396
1.7371907366211208   -0.0672078927957992   0.06140903514102396
1.7371907366211208   -0.0672078927957992   0.06140903514102396
1.7371907366211208   -0.0672078927957992   0.06140903514102396
2.4043456866194313   -0.041629031557845364   -0.05986993479095448
2.4043456866194313   -0.041629031557845364   -0.05986993479095448
2.4043456866194313   -0.041629031557845364   -0.05986993479095448
2.4043456866194313   -0.041629031557845364   -0.05986993479095448
1.6767343504138295   -0.2138870266855975   -0.09419376200561164
1.6767343504138295   -0.2138870266855975   -0.09419376200561164
1.6767343504138295   -0.2138870266855975   -0.09419376200561164
1.6767343504138295   -0.2138870266855975   -0.09419376200561164
3.4859585610132546   0.2832182854639395   0.06477210204758337
3.4859585610132546   0.2832182854639395   0.06477210204758337
3.4859585610132546   0.2832182854639395   0.06477210204758337
3.4859585610132546   0.2832182854639395   0.06477210204758337
3.4316307421874526   0.19193307645806768   -0.047974172492990935
3.4316307421874526   0.19193307645806768   -0.047974172492990935
3.4316307421874526   0.19193307645806768   -0.047974172492990935
3.4316307421874526   0.19193307645806768   -0.047974172492990935
1.7298997141687966   -0.02856956767301444   0.03148814586079399
1.7298997141687966   -0.02856956767301444   0.03148814586079399
1.7298997141687966   -0.02856956767301444   0.03148814586079399
1.7298997141687966   -0.02856956767301444   0.03148814586079399
2.529627116464879   0.06315532704225457   0.041495709747500914
2.529627116464879   0.06315532704225457   0.041495709747500914
2.529627116464879   0.06315532704225457   0.041495709747500914
2.529627116464879   0.06315532704225457   0.041495709747500914
1.681454886019251   -0.16364031065746687   -0.07566525190246612
1.681454886019251   -0.16364031065746687   -0.07566525190246612
1.681454886019251   -0.16364031065746687   -0.07566525190246612
1.681454886019251   -0.16364031065746687   -0.07566525190246612
3.4759649054604185   0.3228931545659437   0.042736565763962925
3.4759649054604185   0.3228931545659437   0.042736565763962925
3.4759649054604185   0.3228931545659437   0.042736565763962925
3.4759649054604185   0.3228931545659437   0.042736565763962925
3.4253028039455167   0.2930879040064986   -0.07361780900053506
3.4253028039455167   0.2930879040064986   -0.07361780900053506
3.4253028039455167   0.2930879040064986   -0.07361780900053506
3.4253028039455167   0.2930879040064986   -0.07361780900053506
1.6940147291782297   0.060621118682756214   0.017373775913972364
1.6940147291782297   0.060621118682756214   0.017373775913972364
1.6940147291782297   0.060621118682756214   0.017373775913972364
1.6940147291782297   0.060621118682756214   0.017373775913972364
2.4645366714783323   0.11047167976171773   0.03054169451624715
2.4645366714783323   0.11047167976171773   0.03054169451624715
2.4645366714783323   0.11047167976171773   0.03054169451624715
2.4645366714783323   0.11047167976171773   0.03054169451624715
-3.6867160119811246   -0.167615953140535   0.18887003914483297
-3.6867160119811246   -0.167615953140535   0.18887003914483297
-3.6867160119811246   -0.167615953140535   0.18887003914483297
-3.6867160119811246   -0.167615953140535   0.18887003914483297
-2.446988902273952   -0.09237333277849308   -0.04914516631448053
-2.446988902273952   -0.09237333277849308   -0.04914516631448053
-2.446988902273952   -0.09237333277849308   -0.04914516631448053
-2.446988902273952   -0.09237333277849308   -0.04914516631448053
-2.359259845541628   0.1980237554486134   0.15855324311671296
-2.359259845541628   0.1980237554486134   0.15855324311671296
-2.359259845541628   0.1980237554486134   0.15855324311671296
-2.359259845541628   0.1980237554486134   0.15855324311671296
-3.703872950585322   -0.2642209887263345   -0.07706318949134411
-3.703872950585322   -0.2642209887263345   -0.07706318949134411
-3.703872950585322   -0.2642209887263345   -0.07706318949134411
-3.703872950585322   -0.2642209887263345   -0.07706318949134411
-2.925299815037277   -0.0452431562235075   -0.004982899862231799
-2.925299815037277   -0.0452431562235075   -0.004982899862231799
-2.925299815037277   -0.0452431562235075   -0.004982899862231799
-2.925299815037277   -0.0452431562235075   -0.004982899862231799
-3.6012033218657145   -0.039718996136228646   0.21178296151658885
-3.6012033218657145   -0.039718996136228646   0.21178296151658885
-3.6012033218657145   -0.039718996136228646   0.21178296151658885
-3.6012033218657145   -0.039718996136228646   0.21178296151658885
-2.4457498260969945   -0.01029858897725111   -0.06557431523425494
-2.4457498260969945   -0.01029858897725111   -0.06557431523425494
-2.4457498260969945   -0.01029858897725111   -0.06557431523425494
-2.4457498260969945   -0.01029858897725111   -0.06557431523425494
-2.3498072221715773   0.24553661301735707   0.1470413069820642
-2.3498072221715773   0.24553661301735707   0.1470413069820642
-2.3498072221715773   0.24553661301735707   0.1470413069820642
-2.3498072221715773   0.24553661301735707   0.1470413069820642
-3.646903717624392   -0.22117140557373316   -0.1055778014681246
-3.646903717624392   -0.22117140557373316   -0.1055778014681246
-3.646903717624392   -0.22117140557373316   -0.1055778014681246
-3.646903717624392   -0.22117140557373316   -0.1055778014681246
-2.9318536957157515   0.010585452316465904   0.03399541240570103
-2.9318536957157515   0.010585452316465904   0.03399541240570103
-2.9318536957157515   0.010585452316465904   0.03399541240570103
-2.9318536957157515   0.010585452316465904   0.03399541240570103
-3.5512706969601835   0.00509902993255007   0.14631686634663565
-3.5512706969601835   0.00509902993255007   0.14631686634663565
-3.5512706969601835   0.00509902993255007   0.14631686634663565
-3.5512706969601835   0.00509902993255007   0.14631686634663565
-2.4401055518220294   0.02460086852483423   -0.08351459677765052
-2.4401055518220294   0.02460086852483423   -0.08351459677765052
-2.4401055518220294   0.02460086852483423   -0.08351459677765052
-2.4401055518220294   0.02460086852483423   -0.08351459677765052
-2.3522342308763906   0.27692396649160156   0.11666758928332396
-2.3522342308763906   0.27692396649160156   0.11666758928332396
-2.3522342308763906   0.27692396649160156   0.11666758928332396
-2.3522342308763906   0.27692396649160156   0.11666758928332396
-3.572848359826339   -0.17553008239119572   -0.13469153495512862
-3.572848359826339   -0.17553008239119572   -0.13469153495512862
-3.572848359826339   -0.17553008239119572   -0.13469153495512862
-3.572848359826339   -0.17553008239119572   -0.13469153495512862
-2.8478669667039402   0.06053129887176345   0.07038437134389353
-2.8478669667039402   0.06053129887176345   0.07038437134389353
-2.8478669667039402   0.06053129887176345   0.07038437134389353
-2.8478669667039402   0.06053129887176345   0.07038437134389353
-2.4545624026150703   -0.23272831784238623   0.05334231704382464
-2.4545624026150703   -0.23272831784238623   0.05334231704382464
-2.4545624026150703   -0.23272831784238623   0.05334231704382464
-2.4545624026150703   -0.23272831784238623   0.05334231704382464
-1.2382496473811293   -0.044439114085968345   0.0024374593327531058
-1.2382496473811293   -0.044439114085968345   0.0024374593327531058
-1.2382496473811293   -0.044439114085968345   0.0024374593327531058
-1.2382496473811293   -0.044439114085968345   0.0024374593327531058
-1.203360207308732   0.12175980476485548   0.08620208083907853
-1.203360207308732   0.12175980476485548   0.08620208083907853
-1.203360207308732   0.12175980476485548   0.08620208083907853
-1.203360207308732   0.12175980476485548   0.08620208083907853
-2.4936593975029955   -0.22951346869745082   -0.08590729254408147
-2.4936593975029955   -0.22951346869745082   -0.08590729254408147
-2.4936593975029955   -0.22951346869745082   -0.08590729254408147
-2.4936593975029955   -0.22951346869745082   -0.08590729254408147
-1.8408493627373206   -0.09032910860535226   -0.037105643348997866
-1.8408493627373206   -0.09032910860535226   -0.037105643348997866
-1.8408493627373206   -0.09032910860535226   -0.037105643348997866
-1.8408493627373206   -0.09032910860535226   -0.037105643348997866
-2.447003922818631   -0.13386502672406625   0.05172163890436875
-2.447003922818631   -0.13386502672406625   0.05172163890436875
-2.447003922818631   -0.13386502672406625   0.05172163890436875
-2.447003922818631   -0.13386502672406625   0.05172163890436875
-1.2405456169402287   0.0355814278443477   -0.013546590397886374
-1.2405456169402287   0.0355814278443477   -0.013546590397886374
-1.2405456169402287   0.0355814278443477   -0.013546590397886374
-1.2405456169402287   0.0355814278443477   -0.013546590397886374
-1.199684193894413   0.2009887839775562   0.0746099736174086
-1.199684193894413   0.2009887839775562   0.0746099736174086
-1.199684193894413   0.2009887839775562   0.0746099736174086
-1.199684193894413   0.2009887839775562   0.0746099736174086
-2.4797117181013784   -0.15553131984158813   -0.10141323980799839
-2.4797117181013784   -0.15553131984158813   -0.10141323980799839
-2.4797117181013784   -0.15553131984158813   -0.10141323980799839
-2.4797117181013784   -0.15553131984158813   -0.10141323980799839
-1.8209013971066135   -0.010114020309126281   -2.6915468443425294e-05
-1.8209013971066135   -0.010114020309126281   -2.6915468443425294e-05
-1.8209013971066135   -0.010114020309126281   -2.6915468443425294e-05
-1.8209013971066135   -0.010114020309126281   -2.6915468443425294e-05
-2.432099431803501   -0.05349406996648309   0.034610941806284934
-2.432099431803501   -0.05349406996648309   0.034610941806284934
-2.432099431803501   -0.05349406996648309   0.034610941806284934
-2.432099431803501   -0.05349406996648309   0.034610941806284934
-1.2395840580992428   0.10666395619551022   -0.030564519624672687
-1.2395840580992428   0.10666395619551022   -0.030564519624672687
-1.2395840580992428   0.10666395619551022   -0.030564519624672687
-1.2395840580992428   0.10666395619551022   -0.030564519624672687
-1.1994603763942828   0.2842169239747436   0.05593103604302238
-1.1994603763942828   0.2842169239747436   0.05593103604302238
-1.1994603763942828   0.2842169239747436   0.05593103604302238
-1.1994603763942828   0.2842169239747436   0.05593103604302238
-2.4679301624329355   -0.0757403411691761   -0.1091477608386346
-2.4679301624329355   -0.0757403411691761   -0.1091477608386346
-2.4679301624329355   -0.0757403411691761   -0.1091477608386346
-2.4679301624329355   -0.0757403411691761   -0.1091477608386346
-1.8222480318506744   0.0633940990495852   0.028287741221976623
-1.8222480318506744   0.0633940990495852   0.028287741221976623
-1.8222480318506744   0.0633940990495852   0.028287741221976623
-1.8222480318506744   0.0633940990495852   0.028287741221976623
-1.2844889959216839   -0.2656856330162598   -0.007512764439734922
-1.2844889959216839   -0.2656856330162598   -0.007512764439734922
-1.2844889959216839   -0.2656856330162598   -0.007512764439734922
-1.2844889959216839   -0.2656856330162598   -0.007512764439734922
-0.04080153270363469   0.01357740946188097   0.05486704472002725
-0.04080153270363469   0.01357740946188097   0.05486704472002725
-0.04080153270363469   0.01357740946188097   0.05486704472002725
-0.04080153270363469   0.01357740946188097   0.05486704472002725
-0.04562861873556212   0.07880609552919834   0.026199527408084195
-0.04562861873556212   0.07880609552919834   0.026199527408084195
-0.04562861873556212   0.07880609552919834   0.026199527408084195
-0.04562861873556212   0.07880609552919834   0.026199527408084195
-1.2854848119604503   -0.17044948907395055   -0.032211648580707526
-1.2854848119604503   -0.17044948907395055   -0.032211648580707526
-1.2854848119604503   -0.17044948907395055   -0.032211648580707526
-1.2854848119604503   -0.17044948907395055   -0.032211648580707526
-0.6661283881814515   -0.08316449452846417   -0.020727968789956357
-0.6661283881814515   -0.08316449452846417   -0.020727968789956357
-0.6661283881814515   -0.08316449452846417   -0.020727968789956357
-0.6661283881814515   -0.08316449452846417   -0.020727968789956357
-1.2841026023118336   -0.17773218712498973   -0.018017902286584717
-1.2841026023118336   -0.17773218712498973   -0.018017902286584717
-1.2841026023118336   -0.17773218712498973   -0.018017902286584717
-1.2841026023118336   -0.17773218712498973   -0.018017902286584717
-0.03994802970358662   0.0931515922608298   0.04025697583633067
-0.03994802970358662   0.0931515922608298   0.04025697583633067
-0.03994802970358662   0.0931515922608298   0.04025697583633067
-0.03994802970358662   0.0931515922608298   0.04025697583633067
-0.039906442354849685   0.16513866380373102   0.012624831559733977
-0.039906442354849685   0.16513866380373102   0.012624831559733977
-0.039906442354849685   0.16513866380373102   0.012624831559733977
-0.039906442354849685   0.16513866380373102   0.012624831559733977
-1.2823899657513373   -0.09074862996722538   -0.04718147172242272
-1.2823899657513373   -0.09074862996722538   -0.04718147172242272
-1.2823899657513373   -0.09074862996722538   -0.04718147172242272
-1.2823899657513373   -0.09074862996722538   -0.04718147172242272
-0.6597878431128403   -0.0033142438303407074   0.009223227988456408
-0.6597878431128403   -0.0033142438303407074   0.009223227988456408
-0.6597878431128403   -0.0033142438303407074   0.009223227988456408
-0.6597878431128403   -0.0033142438303407074   0.009223227988456408
-1.2804558525455412   -0.0926234097320727   -0.03563612592859327
-1.2804558525455412   -0.0926234097320727   -0.03563612592859327
-1.2804558525455412   -0.0926234097320727   -0.03563612592859327
-1.2804558525455412   -0.0926234097320727   -0.03563612592859327
-0.03600739175263841   0.1728466073765862   0.024412140997936156
-0.03600739175263841   0.1728466073765862   0.024412140997936156
-0.03600739175263841   0.1728466073765862   0.024412140997936156
-0.03600739175263841   0.1728466073765862   0.024412140997936156
-0.03879748001871407   0.25406269589259456   -0.001863161658489279
-0.03879748001871407   0.25406269589259456   -0.001863161658489279
-0.03879748001871407   0.25406269589259456   -0.001863161658489279
-0.03879748001871407   0.25406269589259456   -0.001863161658489279
-1.2818850642494244   -0.009681639303448453   -0.06229383995450072
-1.2818850642494244   -0.009681639303448453   -0.06229383995450072
-1.2818850642494244   -0.009681639303448453   -0.06229383995450072
-1.2818850642494244   -0.009681639303448453   -0.06229383995450072
-0.6548943409764371   0.07661095337987864   0.036686662712194375
-0.6548943409764371   0.07661095337987864   0.036686662712194375
-0.6548943409764371   0.07661095337987864   0.036686662712194375
-0.6548943409764371   0.07661095337987864   0.036686662712194375
-0.1253497973313937   -0.2906591179499696   -0.06363775100691649
-0.1253497973313937   -0.2906591179499696   -0.06363775100691649
-0.1253497973313937   -0.2906591179499696   -0.06363775100691649
-0.1253497973313937   -0.2906591179499696   -0.06363775100691649
1.1523954203829978   0.08153760638124843   0.10428617700976489
1.1523954203829978   0.08153760638124843   0.10428617700976489
1.1523954203829978   0.08153760638124843   0.10428617700976489
1.1523954203829978   0.08153760638124843   0.10428617700976489
1.114745837443115   0.04359792586953856   -0.04091878096150888
1.114745837443115   0.04359792586953856   -0.04091878096150888
1.114745837443115   0.04359792586953856   -0.04091878096150888
1.114745837443115   0.04359792586953856   -0.04091878096150888
-0.08350079208098887   -0.1066391289516925   0.022283885161841713
-0.08350079208098887   -0.1066391289516925   0.022283885161841713
-0.08350079208098887   -0.1066391289516925   0.022283885161841713
-0.08350079208098887   -0.1066391289516925   0.022283885161841713
0.5073027976297154   -0.06701991756080582   -0.011652328004179265
0.5073027976297154   -0.06701991756080582   -0.011652328004179265
0.5073027976297154   -0.06701991756080582   -0.011652328004179265
0.5073027976297154   -0.06701991756080582   -0.011652328004179265
-0.12503001984691642   -0.2121448049333864   -0.07985657768610208
-0.12503001984691642   -0.2121448049333864   -0.07985657768610208
-0.12503001984691642   -0.2121448049333864   -0.07985657768610208
-0.12503001984691642   -0.2121448049333864   -0.07985657768610208
1.1643066085330147   0.1571351451752045   0.09334785518232312
1.1643066085330147   0.1571351451752045   0.09334785518232312
1.1643066085330147   0.1571351451752045   0.09334785518232312
1.1643066085330147   0.1571351451752045   0.09334785518232312
1.1325168240770294   0.12389721473122897   -0.05749507567671078
1.1325168240770294   0.12389721473122897   -0.05749507567671078
1.1325168240770294   0.12389721473122897   -0.05749507567671078
1.1325168240770294   0.12389721473122897   -0.05749507567671078
-0.08124245388997574   -0.03523694571587557   0.006320383403711776
-0.08124245388997574   -0.03523694571587557   0.006320383403711776
-0.08124245388997574   -0.03523694571587557   0.006320383403711776
-0.08124245388997574   -0.03523694571587557   0.006320383403711776
0.5115483889152733   0.00517444198543493   0.01809244014533014
0.5115483889152733   0.00517444198543493   0.01809244014533014
0.5115483889152733   0.00517444198543493   0.01809244014533014
0.5115483889152733   0.00517444198543493   0.01809244014533014
-0.12162775152563106   -0.13466774612670773   -0.09617530436373391
-0.12162775152563106   -0.13466774612670773   -0.09617530436373391
-0.12162775152563106   -0.13466774612670773   -0.09617530436373391
-0.12162775152563106   -0.13466774612670773   -0.09617530436373391
1.181653262455945   0.23207915588532138   0.08000517506377561
1.181653262455945   0.23207915588532138   0.08000517506377561
1.181653262455945   0.23207915588532138   0.08000517506377561
1.181653262455945   0.23207915588532138   0.08000517506377561
1.1433974785200332   0.22465466753164953   -0.05994296444788827
1.1433974785200332   0.22465466753164953   -0.05994296444788827
1.1433974785200332   0.22465466753164953   -0.05994296444788827
1.1433974785200332   0.22465466753164953   -0.05994296444788827
-0.08150416976325187   0.04826885132576726   -0.009602765814350319
-0.08150416976325187   0.04826885132576726   -0.009602765814350319
-0.08150416976325187   0.04826885132576726   -0.009602765814350319
-0.08150416976325187   0.04826885132576726   -0.009602765814350319
0.5289782247629365   0.0857484992759242   0.05344527211082856
0.5289782247629365   0.0857484992759242   0.05344527211082856
0.5289782247629365   0.0857484992759242   0.05344527211082856
0.5289782247629365   0.0857484992759242   0.05344527211082856
1.0327937232859865   -0.28846326093932484   -0.12372144115470729
1.0327937232859865   -0.28846326093932484   -0.12372144115470729
1.0327937232859865   -0.28846326093932484   -0.12372144115470729
1.0327937232859865   -0.28846326093932484   -0.12372144115470729
2.268527740395454   0.1685126113437337   0.11568855128308707
2.268527740395454   0.1685126113437337   0.11568855128308707
2.268527740395454   0.1685126113437337   0.11568855128308707
2.268527740395454   0.1685126113437337   0.11568855128308707
2.250783608747543   -0.009704788918108387   -0.16466831759694384
2.250783608747543   -0.009704788918108387   -0.16466831759694384
2.250783608747543   -0.009704788918108387   -0.16466831759694384
2.250783608747543   -0.009704788918108387   -0.16466831759694384
1.124824639531622   -0.024492786843890058   0.07756594219446203
1.124824639531622   -0.024492786843890058   0.07756594219446203
1.124824639531622   -0.024492786843890058   0.07756594219446203
1.124824639531622   -0.024492786843890058   0.07756594219446203
1.5882207548073703   -0.056032777114984944   -0.051928527876250546
1.5882207548073703   -0.056032777114984944   -0.051928527876250546
1.5882207548073703   -0.056032777114984944   -0.051928527876250546
1.5882207548073703   -0.056032777114984944   -0.051928527876250546
1.0336484175720642   -0.2506331287693835   -0.15217482567782556
1.0336484175720642   -0.2506331287693835   -0.15217482567782556
1.0336484175720642   -0.2506331287693835   -0.15217482567782556
1.0336484175720642   -0.2506331287693835   -0.15217482567782556
2.348516763065306   0.22299248536558902   0.0913001797081737
2.348516763065306   0.22299248536558902   0.0913001797081737
2.348516763065306   0.22299248536558902   0.0913001797081737
2.348516763065306   0.22299248536558902   0.0913001797081737
2.3054698263740074   0.03609683875131087   -0.2207499342227903
2.3054698263740074   0.03609683875131087   -0.2207499342227903
2.3054698263740074   0.03609683875131087   -0.2207499342227903
2.3054698263740074   0.03609683875131087   -0.2207499342227903
1.1328683682580813   0.010438901556254487   0.05772095840354645
1.1328683682580813   0.010438901556254487   0.05772095840354645
1.1328683682580813   0.010438901556254487   0.05772095840354645
1.1328683682580813   0.010438901556254487   0.05772095840354645
1.6596628463895868   -0.006561806178095708   -0.01594343712765607
1.6596628463895868   -0.006561806178095708   -0.01594343712765607
1.6596628463895868   -0.006561806178095708   -0.01594343712765607
1.6596628463895868   -0.006561806178095708   -0.01594343712765607
1.0451514032575937   -0.20491821002995314   -0.1655067550126967
1.0451514032575937   -0.20491821002995314   -0.1655067550126967
1.0451514032575937   -0.20491821002995314   -0.1655067550126967
1.0451514032575937   -0.20491821002995314   -0.1655067550126967
2.407662655309436   0.26592981427246604   0.060381234933218994
2.407662655309436   0.26592981427246604   0.060381234933218994
2.407662655309436   0.26592981427246604   0.060381234933218994
2.407662655309436   0.26592981427246604   0.060381234933218994
2.392331311505884   0.1553082533098608   -0.207507133278159
2.392331311505884   0.1553082533098608   -0.207507133278159
2.392331311505884   0.1553082533098608   -0.207507133278159
2.392331311505884   0.1553082533098608   -0.207507133278159
1.1364293962925112   0.08777226774345914   0.04209902420271641
1.1364293962925112   0.08777226774345914   0.04209902420271641
1.1364293962925112   0.08777226774345914   0.04209902420271641
1.1364293962925112   0.08777226774345914   0.04209902420271641
1.6714867627675578   0.05007636498064216   0.023805535462581073
1.6714867627675578   0.05007636498064216   0.023805535462581073
1.6714867627675578   0.05007636498064216   0.023805535462581073
1.6714867627675578   0.05007636498064216   0.023805535462581073
-2.6391773891977297   -0.08670622166048353   0.17137887619934455
-2.6391773891977297   -0.08670622166048353   0.17137887619934455
-2.6391773891977297   -0.08670622166048353   0.17137887619934455
-2.6391773891977297   -0.08670622166048353   0.17137887619934455
-1.8446181547373328   -0.12272228611633257   -0.06484531079138295
-1.8446181547373328   -0.12272228611633257   -0.06484531079138295
-1.8446181547373328   -0.12272228611633257   -0.06484531079138295
-1.8446181547373328   -0.12272228611633257   -0.06484531079138295
-1.736535037686572   0.1738992566493991   0.14620012448857395
-1.736535037686572   0.1738992566493991   0.14620012448857395
-1.736535037686572   0.1738992566493991   0.14620012448857395
-1.736535037686572   0.1738992566493991   0.14620012448857395
-2.639405110939784   -0.21714487890762513   -0.09482838803161342
-2.639405110939784   -0.21714487890762513   -0.09482838803161342
-2.639405110939784   -0.21714487890762513   -0.09482838803161342
-2.639405110939784   -0.21714487890762513   -0.09482838803161342
-2.1240872415156855   -0.033964865726242244   -0.004284531195250421
-2.1240872415156855   -0.033964865726242244   -0.004284531195250421
-2.1240872415156855   -0.033964865726242244   -0.004284531195250421
-2.1240872415156855   -0.033964865726242244   -0.004284531195250421
-2.5411217688186793   0.016358811882099755   0.16308463178418448
-2.5411217688186793   0.016358811882099755   0.16308463178418448
-2.5411217688186793   0.016358811882099755   0.16308463178418448
-2.5411217688186793   0.016358811882099755   0.16308463178418448
-1.8268313989859424   -0.05161745331858869   -0.07976497204027283
-1.8268313989859424   -0.05161745331858869   -0.07976497204027283
-1.8268313989859424   -0.05161745331858869   -0.07976497204027283
-1.8268313989859424   -0.05161745331858869   -0.07976497204027283
-1.7201988092502307   0.21000443498003507   0.12359649292655508
-1.7201988092502307   0.21000443498003507   0.12359649292655508
-1.7201988092502307   0.21000443498003507   0.12359649292655508
-1.7201988092502307   0.21000443498003507   0.12359649292655508
-2.5771901941803663   -0.17690965524608238   -0.11994040710705658
-2.5771901941803663   -0.17690965524608238   -0.11994040710705658
-2.5771901941803663   -0.17690965524608238   -0.11994040710705658
-2.5771901941803663   -0.17690965524608238   -0.11994040710705658
-2.109422677367775   0.01368238623773732   0.02255439750625557
-2.109422677367775   0.01368238623773732   0.02255439750625557
-2.109422677367775   0.01368238623773732   0.02255439750625557
-2.109422677367775   0.01368238623773732   0.02255439750625557
-2.479714354196058   0.05957321243269964   0.13095592513570517
-2.479714354196058   0.05957321243269964   0.13095592513570517
-2.479714354196058   0.05957321243269964   0.13095592513570517
-2.479714354196058   0.05957321243269964   0.13095592513570517
-1.810445507896797   -0.019249291361002063   -0.09838327396522475
-1.810445507896797   -0.019249291361002063   -0.09838327396522475
-1.810445507896797   -0.019249291361002063   -0.09838327396522475
-1.810445507896797   -0.019249291361002063   -0.09838327396522475
-1.7111448666634832   0.24502124639814526   0.10636161582872014
-1.7111448666634832   0.24502124639814526   0.10636161582872014
-1.7111448666634832   0.24502124639814526   0.10636161582872014
-1.7111448666634832   0.24502124639814526   0.10636161582872014
-2.49378896079646   -0.12377894072395501   -0.1436403439688044
-2.49378896079646   -0.12377894072395501   -0.1436403439688044
-2.49378896079646   -0.12377894072395501   -0.1436403439688044
-2.49378896079646   -0.12377894072395501   -0.1436403439688044
-2.0303971698291505   0.05826343678366319   0.06028816353110747
-2.0303971698291505   0.05826343678366319   0.06028816353110747
-2.0303971698291505   0.05826343678366319   0.06028816353110747
-2.0303971698291505   0.05826343678366319   0.06028816353110747
-1.8241577603342867   -0.14930112793470862   0.06403550304220948
-1.8241577603342867   -0.14930112793470862   0.06403550304220948
-1.8241577603342867   -0.14930112793470862   0.06403550304220948
-1.8241577603342867   -0.14930112793470862   0.06403550304220948
-1.0560023076866258   -0.0795341236078784   -0.01045845045917932
-1.0560023076866258   -0.0795341236078784   -0.01045845045917932
-1.0560023076866258   -0.0795341236078784   -0.01045845045917932
-1.0560023076866258   -0.0795341236078784   -0.01045845045917932
-1.0023893460411972   0.10168902977844976   0.07883514837362315
-1.0023893460411972   0.10168902977844976   0.07883514837362315
-1.0023893460411972   0.10168902977844976   0.07883514837362315
-1.0023893460411972   0.10168902977844976   0.07883514837362315
-1.8515026765167528   -0.17755087924077487   -0.07718793377215541
-1.8515026765167528   -0.17755087924077487   -0.07718793377215541
-1.8515026765167528   -0.17755087924077487   -0.07718793377215541
-1.8515026765167528   -0.17755087924077487   -0.07718793377215541
-1.4276929400198888   -0.06973794929933927   -0.02897905071229271
-1.4276929400198888   -0.06973794929933927   -0.02897905071229271
-1.4276929400198888   -0.06973794929933927   -0.02897905071229271
-1.4276929400198888   -0.06973794929933927   -0.02897905071229271
-1.802829005156695   -0.06370001913492018   0.052329562922271144
-1.802829005156695   -0.06370001913492018   0.052329562922271144
-1.802829005156695   -0.06370001913492018   0.052329562922271144
-1.802829005156695   -0.06370001913492018   0.052329562922271144
-1.0448225530792519   -0.005921366005403245   -0.025720491032798075
-1.0448225530792519   -0.005921366005403245   -0.025720491032798075
-1.0448225530792519   -0.005921366005403245   -0.025720491032798075
-1.0448225530792519   -0.005921366005403245   -0.025720491032798075
-0.9896330873310593   0.17569893777614282   0.06465941751030654
-0.9896330873310593   0.17569893777614282   0.06465941751030654
-0.9896330873310593   0.17569893777614282   0.06465941751030654
-0.9896330873310593   0.17569893777614282   0.06465941751030654
-1.8266350207733626   -0.10764826997919014   -0.09093185972988023
-1.8266350207733626   -0.10764826997919014   -0.09093185972988023
-1.8266350207733626   -0.10764826997919014   -0.09093185972988023
-1.8266350207733626   -0.10764826997919014   -0.09093185972988023
-1.40029063053202   0.0030764704370693785   0.002297130912164602
-1.40029063053202   0.0030764704370693785   0.002297130912164602
-1.40029063053202   0.0030764704370693785   0.002297130912164602
-1.40029063053202   0.0030764704370693785   0.002297130912164602
-1.774276657695587   0.015400564447614618   0.04781112123219325
-1.774276657695587   0.015400564447614618   0.04781112123219325
-1.774276657695587   0.015400564447614618   0.04781112123219325
-1.774276657695587   0.015400564447614618   0.04781112123219325
-1.0342416486489454   0.06039990510922899   -0.04308435641220194
-1.0342416486489454   0.06039990510922899   -0.04308435641220194
-1.0342416486489454   0.06039990510922899   -0.04308435641220194
-1.0342416486489454   0.06039990510922899   -0.04308435641220194
-0.9773102938454368   0.25450486782651455   0.05145841555228939
-0.9773102938454368   0.25450486782651455   0.05145841555228939
-0.9773102938454368   0.25450486782651455   0.05145841555228939
-0.9773102938454368   0.25450486782651455   0.05145841555228939
-1.8080002899335408   -0.03237490168586887   -0.1005193524375469
-1.8080002899335408   -0.03237490168586887   -0.1005193524375469
-1.8080002899335408   -0.03237490168586887   -0.1005193524375469
-1.8080002899335408   -0.03237490168586887   -0.1005193524375469
-1.3897026396715455   0.07151947314371843   0.03205297279339339
-1.3897026396715455   0.07151947314371843   0.03205297279339339
-1.3897026396715455   0.07151947314371843   0.03205297279339339
-1.3897026396715455   0.07151947314371843   0.03205297279339339
-1.0784099035578008   -0.20443648694795988   0.002405933525019721
-1.0784099035578008   -0.20443648694795988   0.002405933525019721
-1.0784099035578008   -0.20443648694795988   0.002405933525019721
-1.0784099035578008   -0.20443648694795988   0.002405933525019721
-0.27569394815350845   -0.02345446399574729   0.04400818352226
-0.27569394815350845   -0.02345446399574729   0.04400818352226
-0.27569394815350845   -0.02345446399574729   0.04400818352226
-0.27569394815350845   -0.02345446399574729   0.04400818352226
-0.2688468302126316   0.042321810059296694   0.015006865337710236
-0.2688468302126316   0.042321810059296694   0.015006865337710236
-0.2688468302126316   0.042321810059296694   0.015006865337710236
-0.2688468302126316   0.042321810059296694   0.015006865337710236
-1.0665727877490006   -0.11977275719739135   -0.020620273189556868
-1.0665727877490006   -0.11977275719739135   -0.020620273189556868
-1.0665727877490006   -0.11977275719739135   -0.020620273189556868
-1.0665727877490006   -0.11977275719739135   -0.020620273189556868
-0.673518662720066   -0.07308603620293733   -0.020574424319279076
-0.673518662720066   -0.07308603620293733   -0.020574424319279076
-0.673518662720066   -0.07308603620293733   -0.020574424319279076
-0.673518662720066   -0.07308603620293733   -0.020574424319279076
-1.0648446322863536   -0.12185797836477699   -0.009894274708936286
-1.0648446322863536   -0.12185797836477699   -0.009894274708936286
-1.0648446322863536   -0.12185797836477699   -0.009894274708936286
-1.0648446322863536   -0.12185797836477699   -0.009894274708936286
-0.2643191451964509   0.05066287170551015   0.029304228772400766
-0.2643191451964509   0.05066287170551015   0.029304228772400766
-0.2643191451964509   0.05066287170551015   0.029304228772400766
-0.2643191451964509   0.05066287170551015   0.029304228772400766
-0.25344787226877713   0.12527231338332956   0.003981151547791752
-0.25344787226877713   0.12527231338332956   0.003981151547791752
-0.25344787226877713   0.12527231338332956   0.003981151547791752
-0.25344787226877713   0.12527231338332956   0.003981151547791752
-1.0538065094542164   -0.045146455185521794   -0.03536230014381467
-1.0538065094542164   -0.045146455185521794   -0.03536230014381467
-1.0538065094542164   -0.045146455185521794   -0.03536230014381467
-1.0538065094542164   -0.045146455185521794   -0.03536230014381467
-0.6570739944067895   0.0014863697649853125   0.008889503398850758
-0.6570739944067895   0.0014863697649853125   0.008889503398850758
-0.6570739944067895   0.0014863697649853125   0.008889503398850758
-0.6570739944067895   0.0014863697649853125   0.008889503398850758
-1.0498982986860543   -0.03917295208949134   -0.02179474939903532
-1.0498982986860543   -0.03917295208949134   -0.02179474939903532
-1.0498982986860543   -0.03917295208949134   -0.02179474939903532
-1.0498982986860543   -0.03917295208949134   -0.02179474939903532
-0.25158040259572867   0.12507449072850485   0.013516322567861366
-0.25158040259572867   0.12507449072850485   0.013516322567861366
-0.25158040259572867   0.12507449072850485   0.013516322567861366
-0.25158040259572867   0.12507449072850485   0.013516322567861366
-0.23964329105041926   0.20942563672902648   -0.008999232991131187
-0.23964329105041926   0.20942563672902648   -0.008999232991131187
-0.23964329105041926   0.20942563672902648   -0.008999232991131187
-0.23964329105041926   0.20942563672902648   -0.008999232991131187
-1.0425853742881708   0.03035080310585281   -0.05076292194072225
-1.0425853742881708   0.03035080310585281   -0.05076292194072225
-1.0425853742881708   0.03035080310585281   -0.05076292194072225
-1.0425853742881708   0.03035080310585281   -0.05076292194072225
-0.6420578757567572   0.07641567926904555   0.03727481382385176
-0.6420578757567572   0.07641567926904555   0.03727481382385176
-0.6420578757567572   0.07641567926904555   0.03727481382385176
-0.6420578757567572   0.07641567926904555   0.03727481382385176
-0.34130711443449113   -0.24963546529990246   -0.05787664657850073
-0.34130711443449113   -0.24963546529990246   -0.05787664657850073
-0.34130711443449113   -0.24963546529990246   -0.05787664657850073
-0.34130711443449113   -0.24963546529990246   -0.05787664657850073
0.4946741220092908   0.03946727664227258   0.09545568531962143
0.4946741220092908   0.03946727664227258   0.09545568531962143
0.4946741220092908   0.03946727664227258   0.09545568531962143
0.4946741220092908   0.03946727664227258   0.09545568531962143
0.4606450628721983   -0.012855227236616876   -0.05294246121596728
0.4606450628721983   -0.012855227236616876   -0.05294246121596728
0.4606450628721983   -0.012855227236616876   -0.05294246121596728
0.4606450628721983   -0.012855227236616876   -0.05294246121596728
-0.28488427096691465   -0.05809961677761294   0.03524108840320487
-0.28488427096691465   -0.05809961677761294   0.03524108840320487
-0.28488427096691465   -0.05809961677761294   0.03524108840320487
-0.28488427096691465   -0.05809961677761294   0.03524108840320487
0.07914378435614473   -0.06833559252912116   -0.014629189709043481
0.07914378435614473   -0.06833559252912116   -0.014629189709043481
0.07914378435614473   -0.06833559252912116   -0.014629189709043481
0.07914378435614473   -0.06833559252912116   -0.014629189709043481
-0.32945270705864277   -0.17452202562183444   -0.07117868321121418
-0.32945270705864277   -0.17452202562183444   -0.07117868321121418
-0.32945270705864277   -0.17452202562183444   -0.07117868321121418
-0.32945270705864277   -0.17452202562183444   -0.07117868321121418
0.512660311162499   0.11101399380617595   0.08326455919273566
0.512660311162499   0.11101399380617595   0.08326455919273566
0.512660311162499   0.11101399380617595   0.08326455919273566
0.512660311162499   0.11101399380617595   0.08326455919273566
0.4892624914493303   0.06560663251808176   -0.059966670765838295
0.4892624914493303   0.06560663251808176   -0.059966670765838295
0.4892624914493303   0.06560663251808176   -0.059966670765838295
0.4892624914493303   0.06560663251808176   -0.059966670765838295
-0.27376875346616586   0.008639438472353891   0.01900962047182652
-0.27376875346616586   0.008639438472353891   0.01900962047182652
-0.27376875346616586   0.008639438472353891   0.01900962047182652
-0.27376875346616586   0.008639438472353891   0.01900962047182652
0.09434469106793095   -0.0007597051122685029   0.015330431074112253
0.09434469106793095   -0.0007597051122685029   0.015330431074112253
0.09434469106793095   -0.0007597051122685029   0.015330431074112253
0.09434469106793095   -0.0007597051122685029   0.015330431074112253
-0.31677847076818966   -0.10090677607120727   -0.08649275149473279
-0.31677847076818966   -0.10090677607120727   -0.08649275149473279
-0.31677847076818966   -0.10090677607120727   -0.08649275149473279
-0.31677847076818966   -0.10090677607120727   -0.08649275149473279
0.5387290884622897   0.18160972677257764   0.07136322004445911
0.5387290884622897   0.18160972677257764   0.07136322004445911
0.5387290884622897   0.18160972677257764   0.07136322004445911
0.5387290884622897   0.18160972677257764   0.07136322004445911
0.5122934423498934   0.1550962530045485   -0.06926336953358932
0.5122934423498934   0.1550962530045485   -0.06926336953358932
0.5122934423498934   0.1550962530045485   -0.06926336953358932
0.5122934423498934   0.1550962530045485   -0.06926336953358932
-0.261885590632205   0.08564543251174943   0.0035694733172150217
-0.261885590632205   0.08564543251174943   0.0035694733172150217
-0.261885590632205   0.08564543251174943   0.0035694733172150217
-0.261885590632205   0.08564543251174943   0.0035694733172150217
0.1178977530564449   0.07283568115005694   0.04638250420396293
0.1178977530564449   0.07283568115005694   0.04638250420396293
0.1178977530564449   0.07283568115005694   0.04638250420396293
0.1178977530564449   0.07283568115005694   0.04638250420396293
0.3944241786479399   -0.2522593018594643   -0.11406745298538847
0.3944241786479399   -0.2522593018594643   -0.11406745298538847
0.3944241786479399   -0.2522593018594643   -0.11406745298538847
0.3944241786479399   -0.2522593018594643   -0.11406745298538847
1.1807032007973373   0.1161680314690468   0.12336804190438812
1.1807032007973373   0.1161680314690468   0.12336804190438812
1.1807032007973373   0.1161680314690468   0.12336804190438812
1.1807032007973373   0.1161680314690468   0.12336804190438812
1.1690946890774871   -0.06117925169110436   -0.15013643158747467
1.1690946890774871   -0.06117925169110436   -0.15013643158747467
1.1690946890774871   -0.06117925169110436   -0.15013643158747467
1.1690946890774871   -0.06117925169110436   -0.15013643158747467
0.4963359043266835   0.02063494363766437   0.09202157518217755
0.4963359043266835   0.02063494363766437   0.09202157518217755
0.4963359043266835   0.02063494363766437   0.09202157518217755
0.4963359043266835   0.02063494363766437   0.09202157518217755
0.7679370066863437   -0.051923685151798404   -0.040330957990854885
0.7679370066863437   -0.051923685151798404   -0.040330957990854885
0.7679370066863437   -0.051923685151798404   -0.040330957990854885
0.7679370066863437   -0.051923685151798404   -0.040330957990854885
0.4053630565284536   -0.21028319659806474   -0.13192452357324294
0.4053630565284536   -0.21028319659806474   -0.13192452357324294
0.4053630565284536   -0.21028319659806474   -0.13192452357324294
0.4053630565284536   -0.21028319659806474   -0.13192452357324294
1.267660254546662   0.17733160621557337   0.10418053785174425
1.267660254546662   0.17733160621557337   0.10418053785174425
1.267660254546662   0.17733160621557337   0.10418053785174425
1.267660254546662   0.17733160621557337   0.10418053785174425
1.2323402745799306   -0.017205866533836267   -0.17997478836878716
1.2323402745799306   -0.017205866533836267   -0.17997478836878716
1.2323402745799306   -0.017205866533836267   -0.17997478836878716
1.2323402745799306   -0.017205866533836267   -0.17997478836878716
0.5130437969538629   0.05284002640427475   0.07170646287062822
0.5130437969538629   0.05284002640427475   0.07170646287062822
0.5130437969538629   0.05284002640427475   0.07170646287062822
0.5130437969538629   0.05284002640427475   0.07170646287062822
0.8319828253755768   -0.007625943730897755   -0.004995354161119028
0.8319828253755768   -0.007625943730897755   -0.004995354161119028
0.8319828253755768   -0.007625943730897755   -0.004995354161119028
0.8319828253755768   -0.007625943730897755   -0.004995354161119028
0.4228104788930511   -0.1737007401694044   -0.15291936085974833
0.4228104788930511   -0.1737007401694044   -0.15291936085974833
0.4228104788930511   -0.1737007401694044   -0.15291936085974833
0.4228104788930511   -0.1737007401694044   -0.15291936085974833
1.3304776800057718   0.2172389874048754   0.0762673848217227
1.3304776800057718   0.2172389874048754   0.0762673848217227
1.3304776800057718   0.2172389874048754   0.0762673848217227
1.3304776800057718   0.2172389874048754   0.0762673848217227
1.3293650181735273   0.07942368355148718   -0.19257951863815928
1.3293650181735273   0.07942368355148718   -0.19257951863815928
1.3293650181735273   0.07942368355148718   -0.19257951863815928
1.3293650181735273   0.07942368355148718   -0.19257951863815928
0.5301477968160003   0.11814969953399947   0.05695495626748713
0.5301477968160003   0.11814969953399947   0.05695495626748713
0.5301477968160003   0.11814969953399947   0.05695495626748713
0.5301477968160003   0.11814969953399947   0.05695495626748713
0.8636712027309243   0.04126790054288362   0.025348447421767256
0.8636712027309243   0.04126790054288362   0.025348447421767256
0.8636712027309243   0.04126790054288362   0.025348447421767256
0.8636712027309243   0.04126790054288362   0.025348447421767256
-1.5856681642491441   -0.027180865044594382   0.15391180407911925
-1.5856681642491441   -0.027180865044594382   0.15391180407911925
-1.5856681642491441   -0.027180865044594382   0.15391180407911925
-1.5856681642491441   -0.027180865044594382   0.15391180407911925
-1.234262122859694   -0.15622775920839949   -0.07634669566751837
-1.234262122859694   -0.15622775920839949   -0.07634669566751837
-1.234262122859694   -0.15622775920839949   -0.07634669566751837
-1.234262122859694   -0.15622775920839949   -0.07634669566751837
-1.1173303860446557   0.13256987886646687   0.13167067594371845
-1.1173303860446557   0.13256987886646687   0.13167067594371845
-1.1173303860446557   0.13256987886646687   0.13167067594371845
-1.1173303860446557   0.13256987886646687   0.13167067594371845
-1.578842415589966   -0.17188817876888235   -0.10383617223228646
-1.578842415589966   -0.17188817876888235   -0.10383617223228646
-1.578842415589966   -0.17188817876888235   -0.10383617223228646
-1.578842415589966   -0.17188817876888235   -0.10383617223228646
-1.3261252690641323   -0.03663192059598119   -0.019113223680188085
-1.3261252690641323   -0.03663192059598119   -0.019113223680188085
-1.3261252690641323   -0.03663192059598119   -0.019113223680188085
-1.3261252690641323   -0.03663192059598119   -0.019113223680188085
-1.481724666081678   0.06277480581531064   0.1470895907249597
-1.481724666081678   0.06277480581531064   0.1470895907249597
-1.481724666081678   0.06277480581531064   0.1470895907249597
-1.481724666081678   0.06277480581531064   0.1470895907249597
-1.207724217873055   -0.09536918803782612   -0.0923594162939776
-1.207724217873055   -0.09536918803782612   -0.0923594162939776
-1.207724217873055   -0.09536918803782612   -0.0923594162939776
-1.207724217873055   -0.09536918803782612   -0.0923594162939776
-1.0894711141895805   0.16690453884378187   0.11141148335147824
-1.0894711141895805   0.16690453884378187   0.11141148335147824
-1.0894711141895805   0.16690453884378187   0.11141148335147824
-1.0894711141895805   0.16690453884378187   0.11141148335147824
-1.5065173865200934   -0.13298690416100079   -0.12980454271511382
-1.5065173865200934   -0.13298690416100079   -0.12980454271511382
-1.5065173865200934   -0.13298690416100079   -0.12980454271511382
-1.5065173865200934   -0.13298690416100079   -0.12980454271511382
-1.288321197100931   0.008340899507419786   0.00954520655693164
-1.288321197100931   0.008340899507419786   0.00954520655693164
-1.288321197100931   0.008340899507419786   0.00954520655693164
-1.288321197100931   0.008340899507419786   0.00954520655693164
-1.4092907464535525   0.10443888867667234   0.11890286477990256
-1.4092907464535525   0.10443888867667234   0.11890286477990256
-1.4092907464535525   0.10443888867667234   0.11890286477990256
-1.4092907464535525   0.10443888867667234   0.11890286477990256
-1.1803242015913098   -0.0641477013290796   -0.11180171348429119
-1.1803242015913098   -0.0641477013290796   -0.11180171348429119
-1.1803242015913098   -0.0641477013290796   -0.11180171348429119
-1.1803242015913098   -0.0641477013290796   -0.11180171348429119
-1.0668627625118923   0.20955311917032532   0.09609375721802929
-1.0668627625118923   0.20955311917032532   0.09609375721802929
-1.0668627625118923   0.20955311917032532   0.09609375721802929
-1.0668627625118923   0.20955311917032532   0.09609375721802929
-1.4093307780112108   -0.0707299880014422   -0.15024648272764107
-1.4093307780112108   -0.0707299880014422   -0.15024648272764107
-1.4093307780112108   -0.0707299880014422   -0.15024648272764107
-1.4093307780112108   -0.0707299880014422   -0.15024648272764107
-1.2119160927837873   0.052620319865409215   0.04515450628862323
-1.2119160927837873   0.052620319865409215   0.04515450628862323
-1.2119160927837873   0.052620319865409215   0.04515450628862323
-1.2119160927837873   0.052620319865409215   0.04515450628862323
-1.191280033927058   -0.09002565067223042   0.0723616404594925
-1.191280033927058   -0.09002565067223042   0.0723616404594925
-1.191280033927058   -0.09002565067223042   0.0723616404594925
-1.191280033927058   -0.09002565067223042   0.0723616404594925
-0.8722752178046828   -0.1184815759117638   -0.022618688155374617
-0.8722752178046828   -0.1184815759117638   -0.022618688155374617
-0.8722752178046828   -0.1184815759117638   -0.022618688155374617
-0.8722752178046828   -0.1184815759117638   -0.022618688155374617
-0.8069717811229565   0.06025394011191859   0.06730526759751548
-0.8069717811229565   0.06025394011191859   0.06730526759751548
-0.8069717811229565   0.06025394011191859   0.06730526759751548
-0.8069717811229565   0.06025394011191859   0.06730526759751548
-1.2086460139042476   -0.12696638537751437   -0.06537119911025209
-1.2086460139042476   -0.12696638537751437   -0.06537119911025209
-1.2086460139042476   -0.12696638537751437   -0.06537119911025209
-1.2086460139042476   -0.12696638537751437   -0.06537119911025209
-1.0169197706822093   -0.06341891919644002   -0.027251864721863542
-1.0169197706822093   -0.06341891919644002   -0.027251864721863542
-1.0169197706822093   -0.06341891919644002   -0.027251864721863542
-1.0169197706822093   -0.06341891919644002   -0.027251864721863542
-1.160167207441426   -0.01152909092168286   0.06158553874800853
-1.160167207441426   -0.01152909092168286   0.06158553874800853
-1.160167207441426   -0.01152909092168286   0.06158553874800853
-1.160167207441426   -0.01152909092168286   0.06158553874800853
-0.8500266819408315   -0.04975944869898438   -0.037955847680956674
-0.8500266819408315   -0.04975944869898438   -0.037955847680956674
-0.8500266819408315   -0.04975944869898438   -0.037955847680956674
-0.8500266819408315   -0.04975944869898438   -0.037955847680956674
-0.7829332013183887   0.13004874621028312   0.053851401762511866
-0.7829332013183887   0.13004874621028312   0.053851401762511866
-0.7829332013183887   0.13004874621028312   0.053851401762511866
-0.7829332013183887   0.13004874621028312   0.053851401762511866
-1.1727421984248525   -0.05979185348692284   -0.07824754549415494
-1.1727421984248525   -0.05979185348692284   -0.07824754549415494
-1.1727421984248525   -0.05979185348692284   -0.07824754549415494
-1.1727421984248525   -0.05979185348692284   -0.07824754549415494
-0.9822302327377731   0.0039492599953817875   0.0029227088662962877
-0.9822302327377731   0.0039492599953817875   0.0029227088662962877
-0.9822302327377731   0.0039492599953817875   0.0029227088662962877
-0.9822302327377731   0.0039492599953817875   0.0029227088662962877
-1.1214212451407597   0.06274494215098275   0.055820425288381145
-1.1214212451407597   0.06274494215098275   0.055820425288381145
-1.1214212451407597   0.06274494215098275   0.055820425288381145
-1.1214212451407597   0.06274494215098275   0.055820425288381145
-0.8279921192155366   0.013773985959317364   -0.05516842747226991
-0.8279921192155366   0.013773985959317364   -0.05516842747226991
-0.8279921192155366   0.013773985959317364   -0.05516842747226991
-0.8279921192155366   0.013773985959317364   -0.05516842747226991
-0.7589738743922883   0.20574176603473726   0.041037570624231134
-0.7589738743922883   0.20574176603473726   0.041037570624231134
-0.7589738743922883   0.20574176603473726   0.041037570624231134
-0.7589738743922883   0.20574176603473726   0.041037570624231134
-1.1430528600414698   0.013511911374159025   -0.08881552263367698
-1.1430528600414698   0.013511911374159025   -0.08881552263367698
-1.1430528600414698   0.013511911374159025   -0.08881552263367698
-1.1430528600414698   0.013511911374159025   -0.08881552263367698
-0.9571216363370638   0.0699132332537076   0.032408886494590464
-0.9571216363370638   0.0699132332537076   0.032408886494590464
-0.9571216363370638   0.0699132332537076   0.032408886494590464
-0.9571216363370638   0.0699132332537076   0.032408886494590464
-0.8713025375652196   -0.14885432596376263   0.012617463093925084
-0.8713025375652196   -0.14885432596376263   0.012617463093925084
-0.8713025375652196   -0.14885432596376263   0.012617463093925084
-0.8713025375652196   -0.14885432596376263   0.012617463093925084
-0.515348536331179   -0.06217915253001744   0.032080801627040814
-0.515348536331179   -0.06217915253001744   0.032080801627040814
-0.515348536331179   -0.06217915253001744   0.032080801627040814
-0.515348536331179   -0.06217915253001744   0.032080801627040814
-0.4973992866618725   -0.0009816673105282891   0.004161675157630228
-0.4973992866618725   -0.0009816673105282891   0.004161675157630228
-0.4973992866618725   -0.0009816673105282891   0.004161675157630228
-0.4973992866618725   -0.0009816673105282891   0.004161675157630228
-0.8476090812990652   -0.06803178958267472   -0.007595503588434825
-0.8476090812990652   -0.06803178958267472   -0.007595503588434825
-0.8476090812990652   -0.06803178958267472   -0.007595503588434825
-0.8476090812990652   -0.06803178958267472   -0.007595503588434825
-0.6839962870422682   -0.06674507674219499   -0.019824556660716378
-0.6839962870422682   -0.06674507674219499   -0.019824556660716378
-0.6839962870422682   -0.06674507674219499   -0.019824556660716378
-0.6839962870422682   -0.06674507674219499   -0.019824556660716378
-0.84662231746803   -0.07149775275538992   0.0008042787394490006
-0.84662231746803   -0.07149775275538992   0.0008042787394490006
-0.84662231746803   -0.07149775275538992   0.0008042787394490006
-0.84662231746803   -0.07149775275538992   0.0008042787394490006
-0.49299392316775437   0.007876423187354278   0.017330402130338016
-0.49299392316775437   0.007876423187354278   0.017330402130338016
-0.49299392316775437   0.007876423187354278   0.017330402130338016
-0.49299392316775437   0.007876423187354278   0.017330402130338016
-0.4713084854057459   0.07706288221960751   -0.00681363716663877
-0.4713084854057459   0.07706288221960751   -0.00681363716663877
-0.4713084854057459   0.07706288221960751   -0.00681363716663877
-0.4713084854057459   0.07706288221960751   -0.00681363716663877
-0.8235291395601534   0.0030207551908236485   -0.022100298426859434
-0.8235291395601534   0.0030207551908236485   -0.022100298426859434
-0.8235291395601534   0.0030207551908236485   -0.022100298426859434
-0.8235291395601534   0.0030207551908236485   -0.022100298426859434
-0.6564862404702416   0.003453274300988518   0.009422952047588598
-0.6564862404702416   0.003453274300988518   0.009422952047588598
-0.6564862404702416   0.003453274300988518   0.009422952047588598
-0.6564862404702416   0.003453274300988518   0.009422952047588598
-0.8206893401727663   0.006311107866419419   -0.011191654165528045
-0.8206893401727663   0.006311107866419419   -0.011191654165528045
-0.8206893401727663   0.006311107866419419   -0.011191654165528045
-0.8206893401727663   0.006311107866419419   -0.011191654165528045
-0.46927304013955984   0.07864777419757905   0.0017786971863241394
-0.46927304013955984   0.07864777419757905   0.0017786971863241394
-0.46927304013955984   0.07864777419757905   0.0017786971863241394
-0.46927304013955984   0.07864777419757905   0.0017786971863241394
-0.44666795421451344   0.15581630659209955   -0.01935282458317665
-0.44666795421451344   0.15581630659209955   -0.01935282458317665
-0.44666795421451344   0.15581630659209955   -0.01935282458317665
-0.44666795421451344   0.15581630659209955   -0.01935282458317665
-0.800921939484752   0.07462349992885822   -0.03758448873220481
-0.800921939484752   0.07462349992885822   -0.03758448873220481
-0.800921939484752   0.07462349992885822   -0.03758448873220481
-0.800921939484752   0.07462349992885822   -0.03758448873220481
-0.6304526041713382   0.07390275048249953   0.0374950149201038
-0.6304526041713382   0.07390275048249953   0.0374950149201038
-0.6304526041713382   0.07390275048249953   0.0374950149201038
-0.6304526041713382   0.07390275048249953   0.0374950149201038
-0.5588989676315892   -0.1999238165256907   -0.0479266908793456
-0.5588989676315892   -0.1999238165256907   -0.0479266908793456
-0.5588989676315892   -0.1999238165256907   -0.0479266908793456
-0.5588989676315892   -0.1999238165256907   -0.0479266908793456
-0.16799911311423135   -0.002389229008187242   0.0841492967142275
-0.16799911311423135   -0.002389229008187242   0.0841492967142275
-0.16799911311423135   -0.002389229008187242   0.0841492967142275
-0.16799911311423135   -0.002389229008187242   0.0841492967142275
-0.19159188852676298   -0.058778700409825364   -0.06144671219800892
-0.19159188852676298   -0.058778700409825364   -0.06144671219800892
-0.19159188852676298   -0.058778700409825364   -0.06144671219800892
-0.19159188852676298   -0.058778700409825364   -0.06144671219800892
-0.48995202906084967   -0.007649698112413589   0.04806599396462589
-0.48995202906084967   -0.007649698112413589   0.04806599396462589
-0.48995202906084967   -0.007649698112413589   0.04806599396462589
-0.48995202906084967   -0.007649698112413589   0.04806599396462589
-0.35209905339904357   -0.06424658941900618   -0.014300790393459113
-0.35209905339904357   -0.06424658941900618   -0.014300790393459113
-0.35209905339904357   -0.06424658941900618   -0.014300790393459113
-0.35209905339904357   -0.06424658941900618   -0.014300790393459113
-0.5356324026998482   -0.12741214606116985   -0.060573426281615474
-0.5356324026998482   -0.12741214606116985   -0.060573426281615474
-0.5356324026998482   -0.12741214606116985   -0.060573426281615474
-0.5356324026998482   -0.12741214606116985   -0.060573426281615474
-0.13986675118250613   0.06702851124418396   0.07137176286927
-0.13986675118250613   0.06702851124418396   0.07137176286927
-0.13986675118250613   0.06702851124418396   0.07137176286927
-0.13986675118250613   0.06702851124418396   0.07137176286927
-0.15353368209846602   0.015051167716037685   -0.06916680467748498
-0.15353368209846602   0.015051167716037685   -0.06916680467748498
-0.15353368209846602   0.015051167716037685   -0.06916680467748498
-0.15353368209846602   0.015051167716037685   -0.06916680467748498
-0.4677194443837412   0.05615369742776731   0.03204075273522478
-0.4677194443837412   0.05615369742776731   0.03204075273522478
-0.4677194443837412   0.05615369742776731   0.03204075273522478
-0.4677194443837412   0.05615369742776731   0.03204075273522478
-0.32287658818920495   0.0011003584061201749   0.015493666883000749
-0.32287658818920495   0.0011003584061201749   0.015493666883000749
-0.32287658818920495   0.0011003584061201749   0.015493666883000749
-0.32287658818920495   0.0011003584061201749   0.015493666883000749
-0.5119512687924498   -0.0578266025528113   -0.0751380693277461
-0.5119512687924498   -0.0578266025528113   -0.0751380693277461
-0.5119512687924498   -0.0578266025528113   -0.0751380693277461
-0.5119512687924498   -0.0578266025528113   -0.0751380693277461
-0.10367587559578653   0.13465744979059702   0.06051594576135709
-0.10367587559578653   0.13465744979059702   0.06051594576135709
-0.10367587559578653   0.13465744979059702   0.06051594576135709
-0.10367587559578653   0.13465744979059702   0.06051594576135709
-0.12133294570864422   0.09754983375433729   -0.07746116539337575
-0.12133294570864422   0.09754983375433729   -0.07746116539337575
-0.12133294570864422   0.09754983375433729   -0.07746116539337575
-0.12133294570864422   0.09754983375433729   -0.07746116539337575
-0.44496041081709375   0.12840794232059988   0.01659325667542151
-0.44496041081709375   0.12840794232059988   0.01659325667542151
-0.44496041081709375   0.12840794232059988   0.01659325667542151
-0.44496041081709375   0.12840794232059988   0.01659325667542151
-0.2925807507699733   0.0692945737602643   0.04531844520681634
-0.2925807507699733   0.0692945737602643   0.04531844520681634
-0.2925807507699733   0.0692945737602643   0.04531844520681634
-0.2925807507699733   0.0692945737602643   0.04531844520681634
-0.24817314391770837   -0.21508571926426318   -0.10402436704708556
-0.24817314391770837   -0.21508571926426318   -0.10402436704708556
-0.24817314391770837   -0.21508571926426318   -0.10402436704708556
-0.24817314391770837   -0.21508571926426318   -0.10402436704708556
0.0959596166259564   0.06434927266597519   0.128062955203469
0.0959596166259564   0.06434927266597519   0.128062955203469
0.0959596166259564   0.06434927266597519   0.128062955203469
0.0959596166259564   0.06434927266597519   0.128062955203469
0.09683258432004409   -0.10520622180945313   -0.1376809320467705
0.09683258432004409   -0.10520622180945313   -0.1376809320467705
0.09683258432004409   -0.10520622180945313   -0.1376809320467705
0.09683258432004409   -0.10520622180945313   -0.1376809320467705
-0.13334061523951207   0.06622675978134293   0.10480419404707739
-0.13334061523951207   0.06622675978134293   0.10480419404707739
-0.13334061523951207   0.06622675978134293   0.10480419404707739
-0.13334061523951207   0.06622675978134293   0.10480419404707739
-0.05037269220342158   -0.045409917519941626   -0.02453897444774636
-0.05037269220342158   -0.045409917519941626   -0.02453897444774636
-0.05037269220342158   -0.045409917519941626   -0.02453897444774636
-0.05037269220342158   -0.045409917519941626   -0.02453897444774636
-0.2246372439127477   -0.16587869912850745   -0.11957349040925035
-0.2246372439127477   -0.16587869912850745   -0.11957349040925035
-0.2246372439127477   -0.16587869912850745   -0.11957349040925035
-0.2246372439127477   -0.16587869912850745   -0.11957349040925035
0.1945954306102001   0.1333654547173074   0.11256162287724898
0.1945954306102001   0.1333654547173074   0.11256162287724898
0.1945954306102001   0.1333654547173074   0.11256162287724898
0.1945954306102001   0.1333654547173074   0.11256162287724898
0.16954723796563068   -0.0628981826135552   -0.16348802323028924
0.16954723796563068   -0.0628981826135552   -0.16348802323028924
0.16954723796563068   -0.0628981826135552   -0.16348802323028924
0.16954723796563068   -0.0628981826135552   -0.16348802323028924
-0.10652185049045279   0.09692373359981694   0.08401978747880572
-0.10652185049045279   0.09692373359981694   0.08401978747880572
-0.10652185049045279   0.09692373359981694   0.08401978747880572
-0.10652185049045279   0.09692373359981694   0.08401978747880572
0.009574202295810082   -0.001916136416838291   0.007788352383183454
0.009574202295810082   -0.001916136416838291   0.007788352383183454
0.009574202295810082   -0.001916136416838291   0.007788352383183454
0.009574202295810082   -0.001916136416838291   0.007788352383183454
-0.19657132982995668   -0.13107088887532914   -0.1382329867435715
-0.19657132982995668   -0.13107088887532914   -0.1382329867435715
-0.19657132982995668   -0.13107088887532914   -0.1382329867435715
-0.19657132982995668   -0.13107088887532914   -0.1382329867435715
0.26606263906187716   0.1715623616183341   0.0846284380190616
0.26606263906187716   0.1715623616183341   0.0846284380190616
0.26606263906187716   0.1715623616183341   0.0846284380190616
0.26606263906187716   0.1715623616183341   0.0846284380190616
0.27130073012091843   0.01998555668150109   -0.17501869129992284
0.27130073012091843   0.01998555668150109   -0.17501869129992284
0.27130073012091843   0.01998555668150109   -0.17501869129992284
0.27130073012091843   0.01998555668150109   -0.17501869129992284
-0.08145510821221603   0.15120770546929552   0.0682701503738109
-0.08145510821221603   0.15120770546929552   0.0682701503738109
-0.08145510821221603   0.15120770546929552   0.0682701503738109
-0.08145510821221603   0.15120770546929552   0.0682701503738109
0.0633304216419491   0.04384761001349144   0.039331004700615416
0.0633304216419491   0.04384761001349144   0.039331004700615416
0.0633304216419491   0.04384761001349144   0.039331004700615416
0.0633304216419491   0.04384761001349144   0.039331004700615416
-0.5294374308948532   0.02926146917726541   0.14627475429596565
-0.5294374308948532   0.02926146917726541   0.14627475429596565
-0.5294374308948532   0.02926146917726541   0.14627475429596565
-0.5294374308948532   0.02926146917726541   0.14627475429596565
-0.6244310456537291   -0.19094117098820443   -0.08644006728953073
-0.6244310456537291   -0.19094117098820443   -0.08644006728953073
-0.6244310456537291   -0.19094117098820443   -0.08644006728953073
-0.6244310456537291   -0.19094117098820443   -0.08644006728953073
-0.49852454566690685   0.08890823331742763   0.11982801827620444
-0.49852454566690685   0.08890823331742763   0.11982801827620444
-0.49852454566690685   0.08890823331742763   0.11982801827620444
-0.49852454566690685   0.08890823331742763   0.11982801827620444
-0.5139823270899779   -0.1262282200931652   -0.11128299381282027
-0.5139823270899779   -0.1262282200931652   -0.11128299381282027
-0.5139823270899779   -0.1262282200931652   -0.11128299381282027
-0.5139823270899779   -0.1262282200931652   -0.11128299381282027
-0.5277430186260705   -0.040621346344526355   -0.03978330998911134
-0.5277430186260705   -0.040621346344526355   -0.03978330998911134
-0.5277430186260705   -0.040621346344526355   -0.03978330998911134
-0.5277430186260705   -0.040621346344526355   -0.03978330998911134
-0.41754902306068103   0.10839066285960974   0.13626464338088923
-0.41754902306068103   0.10839066285960974   0.13626464338088923
-0.41754902306068103   0.10839066285960974   0.13626464338088923
-0.41754902306068103   0.10839066285960974   0.13626464338088923
-0.588948879759759   -0.13970167969890127   -0.10368373917171947
-0.588948879759759   -0.13970167969890127   -0.10368373917171947
-0.588948879759759   -0.13970167969890127   -0.10368373917171947
-0.588948879759759   -0.13970167969890127   -0.10368373917171947
-0.4594378060032245   0.12256693877387369   0.10088509144232846
-0.4594378060032245   0.12256693877387369   0.10088509144232846
-0.4594378060032245   0.12256693877387369   0.10088509144232846
-0.4594378060032245   0.12256693877387369   0.10088509144232846
-0.4306573569262988   -0.08818951491371835   -0.13870585374742128
-0.4306573569262988   -0.08818951491371835   -0.13870585374742128
-0.4306573569262988   -0.08818951491371835   -0.13870585374742128
-0.4306573569262988   -0.08818951491371835   -0.13870585374742128
-0.46626296565859293   0.002417419188625619   -0.008063400403381753
-0.46626296565859293   0.002417419188625619   -0.008063400403381753
-0.46626296565859293   0.002417419188625619   -0.008063400403381753
-0.46626296565859293   0.002417419188625619   -0.008063400403381753
-0.3336305501709277   0.14933258722917547   0.10890607788654058
-0.3336305501709277   0.14933258722917547   0.10890607788654058
-0.3336305501709277   0.14933258722917547   0.10890607788654058
-0.3336305501709277   0.14933258722917547   0.10890607788654058
-0.5507870827772217   -0.10927763338763606   -0.12401672026614834
-0.5507870827772217   -0.10927763338763606   -0.12401672026614834
-0.5507870827772217   -0.10927763338763606   -0.12401672026614834
-0.5507870827772217   -0.10927763338763606   -0.12401672026614834
-0.42364328412814545   0.17388500976617735   0.08714101222739155
-0.42364328412814545   0.17388500976617735   0.08714101222739155
-0.42364328412814545   0.17388500976617735   0.08714101222739155
-0.42364328412814545   0.17388500976617735   0.08714101222739155
-0.3194514565994061   -0.015874286337144453   -0.1562815807070691
-0.3194514565994061   -0.015874286337144453   -0.1562815807070691
-0.3194514565994061   -0.015874286337144453   -0.1562815807070691
-0.3194514565994061   -0.015874286337144453   -0.1562815807070691
-0.3922468869753699   0.047322827334470186   0.02594045092889699
-0.3922468869753699   0.047322827334470186   0.02594045092889699
-0.3922468869753699   0.047322827334470186   0.02594045092889699
-0.3922468869753699   0.047322827334470186   0.02594045092889699
-0.559325196101774   -0.03478186003642739   0.08292986951846
-0.559325196101774   -0.03478186003642739   0.08292986951846
-0.559325196101774   -0.03478186003642739   0.08292986951846
-0.559325196101774   -0.03478186003642739   0.08292986951846
-0.6909915026285117   -0.15572653781171317   -0.03377936582186307
-0.6909915026285117   -0.15572653781171317   -0.03377936582186307
-0.6909915026285117   -0.15572653781171317   -0.03377936582186307
-0.6909915026285117   -0.15572653781171317   -0.03377936582186307
-0.6155582368147253   0.01584334844524385   0.05558969291401687
-0.6155582368147253   0.01584334844524385   0.05558969291401687
-0.6155582368147253   0.01584334844524385   0.05558969291401687
-0.6155582368147253   0.01584334844524385   0.05558969291401687
-0.5653383097533577   -0.07408273577232483   -0.05124983306628206
-0.5653383097533577   -0.07408273577232483   -0.05124983306628206
-0.5653383097533577   -0.07408273577232483   -0.05124983306628206
-0.5653383097533577   -0.07408273577232483   -0.05124983306628206
-0.6081823495673717   -0.05745045151871497   -0.02811827410837181
-0.6081823495673717   -0.05745045151871497   -0.02811827410837181
-0.6081823495673717   -0.05745045151871497   -0.02811827410837181
-0.6081823495673717   -0.05745045151871497   -0.02811827410837181
-0.5180530171747081   0.03870436050114097   0.0723895335534852
-0.5180530171747081   0.03870436050114097   0.0723895335534852
-0.5180530171747081   0.03870436050114097   0.0723895335534852
-0.5180530171747081   0.03870436050114097   0.0723895335534852
-0.6581410669695528   -0.0922412854044145   -0.049239824010473957
-0.6581410669695528   -0.0922412854044145   -0.049239824010473957
-0.6581410669695528   -0.0922412854044145   -0.049239824010473957
-0.6581410669695528   -0.0922412854044145   -0.049239824010473957
-0.5806364689272479   0.08276418587889633   0.04242692183733621
-0.5806364689272479   0.08276418587889633   0.04242692183733621
-0.5806364689272479   0.08276418587889633   0.04242692183733621
-0.5806364689272479   0.08276418587889633   0.04242692183733621
-0.5187500131980892   -0.00950447986542391   -0.06360452589269006
-0.5187500131980892   -0.00950447986542391   -0.06360452589269006
-0.5187500131980892   -0.00950447986542391   -0.06360452589269006
-0.5187500131980892   -0.00950447986542391   -0.06360452589269006
-0.5665193349418516   0.005065807720461751   0.0011820130274435778
-0.5665193349418516   0.005065807720461751   0.0011820130274435778
-0.5665193349418516   0.005065807720461751   0.0011820130274435778
-0.5665193349418516   0.005065807720461751   0.0011820130274435778
-0.4691705793858877   0.1096080100668986   0.06518015323598736
-0.4691705793858877   0.1096080100668986   0.06518015323598736
-0.4691705793858877   0.1096080100668986   0.06518015323598736
-0.4691705793858877   0.1096080100668986   0.06518015323598736
-0.6252048618844085   -0.03133726319839823   -0.06631359387118091
-0.6252048618844085   -0.03133726319839823   -0.06631359387118091
-0.6252048618844085   -0.03133726319839823   -0.06631359387118091
-0.6252048618844085   -0.03133726319839823   -0.06631359387118091
-0.5455511727626798   0.15675869404368747   0.029916703435175468
-0.5455511727626798   0.15675869404368747   0.029916703435175468
-0.5455511727626798   0.15675869404368747   0.029916703435175468
-0.5455511727626798   0.15675869404368747   0.029916703435175468
-0.4784864845224538   0.062092578299751594   -0.07528255827771722
-0.4784864845224538   0.062092578299751594   -0.07528255827771722
-0.4784864845224538   0.062092578299751594   -0.07528255827771722
-0.4784864845224538   0.062092578299751594   -0.07528255827771722
-0.5271371612229165   0.06954339546570709   0.030973838859351406
-0.5271371612229165   0.06954339546570709   0.030973838859351406
-0.5271371612229165   0.06954339546570709   0.030973838859351406
-0.5271371612229165   0.06954339546570709   0.030973838859351406
-0.6673206173912336   -0.09435002046405311   0.023198543016855817
-0.6673206173912336   -0.09435002046405311   0.023198543016855817
-0.6673206173912336   -0.09435002046405311   0.023198543016855817
-0.6673206173912336   -0.09435002046405311   0.023198543016855817
-0.7575123038913076   -0.09793352483959433   0.020476106153664575
-0.7575123038913076   -0.09793352483959433   0.020476106153664575
-0.7575123038913076   -0.09793352483959433   0.020476106153664575
-0.7575123038913076   -0.09793352483959433   0.020476106153664575
-0.7294562648419214   -0.04431573779935433   -0.007168061128976604
-0.7294562648419214   -0.04431573779935433   -0.007168061128976604
-0.7294562648419214   -0.04431573779935433   -0.007168061128976604
-0.7294562648419214   -0.04431573779935433   -0.007168061128976604
-0.6312147894999764   -0.013475838694327655   0.006626116627321082
-0.6312147894999764   -0.013475838694327655   0.006626116627321082
-0.6312147894999764   -0.013475838694327655   0.006626116627321082
-0.6312147894999764   -0.013475838694327655   0.006626116627321082
-0.6974195022844145   -0.058972417915194655   -0.018619946341893266
-0.6974195022844145   -0.058972417915194655   -0.018619946341893266
-0.6974195022844145   -0.058972417915194655   -0.018619946341893266
-0.6974195022844145   -0.058972417915194655   -0.018619946341893266
-0.6317691318067962   -0.02105748807229632   0.011436054471188013
-0.6317691318067962   -0.02105748807229632   0.011436054471188013
-0.6317691318067962   -0.02105748807229632   0.011436054471188013
-0.6317691318067962   -0.02105748807229632   0.011436054471188013
-0.7244730894886569   -0.03230525537494024   0.0057373332129386605
-0.7244730894886569   -0.03230525537494024   0.0057373332129386605
-0.7244730894886569   -0.03230525537494024   0.0057373332129386605
-0.7244730894886569   -0.03230525537494024   0.0057373332129386605
-0.6927936662676449   0.029944732613828434   -0.018215884604343736
-0.6927936662676449   0.029944732613828434   -0.018215884604343736
-0.6927936662676449   0.029944732613828434   -0.018215884604343736
-0.6927936662676449   0.029944732613828434   -0.018215884604343736
-0.5964114375434786   0.05396825473288025   -0.007651990097801702
-0.5964114375434786   0.05396825473288025   -0.007651990097801702
-0.5964114375434786   0.05396825473288025   -0.007651990097801702
-0.5964114375434786   0.05396825473288025   -0.007651990097801702
-0.6591331437541247   0.007439505023379478   0.010291609435483094
-0.6591331437541247   0.007439505023379478   0.010291609435483094
-0.6591331437541247   0.007439505023379478   0.010291609435483094
-0.6591331437541247   0.007439505023379478   0.010291609435483094
-0.5952435888652146   0.052940855517051216   -0.0007853474906602334
-0.5952435888652146   0.052940855517051216   -0.0007853474906602334
-0.5952435888652146   0.052940855517051216   -0.0007853474906602334
-0.5952435888652146   0.052940855517051216   -0.0007853474906602334
-0.690101476404908   0.034832170370657056   -0.009642373047488127
-0.690101476404908   0.034832170370657056   -0.009642373047488127
-0.690101476404908   0.034832170370657056   -0.009642373047488127
-0.690101476404908   0.034832170370657056   -0.009642373047488127
-0.6576906968409059   0.10464559208893359   -0.030705270575674168
-0.6576906968409059   0.10464559208893359   -0.030705270575674168
-0.6576906968409059   0.10464559208893359   -0.030705270575674168
-0.6576906968409059   0.10464559208893359   -0.030705270575674168
-0.56321049610802   0.12168837402365973   -0.023309593271493137
-0.56321049610802   0.12168837402365973   -0.023309593271493137
-0.56321049610802   0.12168837402365973   -0.023309593271493137
-0.56321049610802   0.12168837402365973   -0.023309593271493137
-0.6226003900133074   0.0739699552700551   0.03785231960678094
-0.6226003900133074   0.0739699552700551   0.03785231960678094
-0.6226003900133074   0.0739699552700551   0.03785231960678094
-0.6226003900133074   0.0739699552700551   0.03785231960678094
-0.7794767241514957   -0.1491420954632185   -0.03813742452366431
-0.7794767241514957   -0.1491420954632185   -0.03813742452366431
-0.7794767241514957   -0.1491420954632185   -0.03813742452366431
-0.7794767241514957   -0.1491420954632185   -0.03813742452366431
-0.8294864062907017   -0.041346218264814966   0.07236822778455856
-0.8294864062907017   -0.041346218264814966   0.07236822778455856
-0.8294864062907017   -0.041346218264814966   0.07236822778455856
-0.8294864062907017   -0.041346218264814966   0.07236822778455856
-0.842598968180562   -0.10192796919662653   -0.0706784223367265
-0.842598968180562   -0.10192796919662653   -0.0706784223367265
-0.842598968180562   -0.10192796919662653   -0.0706784223367265
-0.842598968180562   -0.10192796919662653   -0.0706784223367265
-0.6980129609356347   0.044808367408654015   0.060924353194448846
-0.6980129609356347   0.044808367408654015   0.060924353194448846
-0.6980129609356347   0.044808367408654015   0.060924353194448846
-0.6980129609356347   0.044808367408654015   0.060924353194448846
-0.7841571518856431   -0.05787124573545034   -0.011686388656805786
-0.7841571518856431   -0.05787124573545034   -0.011686388656805786
-0.7841571518856431   -0.05787124573545034   -0.011686388656805786
-0.7841571518856431   -0.05787124573545034   -0.011686388656805786
-0.7448768358866014   -0.07830432425069714   -0.05028232990104014
-0.7448768358866014   -0.07830432425069714   -0.05028232990104014
-0.7448768358866014   -0.07830432425069714   -0.05028232990104014
-0.7448768358866014   -0.07830432425069714   -0.05028232990104014
-0.7910903238219749   0.025829491870344085   0.05910733838923919
-0.7910903238219749   0.025829491870344085   0.05910733838923919
-0.7910903238219749   0.025829491870344085   0.05910733838923919
-0.7910903238219749   0.025829491870344085   0.05910733838923919
-0.7946636303107226   -0.03150203473512078   -0.07929372215223426
-0.7946636303107226   -0.03150203473512078   -0.07929372215223426
-0.7946636303107226   -0.03150203473512078   -0.07929372215223426
-0.7946636303107226   -0.03150203473512078   -0.07929372215223426
-0.6649640680971698   0.1056472085796919   0.04522963028216251
-0.6649640680971698   0.1056472085796919   0.04522963028216251
-0.6649640680971698   0.1056472085796919   0.04522963028216251
-0.6649640680971698   0.1056472085796919   0.04522963028216251
-0.7407347331236895   0.006056233633530278   0.018144175903095396
-0.7407347331236895   0.006056233633530278   0.018144175903095396
-0.7407347331236895   0.006056233633530278   0.018144175903095396
-0.7407347331236895   0.006056233633530278   0.018144175903095396
-0.7103790437072123   -0.01168831735137113   -0.06450972183699641
-0.7103790437072123   -0.01168831735137113   -0.06450972183699641
-0.7103790437072123   -0.01168831735137113   -0.06450972183699641
-0.7103790437072123   -0.01168831735137113   -0.06450972183699641
-0.7445543095300309   0.09052783636660144   0.049223010649510304
-0.7445543095300309   0.09052783636660144   0.049223010649510304
-0.7445543095300309   0.09052783636660144   0.049223010649510304
-0.7445543095300309   0.09052783636660144   0.049223010649510304
-0.7526999078590786   0.046143043174202564   -0.0869917420145802
-0.7526999078590786   0.046143043174202564   -0.0869917420145802
-0.7526999078590786   0.046143043174202564   -0.0869917420145802
-0.7526999078590786   0.046143043174202564   -0.0869917420145802
-0.6318229654353468   0.17352673622396841   0.02975224231708641
-0.6318229654353468   0.17352673622396841   0.02975224231708641
-0.6318229654353468   0.17352673622396841   0.02975224231708641
-0.6318229654353468   0.17352673622396841   0.02975224231708641
-0.7037496260233843   0.06957072282631727   0.046693916468875066
-0.7037496260233843   0.06957072282631727   0.046693916468875066
-0.7037496260233843   0.06957072282631727   0.046693916468875066
-0.7037496260233843   0.06957072282631727   0.046693916468875066
-0.8902754192610521   -0.177579113848771   -0.09534394148325341
-0.8902754192610521   -0.177579113848771   -0.09534394148325341
-0.8902754192610521   -0.177579113848771   -0.09534394148325341
-0.8902754192610521   -0.177579113848771   -0.09534394148325341
-0.9811550525841148   0.014506462331713932   0.1298742597505565
-0.9811550525841148   0.014506462331713932   0.1298742597505565
-0.9811550525841148   0.014506462331713932   0.1298742597505565
-0.9811550525841148   0.014506462331713932   0.1298742597505565
-0.9674315229812207   -0.1469263396110902   -0.1268703951733795
-0.9674315229812207   -0.1469263396110902   -0.1268703951733795
-0.9674315229812207   -0.1469263396110902   -0.1268703951733795
-0.9674315229812207   -0.1469263396110902   -0.1268703951733795
-0.762421659761376   0.11185810818265277   0.11642204237991725
-0.762421659761376   0.11185810818265277   0.11642204237991725
-0.762421659761376   0.11185810818265277   0.11642204237991725
-0.762421659761376   0.11185810818265277   0.11642204237991725
-0.8643165788479343   -0.03787825999481098   -0.006056692030823006
-0.8643165788479343   -0.03787825999481098   -0.006056692030823006
-0.8643165788479343   -0.03787825999481098   -0.006056692030823006
-0.8643165788479343   -0.03787825999481098   -0.006056692030823006
-0.8540103623941108   -0.12066725081602302   -0.10899611178509232
-0.8540103623941108   -0.12066725081602302   -0.10899611178509232
-0.8540103623941108   -0.12066725081602302   -0.10899611178509232
-0.8540103623941108   -0.12066725081602302   -0.10899611178509232
-0.8709311525270571   0.09051068720901118   0.11819443027732913
-0.8709311525270571   0.09051068720901118   0.11819443027732913
-0.8709311525270571   0.09051068720901118   0.11819443027732913
-0.8709311525270571   0.09051068720901118   0.11819443027732913
-0.8848730634144765   -0.10578281234893593   -0.15116172934093497
-0.8848730634144765   -0.10578281234893593   -0.15116172934093497
-0.8848730634144765   -0.10578281234893593   -0.15116172934093497
-0.8848730634144765   -0.10578281234893593   -0.15116172934093497
-0.7252833166537865   0.1408358082904315   0.09527000310689433
-0.7252833166537865   0.1408358082904315   0.09527000310689433
-0.7252833166537865   0.1408358082904315   0.09527000310689433
-0.7252833166537865   0.1408358082904315   0.09527000310689433
-0.8081937378372985   0.00508437365894604   0.022601404980618897
-0.8081937378372985   0.00508437365894604   0.022601404980618897
-0.8081937378372985   0.00508437365894604   0.022601404980618897
-0.8081937378372985   0.00508437365894604   0.022601404980618897
-0.8150761496134631   -0.08680229533396465   -0.12605605806709208
-0.8150761496134631   -0.08680229533396465   -0.12605605806709208
-0.8150761496134631   -0.08680229533396465   -0.12605605806709208
-0.8150761496134631   -0.08680229533396465   -0.12605605806709208
-0.7899357931165536   0.12699972861370656   0.09074208118603687
-0.7899357931165536   0.12699972861370656   0.09074208118603687
-0.7899357931165536   0.12699972861370656   0.09074208118603687
-0.7899357931165536   0.12699972861370656   0.09074208118603687
-0.7766848462258125   -0.03451976925064046   -0.16513748521227278
-0.7766848462258125   -0.03451976925064046   -0.16513748521227278
-0.7766848462258125   -0.03451976925064046   -0.16513748521227278
-0.7766848462258125   -0.03451976925064046   -0.16513748521227278
-0.6919923837713897   0.1842159108917838   0.078473010706275
-0.6919923837713897   0.1842159108917838   0.078473010706275
-0.6919923837713897   0.1842159108917838   0.078473010706275
-0.6919923837713897   0.1842159108917838   0.078473010706275
-0.7319125534093268   0.04807680847047055   0.055716116037362366
-0.7319125534093268   0.04807680847047055   0.055716116037362366
-0.7319125534093268   0.04807680847047055   0.055716116037362366
-0.7319125534093268   0.04807680847047055   0.055716116037362366
0.5380894672268016   0.0872149446454731   0.14181999799826484
0.5380894672268016   0.0872149446454731   0.14181999799826484
0.5380894672268016   0.0872149446454731   0.14181999799826484
0.5380894672268016   0.0872149446454731   0.14181999799826484
-0.014475768672483819   -0.2281441428312423   -0.0938564053152127
-0.014475768672483819   -0.2281441428312423   -0.0938564053152127
-0.014475768672483819   -0.2281441428312423   -0.0938564053152127
-0.014475768672483819   -0.2281441428312423   -0.0938564053152127
0.12017422562802664   0.04478493067280418   0.10962620729902214
0.12017422562802664   0.04478493067280418   0.10962620729902214
0.12017422562802664   0.04478493067280418   0.10962620729902214
0.12017422562802664   0.04478493067280418   0.10962620729902214
0.5620478129118562   -0.08066625387542163   -0.11736952082092696
0.5620478129118562   -0.08066625387542163   -0.11736952082092696
0.5620478129118562   -0.08066625387542163   -0.11736952082092696
0.5620478129118562   -0.08066625387542163   -0.11736952082092696
0.2744382351664406   -0.04460891071528866   -0.06741287425247391
0.2744382351664406   -0.04460891071528866   -0.06741287425247391
0.2744382351664406   -0.04460891071528866   -0.06741287425247391
0.2744382351664406   -0.04460891071528866   -0.06741287425247391
0.6584745100312482   0.15611607356146953   0.12798163733912726
0.6584745100312482   0.15611607356146953   0.12798163733912726
0.6584745100312482   0.15611607356146953   0.12798163733912726
0.6584745100312482   0.15611607356146953   0.12798163733912726
0.02964071521995469   -0.18610421005276812   -0.11215220401575778
0.02964071521995469   -0.18610421005276812   -0.11215220401575778
0.02964071521995469   -0.18610421005276812   -0.11215220401575778
0.02964071521995469   -0.18610421005276812   -0.11215220401575778
0.16955391079311605   0.0779013962035164   0.09153743411933751
0.16955391079311605   0.0779013962035164   0.09153743411933751
0.16955391079311605   0.0779013962035164   0.09153743411933751
0.16955391079311605   0.0779013962035164   0.09153743411933751
0.6561775963891253   -0.043245456559848516   -0.1469447367443363
0.6561775963891253   -0.043245456559848516   -0.1469447367443363
0.6561775963891253   -0.043245456559848516   -0.1469447367443363
0.6561775963891253   -0.043245456559848516   -0.1469447367443363
0.359335294505276   -0.0032739296938090745   -0.0315587301000369
0.359335294505276   -0.0032739296938090745   -0.0315587301000369
0.359335294505276   -0.0032739296938090745   -0.0315587301000369
0.359335294505276   -0.0032739296938090745   -0.0315587301000369
0.7537025653614244   0.1965921421706414   0.10084250938665418
0.7537025653614244   0.1965921421706414   0.10084250938665418
0.7537025653614244   0.1965921421706414   0.10084250938665418
0.7537025653614244   0.1965921421706414   0.10084250938665418
0.07781057550639242   -0.1561545688414095   -0.13312327726934706
0.07781057550639242   -0.1561545688414095   -0.13312327726934706
0.07781057550639242   -0.1561545688414095   -0.13312327726934706
0.07781057550639242   -0.1561545688414095   -0.13312327726934706
0.21749429595119957   0.1386147882768783   0.0792180398124388
0.21749429595119957   0.1386147882768783   0.0792180398124388
0.21749429595119957   0.1386147882768783   0.0792180398124388
0.21749429595119957   0.1386147882768783   0.0792180398124388
0.7810835590157283   0.040537722160695344   -0.16209261656837742
0.7810835590157283   0.040537722160695344   -0.16209261656837742
0.7810835590157283   0.040537722160695344   -0.16209261656837742
0.7810835590157283   0.040537722160695344   -0.16209261656837742
0.43082289379670835   0.042985011868237416   0.00239751870469709
0.43082289379670835   0.042985011868237416   0.00239751870469709
0.43082289379670835   0.042985011868237416   0.00239751870469709
0.43082289379670835   0.042985011868237416   0.00239751870469709
0.07376649326234624   0.02318590569697508   0.09602485583072023
0.07376649326234624   0.02318590569697508   0.09602485583072023
0.07376649326234624   0.02318590569697508   0.09602485583072023
0.07376649326234624   0.02318590569697508   0.09602485583072023
-0.5150145365519586   -0.19358881784637083   -0.04303548708553041
-0.5150145365519586   -0.19358881784637083   -0.04303548708553041
-0.5150145365519586   -0.19358881784637083   -0.04303548708553041
-0.5150145365519586   -0.19358881784637083   -0.04303548708553041
-0.4298809106300071   -0.0279413305274734   0.043999794034685805
-0.4298809106300071   -0.0279413305274734   0.043999794034685805
-0.4298809106300071   -0.0279413305274734   0.043999794034685805
-0.4298809106300071   -0.0279413305274734   0.043999794034685805
0.07787028774499023   -0.022791821648232236   -0.034316729795115866
0.07787028774499023   -0.022791821648232236   -0.034316729795115866
0.07787028774499023   -0.022791821648232236   -0.034316729795115866
0.07787028774499023   -0.022791821648232236   -0.034316729795115866
-0.20253031528034635   -0.0503247510464278   -0.032468441927510035
-0.20253031528034635   -0.0503247510464278   -0.032468441927510035
-0.20253031528034635   -0.0503247510464278   -0.032468441927510035
-0.20253031528034635   -0.0503247510464278   -0.032468441927510035
0.12456923823507214   0.09118831720002361   0.08519788380703018
0.12456923823507214   0.09118831720002361   0.08519788380703018
0.12456923823507214   0.09118831720002361   0.08519788380703018
0.12456923823507214   0.09118831720002361   0.08519788380703018
-0.4723016068572831   -0.13764321511292463   -0.05840180251624309
-0.4723016068572831   -0.13764321511292463   -0.05840180251624309
-0.4723016068572831   -0.13764321511292463   -0.05840180251624309
-0.4723016068572831   -0.13764321511292463   -0.05840180251624309
-0.3848335110158198   0.03622261937686126   0.031114468136527806
-0.3848335110158198   0.03622261937686126   0.031114468136527806
-0.3848335110158198   0.03622261937686126   0.031114468136527806
-0.3848335110158198   0.03622261937686126   0.031114468136527806
0.1340194255303826   0.038185019960254446   -0.04641861595106768
0.1340194255303826   0.038185019960254446   -0.04641861595106768
0.1340194255303826   0.038185019960254446   -0.04641861595106768
0.1340194255303826   0.038185019960254446   -0.04641861595106768
-0.15479552463305946   0.006343526322559641   -0.0038869706512068888
-0.15479552463305946   0.006343526322559641   -0.0038869706512068888
-0.15479552463305946   0.006343526322559641   -0.0038869706512068888
-0.15479552463305946   0.006343526322559641   -0.0038869706512068888
0.18267423050937118   0.15875779986286007   0.07628262904126948
0.18267423050937118   0.15875779986286007   0.07628262904126948
0.18267423050937118   0.15875779986286007   0.07628262904126948
0.18267423050937118   0.15875779986286007   0.07628262904126948
-0.42937600203885895   -0.08023784656978472   -0.07513752103202194
-0.42937600203885895   -0.08023784656978472   -0.07513752103202194
-0.42937600203885895   -0.08023784656978472   -0.07513752103202194
-0.42937600203885895   -0.08023784656978472   -0.07513752103202194
-0.339528112052415   0.10870688145444764   0.018830585025785447
-0.339528112052415   0.10870688145444764   0.018830585025785447
-0.339528112052415   0.10870688145444764   0.018830585025785447
-0.339528112052415   0.10870688145444764   0.018830585025785447
0.1835167986717241   0.10724705046661547   -0.05930170877467572
0.1835167986717241   0.10724705046661547   -0.05930170877467572
0.1835167986717241   0.10724705046661547   -0.05930170877467572
0.1835167986717241   0.10724705046661547   -0.05930170877467572
-0.10208705227638896   0.0688294161981527   0.026554066915948627
-0.10208705227638896   0.0688294161981527   0.026554066915948627
-0.10208705227638896   0.0688294161981527   0.026554066915948627
-0.10208705227638896   0.0688294161981527   0.026554066915948627
-0.4682557625800585   -0.03728627068547432   0.034455835613076885
-0.4682557625800585   -0.03728627068547432   0.034455835613076885
-0.4682557625800585   -0.03728627068547432   0.034455835613076885
-0.4682557625800585   -0.03728627068547432   0.034455835613076885
-1.006546234572057   -0.137119181104649   0.009029683777329756
-1.006546234572057   -0.137119181104649   0.009029683777329756
-1.006546234572057   -0.137119181104649   0.009029683777329756
-1.006546234572057   -0.137119181104649   0.009029683777329756
-0.9670213274121359   -0.0857605919986877   -0.018991111982319748
-0.9670213274121359   -0.0857605919986877   -0.018991111982319748
-0.9670213274121359   -0.0857605919986877   -0.018991111982319748
-0.9670213274121359   -0.0857605919986877   -0.018991111982319748
-0.42165236237015763   0.03570541123862986   0.021495793567829914
-0.42165236237015763   0.03570541123862986   0.021495793567829914
-0.42165236237015763   0.03570541123862986   0.021495793567829914
-0.42165236237015763   0.03570541123862986   0.021495793567829914
-0.7169180744911309   -0.05150081756137616   -0.018846915377246903
-0.7169180744911309   -0.05150081756137616   -0.018846915377246903
-0.7169180744911309   -0.05150081756137616   -0.018846915377246903
-0.7169180744911309   -0.05150081756137616   -0.018846915377246903
-0.4222477419392436   0.03153100740380056   0.02269329955722937
-0.4222477419392436   0.03153100740380056   0.02269329955722937
-0.4222477419392436   0.03153100740380056   0.02269329955722937
-0.4222477419392436   0.03153100740380056   0.02269329955722937
-0.9627668905749909   -0.07792713089578918   -0.005552388899493305
-0.9627668905749909   -0.07792713089578918   -0.005552388899493305
-0.9627668905749909   -0.07792713089578918   -0.005552388899493305
-0.9627668905749909   -0.07792713089578918   -0.005552388899493305
-0.9196728640350769   -0.015127027781406815   -0.029866976177638664
-0.9196728640350769   -0.015127027781406815   -0.029866976177638664
-0.9196728640350769   -0.015127027781406815   -0.029866976177638664
-0.9196728640350769   -0.015127027781406815   -0.029866976177638664
-0.37704730247024565   0.09840869071459551   0.007859439526668434
-0.37704730247024565   0.09840869071459551   0.007859439526668434
-0.37704730247024565   0.09840869071459551   0.007859439526668434
-0.37704730247024565   0.09840869071459551   0.007859439526668434
-0.6680464124860667   0.010568387333772217   0.00992756108529727
-0.6680464124860667   0.010568387333772217   0.00992756108529727
-0.6680464124860667   0.010568387333772217   0.00992756108529727
-0.6680464124860667   0.010568387333772217   0.00992756108529727
-0.3759522062965218   0.10161601768650715   0.010127593423375984
-0.3759522062965218   0.10161601768650715   0.010127593423375984
-0.3759522062965218   0.10161601768650715   0.010127593423375984
-0.3759522062965218   0.10161601768650715   0.010127593423375984
-0.9178518508683842   -0.015418245412892745   -0.02047069271269584
-0.9178518508683842   -0.015418245412892745   -0.02047069271269584
-0.9178518508683842   -0.015418245412892745   -0.02047069271269584
-0.9178518508683842   -0.015418245412892745   -0.02047069271269584
-0.8742401280676755   0.05568443624499231   -0.042299650205174566
-0.8742401280676755   0.05568443624499231   -0.042299650205174566
-0.8742401280676755   0.05568443624499231   -0.042299650205174566
-0.8742401280676755   0.05568443624499231   -0.042299650205174566
-0.3343409177551979   0.16129697735637932   -0.007823539390056922
-0.3343409177551979   0.16129697735637932   -0.007823539390056922
-0.3343409177551979   0.16129697735637932   -0.007823539390056922
-0.3343409177551979   0.16129697735637932   -0.007823539390056922
-0.6217044647269567   0.0724595379090327   0.03682317756491234
-0.6217044647269567   0.0724595379090327   0.03682317756491234
-0.6217044647269567   0.0724595379090327   0.03682317756491234
-0.6217044647269567   0.0724595379090327   0.03682317756491234
-1.006130736413919   -0.09695927596140165   -0.029052730575219125
-1.006130736413919   -0.09695927596140165   -0.029052730575219125
-1.006130736413919   -0.09695927596140165   -0.029052730575219125
-1.006130736413919   -0.09695927596140165   -0.029052730575219125
-1.4923745282364598   -0.08406719460644027   0.06019623309454796
-1.4923745282364598   -0.08406719460644027   0.06019623309454796
-1.4923745282364598   -0.08406719460644027   0.06019623309454796
-1.4923745282364598   -0.08406719460644027   0.06019623309454796
-1.4923534130695966   -0.1423247704590413   -0.08040088401006569
-1.4923534130695966   -0.1423247704590413   -0.08040088401006569
-1.4923534130695966   -0.1423247704590413   -0.08040088401006569
-1.4923534130695966   -0.1423247704590413   -0.08040088401006569
-0.9131133828438928   0.09137327376359788   0.07341474509661042
-0.9131133828438928   0.09137327376359788   0.07341474509661042
-0.9131133828438928   0.09137327376359788   0.07341474509661042
-0.9131133828438928   0.09137327376359788   0.07341474509661042
-1.2191620141676072   -0.05197605221534704   -0.007890133508076443
-1.2191620141676072   -0.05197605221534704   -0.007890133508076443
-1.2191620141676072   -0.05197605221534704   -0.007890133508076443
-1.2191620141676072   -0.05197605221534704   -0.007890133508076443
-0.9597124598114466   -0.027798230167434046   -0.040409135810118055
-0.9597124598114466   -0.027798230167434046   -0.040409135810118055
-0.9597124598114466   -0.027798230167434046   -0.040409135810118055
-0.9597124598114466   -0.027798230167434046   -0.040409135810118055
-1.4427436357973717   -0.02014256622335514   0.045465798115385495
-1.4427436357973717   -0.02014256622335514   0.045465798115385495
-1.4427436357973717   -0.02014256622335514   0.045465798115385495
-1.4427436357973717   -0.02014256622335514   0.045465798115385495
-1.4331413117391927   -0.07492491429040377   -0.08945374042635397
-1.4331413117391927   -0.07492491429040377   -0.08945374042635397
-1.4331413117391927   -0.07492491429040377   -0.08945374042635397
-1.4331413117391927   -0.07492491429040377   -0.08945374042635397
-0.8692987784908786   0.14845813672121566   0.05841828704073011
-0.8692987784908786   0.14845813672121566   0.05841828704073011
-0.8692987784908786   0.14845813672121566   0.05841828704073011
-0.8692987784908786   0.14845813672121566   0.05841828704073011
-1.1606716433822066   0.010576708978672189   0.02173775343623635
-1.1606716433822066   0.010576708978672189   0.02173775343623635
-1.1606716433822066   0.010576708978672189   0.02173775343623635
-1.1606716433822066   0.010576708978672189   0.02173775343623635
-0.9143585190752777   0.03586494707969931   -0.054287226239753586
-0.9143585190752777   0.03586494707969931   -0.054287226239753586
-0.9143585190752777   0.03586494707969931   -0.054287226239753586
-0.9143585190752777   0.03586494707969931   -0.054287226239753586
-1.3846924950042683   0.041057351501637196   0.0368080774562274
-1.3846924950042683   0.041057351501637196   0.0368080774562274
-1.3846924950042683   0.041057351501637196   0.0368080774562274
-1.3846924950042683   0.041057351501637196   0.0368080774562274
-1.3801536784214783   -0.0013441051219739708   -0.09627125142649424
-1.3801536784214783   -0.0013441051219739708   -0.09627125142649424
-1.3801536784214783   -0.0013441051219739708   -0.09627125142649424
-1.3801536784214783   -0.0013441051219739708   -0.09627125142649424
-0.8259358222175159   0.21159179432546646   0.04331452096514965
-0.8259358222175159   0.21159179432546646   0.04331452096514965
-0.8259358222175159   0.21159179432546646   0.04331452096514965
-0.8259358222175159   0.21159179432546646   0.04331452096514965
-1.1167012376663772   0.06899443910102146   0.04831571767481588
-1.1167012376663772   0.06899443910102146   0.04831571767481588
-1.1167012376663772   0.06899443910102146   0.04831571767481588
-1.1167012376663772   0.06899443910102146   0.04831571767481588
-1.5330844361506215   -0.13944863879019914   -0.08797186229250227
-1.5330844361506215   -0.13944863879019914   -0.08797186229250227
-1.5330844361506215   -0.13944863879019914   -0.08797186229250227
-1.5330844361506215   -0.13944863879019914   -0.08797186229250227
-2.0456345238941855   -0.035312134248958904   0.12990639535545767
-2.0456345238941855   -0.035312134248958904   0.12990639535545767
-2.0456345238941855   -0.035312134248958904   0.12990639535545767
-2.0456345238941855   -0.035312134248958904   0.12990639535545767
-2.0164013466185375   -0.18566405830133814   -0.11720910318293702
-2.0164013466185375   -0.18566405830133814   -0.11720910318293702
-2.0164013466185375   -0.18566405830133814   -0.11720910318293702
-2.0164013466185375   -0.18566405830133814   -0.11720910318293702
-1.3913456546908127   0.1542480755832073   0.1280650618416054
-1.3913456546908127   0.1542480755832073   0.1280650618416054
-1.3913456546908127   0.1542480755832073   0.1280650618416054
-1.3913456546908127   0.1542480755832073   0.1280650618416054
-1.6713761186284035   -0.02957680338708607   0.013639560912360696
-1.6713761186284035   -0.02957680338708607   0.013639560912360696
-1.6713761186284035   -0.02957680338708607   0.013639560912360696
-1.6713761186284035   -0.02957680338708607   0.013639560912360696
-1.4827821089623847   -0.07539351410010675   -0.09947561983293297
-1.4827821089623847   -0.07539351410010675   -0.09947561983293297
-1.4827821089623847   -0.07539351410010675   -0.09947561983293297
-1.4827821089623847   -0.07539351410010675   -0.09947561983293297
-1.9222424634231399   0.04669996030579693   0.12122129418688024
-1.9222424634231399   0.04669996030579693   0.12122129418688024
-1.9222424634231399   0.04669996030579693   0.12122129418688024
-1.9222424634231399   0.04669996030579693   0.12122129418688024
-1.9229775403556164   -0.14564628543474   -0.139446241817133
-1.9229775403556164   -0.14564628543474   -0.139446241817133
-1.9229775403556164   -0.14564628543474   -0.139446241817133
-1.9229775403556164   -0.14564628543474   -0.139446241817133
-1.3430460456693367   0.18055320520570595   0.10554447042680473
-1.3430460456693367   0.18055320520570595   0.10554447042680473
-1.3430460456693367   0.18055320520570595   0.10554447042680473
-1.3430460456693367   0.18055320520570595   0.10554447042680473
-1.6180301852591181   0.012379763760455076   0.03760043307860081
-1.6180301852591181   0.012379763760455076   0.03760043307860081
-1.6180301852591181   0.012379763760455076   0.03760043307860081
-1.6180301852591181   0.012379763760455076   0.03760043307860081
-1.4317209852503774   -0.04246760875400146   -0.11480941351867958
-1.4317209852503774   -0.04246760875400146   -0.11480941351867958
-1.4317209852503774   -0.04246760875400146   -0.11480941351867958
-1.4317209852503774   -0.04246760875400146   -0.11480941351867958
-1.83096310462316   0.08071402467637123   0.09426562673401623
-1.83096310462316   0.08071402467637123   0.09426562673401623
-1.83096310462316   0.08071402467637123   0.09426562673401623
-1.83096310462316   0.08071402467637123   0.09426562673401623
-1.8080553705302957   -0.0857787964636903   -0.1554375393121894
-1.8080553705302957   -0.0857787964636903   -0.1554375393121894
-1.8080553705302957   -0.0857787964636903   -0.1554375393121894
-1.8080553705302957   -0.0857787964636903   -0.1554375393121894
-1.3005464687179042   0.2124957329635237   0.08792495900587749
-1.3005464687179042   0.2124957329635237   0.08792495900587749
-1.3005464687179042   0.2124957329635237   0.08792495900587749
-1.3005464687179042   0.2124957329635237   0.08792495900587749
-1.5190990074102297   0.051747706702595764   0.07127135030935677
-1.5190990074102297   0.051747706702595764   0.07127135030935677
-1.5190990074102297   0.051747706702595764   0.07127135030935677
-1.5190990074102297   0.051747706702595764   0.07127135030935677
1.6304571835730899   0.1480238015606206   0.1420503643985282
1.6304571835730899   0.1480238015606206   0.1420503643985282
1.6304571835730899   0.1480238015606206   0.1420503643985282
1.6304571835730899   0.1480238015606206   0.1420503643985282
0.5978885710989059   -0.272275748410381   -0.09353401425011791
0.5978885710989059   -0.272275748410381   -0.09353401425011791
0.5978885710989059   -0.272275748410381   -0.09353401425011791
0.5978885710989059   -0.272275748410381   -0.09353401425011791
0.739295592226417   -0.0012890153772509294   0.10226889235536575
0.739295592226417   -0.0012890153772509294   0.10226889235536575
0.739295592226417   -0.0012890153772509294   0.10226889235536575
0.739295592226417   -0.0012890153772509294   0.10226889235536575
1.6606294458716335   -0.03869692291330412   -0.11936954743440507
1.6606294458716335   -0.03869692291330412   -0.11936954743440507
1.6606294458716335   -0.03869692291330412   -0.11936954743440507
1.6606294458716335   -0.03869692291330412   -0.11936954743440507
1.085886063602052   -0.04955656483611148   -0.10513272396388948
1.085886063602052   -0.04955656483611148   -0.10513272396388948
1.085886063602052   -0.04955656483611148   -0.10513272396388948
1.085886063602052   -0.04955656483611148   -0.10513272396388948
1.7582883007669203   0.20675109057126534   0.12347671355744398
1.7582883007669203   0.20675109057126534   0.12347671355744398
1.7582883007669203   0.20675109057126534   0.12347671355744398
1.7582883007669203   0.20675109057126534   0.12347671355744398
0.6485215753868162   -0.2398521908061371   -0.11303801641375243
0.6485215753868162   -0.2398521908061371   -0.11303801641375243
0.6485215753868162   -0.2398521908061371   -0.11303801641375243
0.6485215753868162   -0.2398521908061371   -0.11303801641375243
0.7953475021149167   0.03085361563430694   0.08438071850064963
0.7953475021149167   0.03085361563430694   0.08438071850064963
0.7953475021149167   0.03085361563430694   0.08438071850064963
0.7953475021149167   0.03085361563430694   0.08438071850064963
1.762461558077373   -0.0021437252481606994   -0.15050468697796313
1.762461558077373   -0.0021437252481606994   -0.15050468697796313
1.762461558077373   -0.0021437252481606994   -0.15050468697796313
1.762461558077373   -0.0021437252481606994   -0.15050468697796313
1.1920933010083363   -0.010037273022546533   -0.06359470961969108
1.1920933010083363   -0.010037273022546533   -0.06359470961969108
1.1920933010083363   -0.010037273022546533   -0.06359470961969108
1.1920933010083363   -0.010037273022546533   -0.06359470961969108
1.8612377946660936   0.24616840382325422   0.09506436689420897
1.8612377946660936   0.24616840382325422   0.09506436689420897
1.8612377946660936   0.24616840382325422   0.09506436689420897
1.8612377946660936   0.24616840382325422   0.09506436689420897
0.7039216583368118   -0.21010812062649364   -0.13178676412906656
0.7039216583368118   -0.21010812062649364   -0.13178676412906656
0.7039216583368118   -0.21010812062649364   -0.13178676412906656
0.7039216583368118   -0.21010812062649364   -0.13178676412906656
0.8513156682812918   0.10162958160236088   0.07313457137438688
0.8513156682812918   0.10162958160236088   0.07313457137438688
0.8513156682812918   0.10162958160236088   0.07313457137438688
0.8513156682812918   0.10162958160236088   0.07313457137438688
1.896117440531904   0.09320401715158505   -0.16239660082163096
1.896117440531904   0.09320401715158505   -0.16239660082163096
1.896117440531904   0.09320401715158505   -0.16239660082163096
1.896117440531904   0.09320401715158505   -0.16239660082163096
1.2579707446070936   0.0379744624203007   -0.027586166752266043
1.2579707446070936   0.0379744624203007   -0.027586166752266043
1.2579707446070936   0.0379744624203007   -0.027586166752266043
1.2579707446070936   0.0379744624203007   -0.027586166752266043
0.7102474606640801   0.08272301337251323   0.11326167179285118
0.7102474606640801   0.08272301337251323   0.11326167179285118
0.7102474606640801   0.08272301337251323   0.11326167179285118
0.7102474606640801   0.08272301337251323   0.11326167179285118
-0.34467515699134604   -0.25399661635557   -0.048950106869795056
-0.34467515699134604   -0.25399661635557   -0.048950106869795056
-0.34467515699134604   -0.25399661635557   -0.048950106869795056
-0.34467515699134604   -0.25399661635557   -0.048950106869795056
-0.24724771579454596   -0.07406765444799099   0.034422109745626546
-0.24724771579454596   -0.07406765444799099   0.034422109745626546
-0.24724771579454596   -0.07406765444799099   0.034422109745626546
-0.24724771579454596   -0.07406765444799099   0.034422109745626546
0.7163047863295744   0.0011845575131737007   -0.015158710019271701
0.7163047863295744   0.0011845575131737007   -0.015158710019271701
0.7163047863295744   0.0011845575131737007   -0.015158710019271701
0.7163047863295744   0.0011845575131737007   -0.015158710019271701
0.19932237191221686   -0.05395913027913621   -0.04489461250411318
0.19932237191221686   -0.05395913027913621   -0.04489461250411318
0.19932237191221686   -0.05395913027913621   -0.04489461250411318
0.19932237191221686   -0.05395913027913621   -0.04489461250411318
0.7677878969543801   0.14228610523021362   0.10115529538772364
0.7677878969543801   0.14228610523021362   0.10115529538772364
0.7677878969543801   0.14228610523021362   0.10115529538772364
0.7677878969543801   0.14228610523021362   0.10115529538772364
-0.2946060544001771   -0.21104443014585528   -0.06539280758466498
-0.2946060544001771   -0.21104443014585528   -0.06539280758466498
-0.2946060544001771   -0.21104443014585528   -0.06539280758466498
-0.2946060544001771   -0.21104443014585528   -0.06539280758466498
-0.19501104406367598   -0.013979541828469878   0.02178904469936929
-0.19501104406367598   -0.013979541828469878   0.02178904469936929
-0.19501104406367598   -0.013979541828469878   0.02178904469936929
-0.19501104406367598   -0.013979541828469878   0.02178904469936929
0.7776898297964282   0.05514991659427053   -0.028203944051748493
0.7776898297964282   0.05514991659427053   -0.028203944051748493
0.7776898297964282   0.05514991659427053   -0.028203944051748493
0.7776898297964282   0.05514991659427053   -0.028203944051748493
0.24982634018728303   -0.0064496200481544835   -0.017867327168386685
0.24982634018728303   -0.0064496200481544835   -0.017867327168386685
0.24982634018728303   -0.0064496200481544835   -0.017867327168386685
0.24982634018728303   -0.0064496200481544835   -0.017867327168386685
0.8312258112760414   0.20486266357309652   0.08976321636748395
0.8312258112760414   0.20486266357309652   0.08976321636748395
0.8312258112760414   0.20486266357309652   0.08976321636748395
0.8312258112760414   0.20486266357309652   0.08976321636748395
-0.2444092268963258   -0.15955449016033374   -0.07962692113201593
-0.2444092268963258   -0.15955449016033374   -0.07962692113201593
-0.2444092268963258   -0.15955449016033374   -0.07962692113201593
-0.2444092268963258   -0.15955449016033374   -0.07962692113201593
-0.1434470084523659   0.055556041871436805   0.009207055373520973
-0.1434470084523659   0.055556041871436805   0.009207055373520973
-0.1434470084523659   0.055556041871436805   0.009207055373520973
-0.1434470084523659   0.055556041871436805   0.009207055373520973
0.8321823384911375   0.11934208999906648   -0.04024458597308937
0.8321823384911375   0.11934208999906648   -0.04024458597308937
0.8321823384911375   0.11934208999906648   -0.04024458597308937
0.8321823384911375   0.11934208999906648   -0.04024458597308937
0.31205661400906026   0.05174967620158173   0.013666624410446283
0.31205661400906026   0.05174967620158173   0.013666624410446283
0.31205661400906026   0.05174967620158173   0.013666624410446283
0.31205661400906026   0.05174967620158173   0.013666624410446283
-0.27090942681573893   0.017815524351402268   0.04806640330126813
-0.27090942681573893   0.017815524351402268   0.04806640330126813
-0.27090942681573893   0.017815524351402268   0.04806640330126813
-0.27090942681573893   0.017815524351402268   0.04806640330126813
-1.268496383468372   -0.2241056458770333   -0.006363261931374082
-1.268496383468372   -0.2241056458770333   -0.006363261931374082
-1.268496383468372   -0.2241056458770333   -0.006363261931374082
-1.268496383468372   -0.2241056458770333   -0.006363261931374082
-1.2064828794770732   -0.13152772155507084   -0.029839353293757857
-1.2064828794770732   -0.13152772155507084   -0.029839353293757857
-1.2064828794770732   -0.13152772155507084   -0.029839353293757857
-1.2064828794770732   -0.13152772155507084   -0.029839353293757857
-0.22638157908145543   0.03264767239982593   0.03203746646326226
-0.22638157908145543   0.03264767239982593   0.03203746646326226
-0.22638157908145543   0.03264767239982593   0.03203746646326226
-0.22638157908145543   0.03264767239982593   0.03203746646326226
-0.7443838189929362   -0.06898517286786572   -0.02800543654094383
-0.7443838189929362   -0.06898517286786572   -0.02800543654094383
-0.7443838189929362   -0.06898517286786572   -0.02800543654094383
-0.7443838189929362   -0.06898517286786572   -0.02800543654094383
-0.21609737237205512   0.07978207083891861   0.036324101571171157
-0.21609737237205512   0.07978207083891861   0.036324101571171157
-0.21609737237205512   0.07978207083891861   0.036324101571171157
-0.21609737237205512   0.07978207083891861   0.036324101571171157
-1.2140330250589186   -0.17592805886660873   -0.023189743891447772
-1.2140330250589186   -0.17592805886660873   -0.023189743891447772
-1.2140330250589186   -0.17592805886660873   -0.023189743891447772
-1.2140330250589186   -0.17592805886660873   -0.023189743891447772
-1.1489241272292972   -0.06560233765915433   -0.040318877583029135
-1.1489241272292972   -0.06560233765915433   -0.040318877583029135
-1.1489241272292972   -0.06560233765915433   -0.040318877583029135
-1.1489241272292972   -0.06560233765915433   -0.040318877583029135
-0.17553016020998563   0.08715222071401066   0.018061701425348027
-0.17553016020998563   0.08715222071401066   0.018061701425348027
-0.17553016020998563   0.08715222071401066   0.018061701425348027
-0.17553016020998563   0.08715222071401066   0.018061701425348027
-0.6863405813012203   -0.013816676255018284   -0.0004417796504326346
-0.6863405813012203   -0.013816676255018284   -0.0004417796504326346
-0.6863405813012203   -0.013816676255018284   -0.0004417796504326346
-0.6863405813012203   -0.013816676255018284   -0.0004417796504326346
-0.1631278518217806   0.144221488129193   0.023003975951190803
-0.1631278518217806   0.144221488129193   0.023003975951190803
-0.1631278518217806   0.144221488129193   0.023003975951190803
-0.1631278518217806   0.144221488129193   0.023003975951190803
-1.1587825396081952   -0.12012770906502959   -0.03508556807164374
-1.1587825396081952   -0.12012770906502959   -0.03508556807164374
-1.1587825396081952   -0.12012770906502959   -0.03508556807164374
-1.1587825396081952   -0.12012770906502959   -0.03508556807164374
-1.09535429342193   8.489965924929344e-05   -0.0528705522089751
-1.09535429342193   8.489965924929344e-05   -0.0528705522089751
-1.09535429342193   8.489965924929344e-05   -0.0528705522089751
-1.09535429342193   8.489965924929344e-05   -0.0528705522089751
-0.1269637630255835   0.14283854558722664   0.004340778791643074
-0.1269637630255835   0.14283854558722664   0.004340778791643074
-0.1269637630255835   0.14283854558722664   0.004340778791643074
-0.1269637630255835   0.14283854558722664   0.004340778791643074
-0.6330041330848755   0.04113967751586314   0.025795793563764505
-0.6330041330848755   0.04113967751586314   0.025795793563764505
-0.6330041330848755   0.04113967751586314   0.025795793563764505
-0.6330041330848755   0.04113967751586314   0.025795793563764505
-1.235966437858933   -0.0486572159184038   -0.0191619638427964
-1.235966437858933   -0.0486572159184038   -0.0191619638427964
-1.235966437858933   -0.0486572159184038   -0.0191619638427964
-1.235966437858933   -0.0486572159184038   -0.0191619638427964
-2.1705287811195046   -0.18127477938700437   0.042358148792273884
-2.1705287811195046   -0.18127477938700437   0.042358148792273884
-2.1705287811195046   -0.18127477938700437   0.042358148792273884
-2.1705287811195046   -0.18127477938700437   0.042358148792273884
-2.1399951363602754   -0.18665512070915258   -0.0898454737507591
-2.1399951363602754   -0.18665512070915258   -0.0898454737507591
-2.1399951363602754   -0.18665512070915258   -0.0898454737507591
-2.1399951363602754   -0.18665512070915258   -0.0898454737507591
-1.1412862142833162   0.08393029169909888   0.08068595942086351
-1.1412862142833162   0.08393029169909888   0.08068595942086351
-1.1412862142833162   0.08393029169909888   0.08068595942086351
-1.1412862142833162   0.08393029169909888   0.08068595942086351
-1.6603743680380116   -0.07262228210464167   -0.009739930908364239
-1.6603743680380116   -0.07262228210464167   -0.009739930908364239
-1.6603743680380116   -0.07262228210464167   -0.009739930908364239
-1.6603743680380116   -0.07262228210464167   -0.009739930908364239
-1.1763717892559773   0.018230265594325334   -0.029041889337667687
-1.1763717892559773   0.018230265594325334   -0.029041889337667687
-1.1763717892559773   0.018230265594325334   -0.029041889337667687
-1.1763717892559773   0.018230265594325334   -0.029041889337667687
-2.10482969303638   -0.12087522625314218   0.020201848412721907
-2.10482969303638   -0.12087522625314218   0.020201848412721907
-2.10482969303638   -0.12087522625314218   0.020201848412721907
-2.10482969303638   -0.12087522625314218   0.020201848412721907
-2.0648584495670113   -0.12221165123013655   -0.09937098163989865
-2.0648584495670113   -0.12221165123013655   -0.09937098163989865
-2.0648584495670113   -0.12221165123013655   -0.09937098163989865
-2.0648584495670113   -0.12221165123013655   -0.09937098163989865
-1.0876610852782047   0.13593644889606238   0.06445754561722772
-1.0876610852782047   0.13593644889606238   0.06445754561722772
-1.0876610852782047   0.13593644889606238   0.06445754561722772
-1.0876610852782047   0.13593644889606238   0.06445754561722772
-1.584019324882858   -0.011625530884168844   0.017874190998988043
-1.584019324882858   -0.011625530884168844   0.017874190998988043
-1.584019324882858   -0.011625530884168844   0.017874190998988043
-1.584019324882858   -0.011625530884168844   0.017874190998988043
-1.1205949931024002   0.07805010622435543   -0.042325650832049436
-1.1205949931024002   0.07805010622435543   -0.042325650832049436
-1.1205949931024002   0.07805010622435543   -0.042325650832049436
-1.1205949931024002   0.07805010622435543   -0.042325650832049436
-2.030244450670751   -0.06264521748636631   0.01413257909763077
-2.030244450670751   -0.06264521748636631   0.01413257909763077
-2.030244450670751   -0.06264521748636631   0.01413257909763077
-2.030244450670751   -0.06264521748636631   0.01413257909763077
-1.9976646807109941   -0.05230879954515438   -0.10445958989447612
-1.9976646807109941   -0.05230879954515438   -0.10445958989447612
-1.9976646807109941   -0.05230879954515438   -0.10445958989447612
-1.9976646807109941   -0.05230879954515438   -0.10445958989447612
-1.0357224253983977   0.19318474248718637   0.052188945080758956
-1.0357224253983977   0.19318474248718637   0.052188945080758956
-1.0357224253983977   0.19318474248718637   0.052188945080758956
-1.0357224253983977   0.19318474248718637   0.052188945080758956
-1.5321405278600295   0.04057086469049653   0.0417133934481998
-1.5321405278600295   0.04057086469049653   0.0417133934481998
-1.5321405278600295   0.04057086469049653   0.0417133934481998
-1.5321405278600295   0.04057086469049653   0.0417133934481998
-2.179906597466754   -0.10442414208396622   -0.08138157024700994
-2.179906597466754   -0.10442414208396622   -0.08138157024700994
-2.179906597466754   -0.10442414208396622   -0.08138157024700994
-2.179906597466754   -0.10442414208396622   -0.08138157024700994
-3.1054813054107346   -0.11178078148546333   0.14111321859323553
-3.1054813054107346   -0.11178078148546333   0.14111321859323553
-3.1054813054107346   -0.11178078148546333   0.14111321859323553
-3.1054813054107346   -0.11178078148546333   0.14111321859323553
-3.0448199158449945   -0.22357650026347142   -0.10758355623760671
-3.0448199158449945   -0.22357650026347142   -0.10758355623760671
-3.0448199158449945   -0.22357650026347142   -0.10758355623760671
-3.0448199158449945   -0.22357650026347142   -0.10758355623760671
-2.021193905258252   0.17418790100689852   0.14331766004330498
-2.021193905258252   0.17418790100689852   0.14331766004330498
-2.021193905258252   0.17418790100689852   0.14331766004330498
-2.021193905258252   0.17418790100689852   0.14331766004330498
-2.473124713403093   -0.030593675899982187   0.028342712686976662
-2.473124713403093   -0.030593675899982187   0.028342712686976662
-2.473124713403093   -0.030593675899982187   0.028342712686976662
-2.473124713403093   -0.030593675899982187   0.028342712686976662
-2.1093980103334977   -0.03306533398237843   -0.09044963034363826
-2.1093980103334977   -0.03306533398237843   -0.09044963034363826
-2.1093980103334977   -0.03306533398237843   -0.09044963034363826
-2.1093980103334977   -0.03306533398237843   -0.09044963034363826
-2.9552121454506177   -0.014919599955064755   0.13179839542585364
-2.9552121454506177   -0.014919599955064755   0.13179839542585364
-2.9552121454506177   -0.014919599955064755   0.13179839542585364
-2.9552121454506177   -0.014919599955064755   0.13179839542585364
-2.9313706443928265   -0.18355153691457915   -0.12665464145113078
-2.9313706443928265   -0.18355153691457915   -0.12665464145113078
-2.9313706443928265   -0.18355153691457915   -0.12665464145113078
-2.9313706443928265   -0.18355153691457915   -0.12665464145113078
-1.9580640994778842   0.19888258766712508   0.11350652990847451
-1.9580640994778842   0.19888258766712508   0.11350652990847451
-1.9580640994778842   0.19888258766712508   0.11350652990847451
-1.9580640994778842   0.19888258766712508   0.11350652990847451
-2.4140960604467776   0.013072810453535144   0.05140833812337481
-2.4140960604467776   0.013072810453535144   0.05140833812337481
-2.4140960604467776   0.013072810453535144   0.05140833812337481
-2.4140960604467776   0.013072810453535144   0.05140833812337481
-2.0412719626558458   -0.0007757599498323664   -0.1028744383643774
-2.0412719626558458   -0.0007757599498323664   -0.1028744383643774
-2.0412719626558458   -0.0007757599498323664   -0.1028744383643774
-2.0412719626558458   -0.0007757599498323664   -0.1028744383643774
-2.846774554782727   0.017495037134508062   0.09527923255023216
-2.846774554782727   0.017495037134508062   0.09527923255023216
-2.846774554782727   0.017495037134508062   0.09527923255023216
-2.846774554782727   0.017495037134508062   0.09527923255023216
-2.8075207983569253   -0.13533527932818534   -0.1442557728136466
-2.8075207983569253   -0.13533527932818534   -0.1442557728136466
-2.8075207983569253   -0.13533527932818534   -0.1442557728136466
-2.8075207983569253   -0.13533527932818534   -0.1442557728136466
-1.9025106848250752   0.22232767852160484   0.09667391146836019
-1.9025106848250752   0.22232767852160484   0.09667391146836019
-1.9025106848250752   0.22232767852160484   0.09667391146836019
-1.9025106848250752   0.22232767852160484   0.09667391146836019
-2.2893681263237116   0.049435386892315636   0.08612524781357098
-2.2893681263237116   0.049435386892315636   0.08612524781357098
-2.2893681263237116   0.049435386892315636   0.08612524781357098
-2.2893681263237116   0.049435386892315636   0.08612524781357098
2.7439945816521734   0.20485503063663418   0.1460138704316905
2.7439945816521734   0.20485503063663418   0.1460138704316905
2.7439945816521734   0.20485503063663418   0.1460138704316905
2.7439945816521734   0.20485503063663418   0.1460138704316905
1.211483657316096   -0.32437924183061667   -0.06682147512253922
1.211483657316096   -0.32437924183061667   -0.06682147512253922
1.211483657316096   -0.32437924183061667   -0.06682147512253922
1.211483657316096   -0.32437924183061667   -0.06682147512253922
1.35178390488963   -0.056512584567503354   0.10039768527660244
1.35178390488963   -0.056512584567503354   0.10039768527660244
1.35178390488963   -0.056512584567503354   0.10039768527660244
1.35178390488963   -0.056512584567503354   0.10039768527660244
2.7748064976601015   -0.00632075674023147   -0.10492721167426305
2.7748064976601015   -0.00632075674023147   -0.10492721167426305
2.7748064976601015   -0.00632075674023147   -0.10492721167426305
2.7748064976601015   -0.00632075674023147   -0.10492721167426305
1.9021144729155752   -0.058164288182661006   -0.14921901058505166
1.9021144729155752   -0.058164288182661006   -0.14921901058505166
1.9021144729155752   -0.058164288182661006   -0.14921901058505166
1.9021144729155752   -0.058164288182661006   -0.14921901058505166
2.871863113674295   0.2518589520544999   0.12217615960195345
2.871863113674295   0.2518589520544999   0.12217615960195345
2.871863113674295   0.2518589520544999   0.12217615960195345
2.871863113674295   0.2518589520544999   0.12217615960195345
1.2640364395647992   -0.3053831426728739   -0.08946908324217295
1.2640364395647992   -0.3053831426728739   -0.08946908324217295
1.2640364395647992   -0.3053831426728739   -0.08946908324217295
1.2640364395647992   -0.3053831426728739   -0.08946908324217295
1.406858467446919   -0.02692025619454147   0.08121574892058725
1.406858467446919   -0.02692025619454147   0.08121574892058725
1.406858467446919   -0.02692025619454147   0.08121574892058725
1.406858467446919   -0.02692025619454147   0.08121574892058725
2.870738641527407   0.02632999153286597   -0.13123641173505338
2.870738641527407   0.02632999153286597   -0.13123641173505338
2.870738641527407   0.02632999153286597   -0.13123641173505338
2.870738641527407   0.02632999153286597   -0.13123641173505338
2.0223727092877395   -0.0232236783669052   -0.10142277010662185
2.0223727092877395   -0.0232236783669052   -0.10142277010662185
2.0223727092877395   -0.0232236783669052   -0.10142277010662185
2.0223727092877395   -0.0232236783669052   -0.10142277010662185
2.9672454751236126   0.28703295426037345   0.09059479351846847
2.9672454751236126   0.28703295426037345   0.09059479351846847
2.9672454751236126   0.28703295426037345   0.09059479351846847
2.9672454751236126   0.28703295426037345   0.09059479351846847
1.3185111827720217   -0.27946367000071975   -0.10797726064772009
1.3185111827720217   -0.27946367000071975   -0.10797726064772009
1.3185111827720217   -0.27946367000071975   -0.10797726064772009
1.3185111827720217   -0.27946367000071975   -0.10797726064772009
1.4567218812553997   0.05204500664229206   0.07120390590840817
1.4567218812553997   0.05204500664229206   0.07120390590840817
1.4567218812553997   0.05204500664229206   0.07120390590840817
1.4567218812553997   0.05204500664229206   0.07120390590840817
2.988663087958387   0.12182137237423102   -0.1374778840202317
2.988663087958387   0.12182137237423102   -0.1374778840202317
2.988663087958387   0.12182137237423102   -0.1374778840202317
2.988663087958387   0.12182137237423102   -0.1374778840202317
2.0677549730197082   0.02373770996786001   -0.06826685163493158
2.0677549730197082   0.02373770996786001   -0.06826685163493158
2.0677549730197082   0.02373770996786001   -0.06826685163493158
2.0677549730197082   0.02373770996786001   -0.06826685163493158
1.340268627904377   0.11943915766265004   0.13328497832558248
1.340268627904377   0.11943915766265004   0.13328497832558248
1.340268627904377   0.11943915766265004   0.13328497832558248
1.340268627904377   0.11943915766265004   0.13328497832558248
-0.16355255984369266   -0.4001722470316531   -0.03797806633297729
-0.16355255984369266   -0.4001722470316531   -0.03797806633297729
-0.16355255984369266   -0.4001722470316531   -0.03797806633297729
-0.16355255984369266   -0.4001722470316531   -0.03797806633297729
-0.042495784654489395   -0.14071541302713195   0.0341420082632639
-0.042495784654489395   -0.14071541302713195   0.0341420082632639
-0.042495784654489395   -0.14071541302713195   0.0341420082632639
-0.042495784654489395   -0.14071541302713195   0.0341420082632639
1.3291573728714392   -0.07569722978042231   0.006449670398568294
1.3291573728714392   -0.07569722978042231   0.006449670398568294
1.3291573728714392   -0.07569722978042231   0.006449670398568294
1.3291573728714392   -0.07569722978042231   0.006449670398568294
0.5991681748810973   -0.11209495674534883   -0.07135200249473168
0.5991681748810973   -0.11209495674534883   -0.07135200249473168
0.5991681748810973   -0.11209495674534883   -0.07135200249473168
0.5991681748810973   -0.11209495674534883   -0.07135200249473168
1.399503052197907   0.16446010011732626   0.11802073713315843
1.399503052197907   0.16446010011732626   0.11802073713315843
1.399503052197907   0.16446010011732626   0.11802073713315843
1.399503052197907   0.16446010011732626   0.11802073713315843
-0.10795835871109863   -0.375989637655022   -0.05789663739189223
-0.10795835871109863   -0.375989637655022   -0.05789663739189223
-0.10795835871109863   -0.375989637655022   -0.05789663739189223
-0.10795835871109863   -0.375989637655022   -0.05789663739189223
0.013677119364145108   -0.08783051462746039   0.020906610271879966
0.013677119364145108   -0.08783051462746039   0.020906610271879966
0.013677119364145108   -0.08783051462746039   0.020906610271879966
0.013677119364145108   -0.08783051462746039   0.020906610271879966
1.3866251297278271   -0.035830399328683815   -0.011040796540729342
1.3866251297278271   -0.035830399328683815   -0.011040796540729342
1.3866251297278271   -0.035830399328683815   -0.011040796540729342
1.3866251297278271   -0.035830399328683815   -0.011040796540729342
0.6480448898963241   -0.07964417615626307   -0.04629691388812461
0.6480448898963241   -0.07964417615626307   -0.04629691388812461
0.6480448898963241   -0.07964417615626307   -0.04629691388812461
0.6480448898963241   -0.07964417615626307   -0.04629691388812461
1.4607502064947344   0.21846134861442168   0.10529283935070101
1.4607502064947344   0.21846134861442168   0.10529283935070101
1.4607502064947344   0.21846134861442168   0.10529283935070101
1.4607502064947344   0.21846134861442168   0.10529283935070101
-0.05756335042723644   -0.3392376555950607   -0.08388859771742743
-0.05756335042723644   -0.3392376555950607   -0.08388859771742743
-0.05756335042723644   -0.3392376555950607   -0.08388859771742743
-0.05756335042723644   -0.3392376555950607   -0.08388859771742743
0.057757910660402936   -0.025989997385607866   0.007519404934273461
0.057757910660402936   -0.025989997385607866   0.007519404934273461
0.057757910660402936   -0.025989997385607866   0.007519404934273461
0.057757910660402936   -0.025989997385607866   0.007519404934273461
1.4296916122148169   0.01495500675565098   -0.026857439407886888
1.4296916122148169   0.01495500675565098   -0.026857439407886888
1.4296916122148169   0.01495500675565098   -0.026857439407886888
1.4296916122148169   0.01495500675565098   -0.026857439407886888
0.7076798626649359   -0.031143689226780596   -0.019477529392546607
0.7076798626649359   -0.031143689226780596   -0.019477529392546607
0.7076798626649359   -0.031143689226780596   -0.019477529392546607
0.7076798626649359   -0.031143689226780596   -0.019477529392546607
-0.05612207157793393   0.03286857873346816   0.066133549230695
-0.05612207157793393   0.03286857873346816   0.066133549230695
-0.05612207157793393   0.03286857873346816   0.066133549230695
-0.05612207157793393   0.03286857873346816   0.066133549230695
-1.528072294892587   -0.5027353471152365   -0.030682245124584714
-1.528072294892587   -0.5027353471152365   -0.030682245124584714
-1.528072294892587   -0.5027353471152365   -0.030682245124584714
-1.528072294892587   -0.5027353471152365   -0.030682245124584714
-1.4053426743862591   -0.21597324806429247   -0.03210604055240332
-1.4053426743862591   -0.21597324806429247   -0.03210604055240332
-1.4053426743862591   -0.21597324806429247   -0.03210604055240332
-1.4053426743862591   -0.21597324806429247   -0.03210604055240332
-0.05025345715260634   -0.17506497572168614   0.029703208467233372
-0.05025345715260634   -0.17506497572168614   0.029703208467233372
-0.05025345715260634   -0.17506497572168614   0.029703208467233372
-0.05025345715260634   -0.17506497572168614   0.029703208467233372
-0.7634501028734063   -0.20369791386774597   -0.06380385226111245
-0.7634501028734063   -0.20369791386774597   -0.06380385226111245
-0.7634501028734063   -0.20369791386774597   -0.06380385226111245
-0.7634501028734063   -0.20369791386774597   -0.06380385226111245
0.006258158178095679   0.08350615703241264   0.05369015236664469
0.006258158178095679   0.08350615703241264   0.05369015236664469
0.006258158178095679   0.08350615703241264   0.05369015236664469
0.006258158178095679   0.08350615703241264   0.05369015236664469
-1.4583365518917741   -0.47102664299318386   -0.042022033151087296
-1.4583365518917741   -0.47102664299318386   -0.042022033151087296
-1.4583365518917741   -0.47102664299318386   -0.042022033151087296
-1.4583365518917741   -0.47102664299318386   -0.042022033151087296
-1.3356901281408364   -0.15724919135847013   -0.043785391006205134
-1.3356901281408364   -0.15724919135847013   -0.043785391006205134
-1.3356901281408364   -0.15724919135847013   -0.043785391006205134
-1.3356901281408364   -0.15724919135847013   -0.043785391006205134
0.002099426394158943   -0.13677101363806243   0.0119586444325512
0.002099426394158943   -0.13677101363806243   0.0119586444325512
0.002099426394158943   -0.13677101363806243   0.0119586444325512
0.002099426394158943   -0.13677101363806243   0.0119586444325512
-0.6958348839056401   -0.1615132547981057   -0.03551194856830846
-0.6958348839056401   -0.1615132547981057   -0.03551194856830846
-0.6958348839056401   -0.1615132547981057   -0.03551194856830846
-0.6958348839056401   -0.1615132547981057   -0.03551194856830846
0.06334981546980482   0.1396698256662023   0.04176975050651587
0.06334981546980482   0.1396698256662023   0.04176975050651587
0.06334981546980482   0.1396698256662023   0.04176975050651587
0.06334981546980482   0.1396698256662023   0.04176975050651587
-1.3970122543790697   -0.43376176782532055   -0.07388344573051077
-1.3970122543790697   -0.43376176782532055   -0.07388344573051077
-1.3970122543790697   -0.43376176782532055   -0.07388344573051077
-1.3970122543790697   -0.43376176782532055   -0.07388344573051077
-1.2864806522807213   -0.10130512268828973   -0.05686067333080101
-1.2864806522807213   -0.10130512268828973   -0.05686067333080101
-1.2864806522807213   -0.10130512268828973   -0.05686067333080101
-1.2864806522807213   -0.10130512268828973   -0.05686067333080101
0.03650560343780821   -0.10625404394908475   -0.018478084615223316
0.03650560343780821   -0.10625404394908475   -0.018478084615223316
0.03650560343780821   -0.10625404394908475   -0.018478084615223316
0.03650560343780821   -0.10625404394908475   -0.018478084615223316
-0.6462286468637553   -0.12221226568604002   -0.017859630230171182
-0.6462286468637553   -0.12221226568604002   -0.017859630230171182
-0.6462286468637553   -0.12221226568604002   -0.017859630230171182
-0.6462286468637553   -0.12221226568604002   -0.017859630230171182
-1.430288504100648   -0.042165067831429426   -0.00233357044870848
-1.430288504100648   -0.042165067831429426   -0.00233357044870848
-1.430288504100648   -0.042165067831429426   -0.00233357044870848
-1.430288504100648   -0.042165067831429426   -0.00233357044870848
-2.8984096685698875   -0.5405008875287997   -0.024808889658407246
-2.8984096685698875   -0.5405008875287997   -0.024808889658407246
-2.8984096685698875   -0.5405008875287997   -0.024808889658407246
-2.8984096685698875   -0.5405008875287997   -0.024808889658407246
-2.7663329495474005   -0.2763810344178085   -0.09582393589946606
-2.7663329495474005   -0.2763810344178085   -0.09582393589946606
-2.7663329495474005   -0.2763810344178085   -0.09582393589946606
-2.7663329495474005   -0.2763810344178085   -0.09582393589946606
-1.3794385241426732   -0.1817917632060177   0.06323322580724028
-1.3794385241426732   -0.1817917632060177   0.06323322580724028
-1.3794385241426732   -0.1817917632060177   0.06323322580724028
-1.3794385241426732   -0.1817917632060177   0.06323322580724028
-2.099987876187272   -0.2446078739632476   -0.04500734874431476
-2.099987876187272   -0.2446078739632476   -0.04500734874431476
-2.099987876187272   -0.2446078739632476   -0.04500734874431476
-2.099987876187272   -0.2446078739632476   -0.04500734874431476
-1.3533484586351245   0.023132507476944286   -0.011240717337978351
-1.3533484586351245   0.023132507476944286   -0.011240717337978351
-1.3533484586351245   0.023132507476944286   -0.011240717337978351
-1.3533484586351245   0.023132507476944286   -0.011240717337978351
-2.7936193210182916   -0.48250161106410905   -0.026135216607597878
-2.7936193210182916   -0.48250161106410905   -0.026135216607597878
-2.7936193210182916   -0.48250161106410905   -0.026135216607597878
-2.7936193210182916   -0.48250161106410905   -0.026135216607597878
-2.6668435083448334   -0.21499658200039296   -0.11102518579842047
-2.6668435083448334   -0.21499658200039296   -0.11102518579842047
-2.6668435083448334   -0.21499658200039296   -0.11102518579842047
-2.6668435083448334   -0.21499658200039296   -0.11102518579842047
-1.311739373350757   -0.13565294964168467   0.054372141227415974
-1.311739373350757   -0.13565294964168467   0.054372141227415974
-1.311739373350757   -0.13565294964168467   0.054372141227415974
-1.311739373350757   -0.13565294964168467   0.054372141227415974
-1.997870521802329   -0.18571999681397924   -0.01495965317148041
-1.997870521802329   -0.18571999681397924   -0.01495965317148041
-1.997870521802329   -0.18571999681397924   -0.01495965317148041
-1.997870521802329   -0.18571999681397924   -0.01495965317148041
-1.2835164467167615   0.07986719369670336   -0.020033368941010432
-1.2835164467167615   0.07986719369670336   -0.020033368941010432
-1.2835164467167615   0.07986719369670336   -0.020033368941010432
-1.2835164467167615   0.07986719369670336   -0.020033368941010432
-2.69992904760285   -0.4353793379628013   -0.056070126126074135
-2.69992904760285   -0.4353793379628013   -0.056070126126074135
-2.69992904760285   -0.4353793379628013   -0.056070126126074135
-2.69992904760285   -0.4353793379628013   -0.056070126126074135
-2.5859936425171584   -0.15021347198707607   -0.11453091017179261
-2.5859936425171584   -0.15021347198707607   -0.11453091017179261
-2.5859936425171584   -0.15021347198707607   -0.11453091017179261
-2.5859936425171584   -0.15021347198707607   -0.11453091017179261
-1.272823111246353   -0.10632068942361189   0.016442598576374298
-1.272823111246353   -0.10632068942361189   0.016442598576374298
-1.272823111246353   -0.10632068942361189   0.016442598576374298
-1.272823111246353   -0.10632068942361189   0.016442598576374298
-1.9411889267867684   -0.14979455778788192   -0.005190949086384636
-1.9411889267867684   -0.14979455778788192   -0.005190949086384636
-1.9411889267867684   -0.14979455778788192   -0.005190949086384636
-1.9411889267867684   -0.14979455778788192   -0.005190949086384636
-2.8187719877105994   -0.09673819686853058   -0.07038317602223634
-2.8187719877105994   -0.09673819686853058   -0.07038317602223634
-2.8187719877105994   -0.09673819686853058   -0.07038317602223634
-2.8187719877105994   -0.09673819686853058   -0.07038317602223634
-4.250071131422502   -0.3642657449302117   0.16199538548237172
-4.250071131422502   -0.3642657449302117   0.16199538548237172
-4.250071131422502   -0.3642657449302117   0.16199538548237172
-4.250071131422502   -0.3642657449302117   0.16199538548237172
-4.102655934342369   -0.2895428614560265   -0.09387412318720262
-4.102655934342369   -0.2895428614560265   -0.09387412318720262
-4.102655934342369   -0.2895428614560265   -0.09387412318720262
-4.102655934342369   -0.2895428614560265   -0.09387412318720262
-2.647095531451899   0.07535667074105157   0.14862544941915912
-2.647095531451899   0.07535667074105157   0.14862544941915912
-2.647095531451899   0.07535667074105157   0.14862544941915912
-2.647095531451899   0.07535667074105157   0.14862544941915912
-3.3002295548568537   -0.11466322983605437   0.015081659968203237
-3.3002295548568537   -0.11466322983605437   0.015081659968203237
-3.3002295548568537   -0.11466322983605437   0.015081659968203237
-3.3002295548568537   -0.11466322983605437   0.015081659968203237
-2.709017177670907   -0.00763792305937705   -0.07798818787541822
-2.709017177670907   -0.00763792305937705   -0.07798818787541822
-2.709017177670907   -0.00763792305937705   -0.07798818787541822
-2.709017177670907   -0.00763792305937705   -0.07798818787541822
-4.030742234121765   -0.19655621365399467   0.17270773011379337
-4.030742234121765   -0.19655621365399467   0.17270773011379337
-4.030742234121765   -0.19655621365399467   0.17270773011379337
-4.030742234121765   -0.19655621365399467   0.17270773011379337
-3.9446060649203734   -0.24348583864425433   -0.11179363620593388
-3.9446060649203734   -0.24348583864425433   -0.11179363620593388
-3.9446060649203734   -0.24348583864425433   -0.11179363620593388
-3.9446060649203734   -0.24348583864425433   -0.11179363620593388
-2.548643787003468   0.12134718874985218   0.1436296501581606
-2.548643787003468   0.12134718874985218   0.1436296501581606
-2.548643787003468   0.12134718874985218   0.1436296501581606
-2.548643787003468   0.12134718874985218   0.1436296501581606
-3.206294013253176   -0.04626248514407194   0.06553461443021591
-3.206294013253176   -0.04626248514407194   0.06553461443021591
-3.206294013253176   -0.04626248514407194   0.06553461443021591
-3.206294013253176   -0.04626248514407194   0.06553461443021591
-2.612792223563952   0.02840215674111657   -0.08416750063550058
-2.612792223563952   0.02840215674111657   -0.08416750063550058
-2.612792223563952   0.02840215674111657   -0.08416750063550058
-2.612792223563952   0.02840215674111657   -0.08416750063550058
-3.8784794299662546   -0.14856260824188539   0.12391630816225957
-3.8784794299662546   -0.14856260824188539   0.12391630816225957
-3.8784794299662546   -0.14856260824188539   0.12391630816225957
-3.8784794299662546   -0.14856260824188539   0.12391630816225957
-3.781217942307805   -0.1997606726509895   -0.13506058691188222
-3.781217942307805   -0.1997606726509895   -0.13506058691188222
-3.781217942307805   -0.1997606726509895   -0.13506058691188222
-3.781217942307805   -0.1997606726509895   -0.13506058691188222
-2.4754473460564608   0.1767375153073808   0.11124958483723871
-2.4754473460564608   0.1767375153073808   0.11124958483723871
-2.4754473460564608   0.1767375153073808   0.11124958483723871
-2.4754473460564608   0.1767375153073808   0.11124958483723871
-3.0309744930084577   0.012290093966277338   0.11586979140976472
-3.0309744930084577   0.012290093966277338   0.11586979140976472
-3.0309744930084577   0.012290093966277338   0.11586979140976472
-3.0309744930084577   0.012290093966277338   0.11586979140976472
3.752279430675433   0.2244901178345341   0.1367295498437549
3.752279430675433   0.2244901178345341   0.1367295498437549
3.752279430675433   0.2244901178345341   0.1367295498437549
3.752279430675433   0.2244901178345341   0.1367295498437549
1.7901143022020454   -0.33608637680444575   0.03130940742529731
1.7901143022020454   -0.33608637680444575   0.03130940742529731
1.7901143022020454   -0.33608637680444575   0.03130940742529731
1.7901143022020454   -0.33608637680444575   0.03130940742529731
1.889536088344014   -0.14130877539451897   0.1054031043702639
1.889536088344014   -0.14130877539451897   0.1054031043702639
1.889536088344014   -0.14130877539451897   0.1054031043702639
1.889536088344014   -0.14130877539451897   0.1054031043702639
3.7724460322069238   0.030637594568949544   -0.02982125932135138
3.7724460322069238   0.030637594568949544   -0.02982125932135138
3.7724460322069238   0.030637594568949544   -0.02982125932135138
3.7724460322069238   0.030637594568949544   -0.02982125932135138
2.638890533242482   -0.07260374464640396   -0.1758313215840537
2.638890533242482   -0.07260374464640396   -0.1758313215840537
2.638890533242482   -0.07260374464640396   -0.1758313215840537
2.638890533242482   -0.07260374464640396   -0.1758313215840537
3.8439400856514263   0.25012393640577757   0.10816266606433433
3.8439400856514263   0.25012393640577757   0.10816266606433433
3.8439400856514263   0.25012393640577757   0.10816266606433433
3.8439400856514263   0.25012393640577757   0.10816266606433433
1.8352445936414739   -0.3435925584893845   0.03622941395242801
1.8352445936414739   -0.3435925584893845   0.03622941395242801
1.8352445936414739   -0.3435925584893845   0.03622941395242801
1.8352445936414739   -0.3435925584893845   0.03622941395242801
1.9273532915213276   -0.12004751352559695   0.0802614129785881
1.9273532915213276   -0.12004751352559695   0.0802614129785881
1.9273532915213276   -0.12004751352559695   0.0802614129785881
1.9273532915213276   -0.12004751352559695   0.0802614129785881
3.8390355249099666   0.05463490195153686   -0.008532216892012334
3.8390355249099666   0.05463490195153686   -0.008532216892012334
3.8390355249099666   0.05463490195153686   -0.008532216892012334
3.8390355249099666   0.05463490195153686   -0.008532216892012334
2.7482354648513825   -0.05751821353253994   -0.11998062330396836
2.7482354648513825   -0.05751821353253994   -0.11998062330396836
2.7482354648513825   -0.05751821353253994   -0.11998062330396836
2.7482354648513825   -0.05751821353253994   -0.11998062330396836
3.899476311411086   0.27332177614138486   0.07498484142373893
3.899476311411086   0.27332177614138486   0.07498484142373893
3.899476311411086   0.27332177614138486   0.07498484142373893
3.899476311411086   0.27332177614138486   0.07498484142373893
1.878880463467723   -0.3267664292679297   0.04461618845289822
1.878880463467723   -0.3267664292679297   0.04461618845289822
1.878880463467723   -0.3267664292679297   0.04461618845289822
1.878880463467723   -0.3267664292679297   0.04461618845289822
1.9829364586911378   -0.03715444892491976   0.07336963875126314
1.9829364586911378   -0.03715444892491976   0.07336963875126314
1.9829364586911378   -0.03715444892491976   0.07336963875126314
1.9829364586911378   -0.03715444892491976   0.07336963875126314
3.9081801653359802   0.10936008438749545   -0.0007561878276672873
3.9081801653359802   0.10936008438749545   -0.0007561878276672873
3.9081801653359802   0.10936008438749545   -0.0007561878276672873
3.9081801653359802   0.10936008438749545   -0.0007561878276672873
2.762256102817246   -0.026816323722663293   -0.08949379254329276
2.762256102817246   -0.026816323722663293   -0.08949379254329276
2.762256102817246   -0.026816323722663293   -0.08949379254329276
2.762256102817246   -0.026816323722663293   -0.08949379254329276
1.8889361956376516   0.046489680742489825   0.14284281705639318
1.8889361956376516   0.046489680742489825   0.14284281705639318
1.8889361956376516   0.046489680742489825   0.14284281705639318
1.8889361956376516   0.046489680742489825   0.14284281705639318
0.10268043965883183   -0.671332953837255   0.06958051956333977
0.10268043965883183   -0.671332953837255   0.06958051956333977
0.10268043965883183   -0.671332953837255   0.06958051956333977
0.10268043965883183   -0.671332953837255   0.06958051956333977
0.23251142313258127   -0.2833984561189437   0.06458948844481936
0.23251142313258127   -0.2833984561189437   0.06458948844481936
0.23251142313258127   -0.2833984561189437   0.06458948844481936
0.23251142313258127   -0.2833984561189437   0.06458948844481936
1.840292528208463   -0.32557149974124655   0.04344802803922071
1.840292528208463   -0.32557149974124655   0.04344802803922071
1.840292528208463   -0.32557149974124655   0.04344802803922071
1.840292528208463   -0.32557149974124655   0.04344802803922071
0.9830159013311548   -0.30195194562820227   -0.11290269428218405
0.9830159013311548   -0.30195194562820227   -0.11290269428218405
0.9830159013311548   -0.30195194562820227   -0.11290269428218405
0.9830159013311548   -0.30195194562820227   -0.11290269428218405
1.9341251414279022   0.06784525727514218   0.11919433712005083
1.9341251414279022   0.06784525727514218   0.11919433712005083
1.9341251414279022   0.06784525727514218   0.11919433712005083
1.9341251414279022   0.06784525727514218   0.11919433712005083
0.16344434014681103   -0.6520496829016802   0.08790530029870458
0.16344434014681103   -0.6520496829016802   0.08790530029870458
0.16344434014681103   -0.6520496829016802   0.08790530029870458
0.16344434014681103   -0.6520496829016802   0.08790530029870458
0.2848051671736853   -0.24459940986268444   0.04693411334353206
0.2848051671736853   -0.24459940986268444   0.04693411334353206
0.2848051671736853   -0.24459940986268444   0.04693411334353206
0.2848051671736853   -0.24459940986268444   0.04693411334353206
1.8850110326327068   -0.3053321736988879   0.0538347787087739
1.8850110326327068   -0.3053321736988879   0.0538347787087739
1.8850110326327068   -0.3053321736988879   0.0538347787087739
1.8850110326327068   -0.3053321736988879   0.0538347787087739
1.0276302795681926   -0.2871630218020893   -0.0564440794489299
1.0276302795681926   -0.2871630218020893   -0.0564440794489299
1.0276302795681926   -0.2871630218020893   -0.0564440794489299
1.0276302795681926   -0.2871630218020893   -0.0564440794489299
1.9762522270430023   0.1043707457122881   0.10033783134907762
1.9762522270430023   0.1043707457122881   0.10033783134907762
1.9762522270430023   0.1043707457122881   0.10033783134907762
1.9762522270430023   0.1043707457122881   0.10033783134907762
0.21739848972610848   -0.6304678123111414   0.09576912855410469
0.21739848972610848   -0.6304678123111414   0.09576912855410469
0.21739848972610848   -0.6304678123111414   0.09576912855410469
0.21739848972610848   -0.6304678123111414   0.09576912855410469
0.3650055082044993   -0.18637102618674312   0.031198499890583223
0.3650055082044993   -0.18637102618674312   0.031198499890583223
0.3650055082044993   -0.18637102618674312   0.031198499890583223
0.3650055082044993   -0.18637102618674312   0.031198499890583223
1.934004970672077   -0.27453052168025655   0.06608827141130366
1.934004970672077   -0.27453052168025655   0.06608827141130366
1.934004970672077   -0.27453052168025655   0.06608827141130366
1.934004970672077   -0.27453052168025655   0.06608827141130366
1.1055104965382117   -0.2512300528134892   0.009220688275689837
1.1055104965382117   -0.2512300528134892   0.009220688275689837
1.1055104965382117   -0.2512300528134892   0.009220688275689837
1.1055104965382117   -0.2512300528134892   0.009220688275689837
0.2155294894402013   -0.1294833152476668   0.09197612988059878
0.2155294894402013   -0.1294833152476668   0.09197612988059878
0.2155294894402013   -0.1294833152476668   0.09197612988059878
0.2155294894402013   -0.1294833152476668   0.09197612988059878
-1.5991585407630682   -1.1545411044488072   0.10032811158700847
-1.5991585407630682   -1.1545411044488072   0.10032811158700847
-1.5991585407630682   -1.1545411044488072   0.10032811158700847
-1.5991585407630682   -1.1545411044488072   0.10032811158700847
-1.3936519283837088   -0.44826617931383456   0.0070956617374712955
-1.3936519283837088   -0.44826617931383456   0.0070956617374712955
-1.3936519283837088   -0.44826617931383456   0.0070956617374712955
-1.3936519283837088   -0.44826617931383456   0.0070956617374712955
0.11513417771045154   -0.8433608772715744   0.037665682486801355
0.11513417771045154   -0.8433608772715744   0.037665682486801355
0.11513417771045154   -0.8433608772715744   0.037665682486801355
0.11513417771045154   -0.8433608772715744   0.037665682486801355
-0.6866707930124297   -0.648560026711983   -0.1355026445907795
-0.6866707930124297   -0.648560026711983   -0.1355026445907795
-0.6866707930124297   -0.648560026711983   -0.1355026445907795
-0.6866707930124297   -0.648560026711983   -0.1355026445907795
0.2702863618239915   -0.10240375705266944   0.07246948283559632
0.2702863618239915   -0.10240375705266944   0.07246948283559632
0.2702863618239915   -0.10240375705266944   0.07246948283559632
0.2702863618239915   -0.10240375705266944   0.07246948283559632
-1.513040318729422   -1.15345950576491   0.11534703645999678
-1.513040318729422   -1.15345950576491   0.11534703645999678
-1.513040318729422   -1.15345950576491   0.11534703645999678
-1.513040318729422   -1.15345950576491   0.11534703645999678
-1.3143978107908152   -0.40236248044585377   0.0004985475785689725
-1.3143978107908152   -0.40236248044585377   0.0004985475785689725
-1.3143978107908152   -0.40236248044585377   0.0004985475785689725
-1.3143978107908152   -0.40236248044585377   0.0004985475785689725
0.1702373797843241   -0.8251483985604181   0.0546441650944596
0.1702373797843241   -0.8251483985604181   0.0546441650944596
0.1702373797843241   -0.8251483985604181   0.0546441650944596
0.1702373797843241   -0.8251483985604181   0.0546441650944596
-0.6064670686515845   -0.626744861413563   -0.05072403787683266
-0.6064670686515845   -0.626744861413563   -0.05072403787683266
-0.6064670686515845   -0.626744861413563   -0.05072403787683266
-0.6064670686515845   -0.626744861413563   -0.05072403787683266
0.32034496710935856   -0.06625574479140836   0.04628944795062202
0.32034496710935856   -0.06625574479140836   0.04628944795062202
0.32034496710935856   -0.06625574479140836   0.04628944795062202
0.32034496710935856   -0.06625574479140836   0.04628944795062202
-1.4321547954074083   -1.1289045315064183   0.13825567555619103
-1.4321547954074083   -1.1289045315064183   0.13825567555619103
-1.4321547954074083   -1.1289045315064183   0.13825567555619103
-1.4321547954074083   -1.1289045315064183   0.13825567555619103
-1.1836331299049339   -0.3494554449465496   -0.014346356259928642
-1.1836331299049339   -0.3494554449465496   -0.014346356259928642
-1.1836331299049339   -0.3494554449465496   -0.014346356259928642
-1.1836331299049339   -0.3494554449465496   -0.014346356259928642
0.256274232157191   -0.7737222883627135   0.07489338183000832
0.256274232157191   -0.7737222883627135   0.07489338183000832
0.256274232157191   -0.7737222883627135   0.07489338183000832
0.256274232157191   -0.7737222883627135   0.07489338183000832
-0.5023064684500005   -0.5774089512471713   0.0382063490719661
-0.5023064684500005   -0.5774089512471713   0.0382063490719661
-0.5023064684500005   -0.5774089512471713   0.0382063490719661
-0.5023064684500005   -0.5774089512471713   0.0382063490719661
-1.426011572602496   -0.23229593401285809   0.043817781953909146
-1.426011572602496   -0.23229593401285809   0.043817781953909146
-1.426011572602496   -0.23229593401285809   0.043817781953909146
-1.426011572602496   -0.23229593401285809   0.043817781953909146
-3.564469267425896   -1.7991717276452883   -0.08615341212548627
-3.564469267425896   -1.7991717276452883   -0.08615341212548627
-3.564469267425896   -1.7991717276452883   -0.08615341212548627
-3.564469267425896   -1.7991717276452883   -0.08615341212548627
-3.225060499765897   -0.5833026866359426   -0.09869941571903777
-3.225060499765897   -0.5833026866359426   -0.09869941571903777
-3.225060499765897   -0.5833026866359426   -0.09869941571903777
-3.225060499765897   -0.5833026866359426   -0.09869941571903777
-1.6008238378197017   -1.5066111148514727   0.029581050095145556
-1.6008238378197017   -1.5066111148514727   0.029581050095145556
-1.6008238378197017   -1.5066111148514727   0.029581050095145556
-1.6008238378197017   -1.5066111148514727   0.029581050095145556
-2.451266124178247   -1.0640616708417843   -0.14219106259504577
-2.451266124178247   -1.0640616708417843   -0.14219106259504577
-2.451266124178247   -1.0640616708417843   -0.14219106259504577
-2.451266124178247   -1.0640616708417843   -0.14219106259504577
-1.3323253881074437   -0.1766027869995433   0.042064970804505344
-1.3323253881074437   -0.1766027869995433   0.042064970804505344
-1.3323253881074437   -0.1766027869995433   0.042064970804505344
-1.3323253881074437   -0.1766027869995433   0.042064970804505344
-3.4857515509259556   -1.905503615935693   -0.07995374221958057
-3.4857515509259556   -1.905503615935693   -0.07995374221958057
-3.4857515509259556   -1.905503615935693   -0.07995374221958057
-3.4857515509259556   -1.905503615935693   -0.07995374221958057
-3.1197208497811424   -0.5282236595861607   -0.10049993206457834
-3.1197208497811424   -0.5282236595861607   -0.10049993206457834
-3.1197208497811424   -0.5282236595861607   -0.10049993206457834
-3.1197208497811424   -0.5282236595861607   -0.10049993206457834
-1.5241011922496583   -1.4951730025586811   0.04479216239719375
-1.5241011922496583   -1.4951730025586811   0.04479216239719375
-1.5241011922496583   -1.4951730025586811   0.04479216239719375
-1.5241011922496583   -1.4951730025586811   0.04479216239719375
-2.340981662046512   -1.035766549734206   -0.10042182855321163
-2.340981662046512   -1.035766549734206   -0.10042182855321163
-2.340981662046512   -1.035766549734206   -0.10042182855321163
-2.340981662046512   -1.035766549734206   -0.10042182855321163
-1.2577800670489134   -0.1329087995486271   0.014133585390859918
-1.2577800670489134   -0.1329087995486271   0.014133585390859918
-1.2577800670489134   -0.1329087995486271   0.014133585390859918
-1.2577800670489134   -0.1329087995486271   0.014133585390859918
-3.386127576658938   -1.890573464273281   -0.07018376176640378
-3.386127576658938   -1.890573464273281   -0.07018376176640378
-3.386127576658938   -1.890573464273281   -0.07018376176640378
-3.386127576658938   -1.890573464273281   -0.07018376176640378
-2.9555459500235175   -0.46893469239359337   -0.1139045774963683
-2.9555459500235175   -0.46893469239359337   -0.1139045774963683
-2.9555459500235175   -0.46893469239359337   -0.1139045774963683
-2.9555459500235175   -0.46893469239359337   -0.1139045774963683
-1.3581367992962154   -1.3459669410354844   0.10964679287261558
-1.3581367992962154   -1.3459669410354844   0.10964679287261558
-1.3581367992962154   -1.3459669410354844   0.10964679287261558
-1.3581367992962154   -1.3459669410354844   0.10964679287261558
-2.2177354269155023   -0.9397112265973528   -0.05671559991830727
-2.2177354269155023   -0.9397112265973528   -0.05671559991830727
-2.2177354269155023   -0.9397112265973528   -0.05671559991830727
-2.2177354269155023   -0.9397112265973528   -0.05671559991830727
-3.2314706477966095   -0.1975092780219596   -0.022822763602383694
-3.2314706477966095   -0.1975092780219596   -0.022822763602383694
-3.2314706477966095   -0.1975092780219596   -0.022822763602383694
-3.2314706477966095   -0.1975092780219596   -0.022822763602383694
-5.709354338575992   -1.130240805747359   0.058150309839198
-5.709354338575992   -1.130240805747359   0.058150309839198
-5.709354338575992   -1.130240805747359   0.058150309839198
-5.709354338575992   -1.130240805747359   0.058150309839198
-5.483607144844431   -0.5458775786088087   -0.12103418393773188
-5.483607144844431   -0.5458775786088087   -0.12103418393773188
-5.483607144844431   -0.5458775786088087   -0.12103418393773188
-5.483607144844431   -0.5458775786088087   -0.12103418393773188
-3.157795980636342   -0.5839125812239291   0.2382330745166964
-3.157795980636342   -0.5839125812239291   0.2382330745166964
-3.157795980636342   -0.5839125812239291   0.2382330745166964
-3.157795980636342   -0.5839125812239291   0.2382330745166964
-4.2173467948688925   -0.6561162402380091   0.06124851228489747
-4.2173467948688925   -0.6561162402380091   0.06124851228489747
-4.2173467948688925   -0.6561162402380091   0.06124851228489747
-4.2173467948688925   -0.6561162402380091   0.06124851228489747
-3.0973612945064124   -0.04426898913764432   0.0007629130800709538
-3.0973612945064124   -0.04426898913764432   0.0007629130800709538
-3.0973612945064124   -0.04426898913764432   0.0007629130800709538
-3.0973612945064124   -0.04426898913764432   0.0007629130800709538
-5.565727048922282   -1.1072063886430201   0.029695105707181257
-5.565727048922282   -1.1072063886430201   0.029695105707181257
-5.565727048922282   -1.1072063886430201   0.029695105707181257
-5.565727048922282   -1.1072063886430201   0.029695105707181257
-5.358692905081965   -0.5001070803822589   -0.15359257742389826
-5.358692905081965   -0.5001070803822589   -0.15359257742389826
-5.358692905081965   -0.5001070803822589   -0.15359257742389826
-5.358692905081965   -0.5001070803822589   -0.15359257742389826
-3.049335342958682   -0.5543552334161811   0.27755917587777656
-3.049335342958682   -0.5543552334161811   0.27755917587777656
-3.049335342958682   -0.5543552334161811   0.27755917587777656
-3.049335342958682   -0.5543552334161811   0.27755917587777656
-4.150938396792747   -0.5401386954259308   0.05869230855627197
-4.150938396792747   -0.5401386954259308   0.05869230855627197
-4.150938396792747   -0.5401386954259308   0.05869230855627197
-4.150938396792747   -0.5401386954259308   0.05869230855627197
-3.0007119329716763   -0.0037734766634139882   -0.0299055309399619
-3.0007119329716763   -0.0037734766634139882   -0.0299055309399619
-3.0007119329716763   -0.0037734766634139882   -0.0299055309399619
-3.0007119329716763   -0.0037734766634139882   -0.0299055309399619
-5.415442673642388   -1.0588151957084513   0.12136669510013132
-5.415442673642388   -1.0588151957084513   0.12136669510013132
-5.415442673642388   -1.0588151957084513   0.12136669510013132
-5.415442673642388   -1.0588151957084513   0.12136669510013132
-5.0993558536059815   -0.40458686890985085   -0.17146382869927712
-5.0993558536059815   -0.40458686890985085   -0.17146382869927712
-5.0993558536059815   -0.40458686890985085   -0.17146382869927712
-5.0993558536059815   -0.40458686890985085   -0.17146382869927712
-2.8807655382672452   -0.5149504582293027   0.3060132471207313
-2.8807655382672452   -0.5149504582293027   0.3060132471207313
-2.8807655382672452   -0.5149504582293027   0.3060132471207313
-2.8807655382672452   -0.5149504582293027   0.3060132471207313
-3.901018760888307   -0.412767258054006   0.1195230777793755
-3.901018760888307   -0.412767258054006   0.1195230777793755
-3.901018760888307   -0.412767258054006   0.1195230777793755
-3.901018760888307   -0.412767258054006   0.1195230777793755
4.109745089027153   0.1332084434388513   0.05815272181667486
4.109745089027153   0.1332084434388513   0.05815272181667486
4.109745089027153   0.1332084434388513   0.05815272181667486
4.109745089027153   0.1332084434388513   0.05815272181667486
2.1006578728091814   -0.10972387114783644   0.04339408734854627
2.1006578728091814   -0.10972387114783644   0.04339408734854627
2.1006578728091814   -0.10972387114783644   0.04339408734854627
2.1006578728091814   -0.10972387114783644   0.04339408734854627
2.0178775539979146   -0.29739164852032274   0.08460100344129584
2.0178775539979146   -0.29739164852032274   0.08460100344129584
2.0178775539979146   -0.29739164852032274   0.08460100344129584
2.0178775539979146   -0.29739164852032274   0.08460100344129584
4.079821471827988   0.2299741492699814   0.031624079701546265
4.079821471827988   0.2299741492699814   0.031624079701546265
4.079821471827988   0.2299741492699814   0.031624079701546265
4.079821471827988   0.2299741492699814   0.031624079701546265
2.9130177668464996   -0.041752614205600946   -0.10743647839099049
2.9130177668464996   -0.041752614205600946   -0.10743647839099049
2.9130177668464996   -0.041752614205600946   -0.10743647839099049
2.9130177668464996   -0.041752614205600946   -0.10743647839099049
4.0569037894061815   0.10241280103797501   0.04459701582451825
4.0569037894061815   0.10241280103797501   0.04459701582451825
4.0569037894061815   0.10241280103797501   0.04459701582451825
4.0569037894061815   0.10241280103797501   0.04459701582451825
2.0339819561399604   -0.1766435805680775   0.04437494619927887
2.0339819561399604   -0.1766435805680775   0.04437494619927887
2.0339819561399604   -0.1766435805680775   0.04437494619927887
2.0339819561399604   -0.1766435805680775   0.04437494619927887
1.9652066387185028   -0.3044128801825118   0.07005775862920832
1.9652066387185028   -0.3044128801825118   0.07005775862920832
1.9652066387185028   -0.3044128801825118   0.07005775862920832
1.9652066387185028   -0.3044128801825118   0.07005775862920832
4.0315930265279585   0.21983614932948337   0.05433811736874816
4.0315930265279585   0.21983614932948337   0.05433811736874816
4.0315930265279585   0.21983614932948337   0.05433811736874816
4.0315930265279585   0.21983614932948337   0.05433811736874816
2.9037897410382048   -0.05762515602257978   -0.12472049641961552
2.9037897410382048   -0.05762515602257978   -0.12472049641961552
2.9037897410382048   -0.05762515602257978   -0.12472049641961552
2.9037897410382048   -0.05762515602257978   -0.12472049641961552
3.997584082035801   0.09073080466884398   0.013398739568566548
3.997584082035801   0.09073080466884398   0.013398739568566548
3.997584082035801   0.09073080466884398   0.013398739568566548
3.997584082035801   0.09073080466884398   0.013398739568566548
1.9870289362106628   -0.18749418252185485   0.06225054842935279
1.9870289362106628   -0.18749418252185485   0.06225054842935279
1.9870289362106628   -0.18749418252185485   0.06225054842935279
1.9870289362106628   -0.18749418252185485   0.06225054842935279
1.9095691310897405   -0.27811400346879317   0.06048440713712905
1.9095691310897405   -0.27811400346879317   0.06048440713712905
1.9095691310897405   -0.27811400346879317   0.06048440713712905
1.9095691310897405   -0.27811400346879317   0.06048440713712905
3.9571935728799374   0.22182555242472535   0.07783259325684902
3.9571935728799374   0.22182555242472535   0.07783259325684902
3.9571935728799374   0.22182555242472535   0.07783259325684902
3.9571935728799374   0.22182555242472535   0.07783259325684902
2.7941660534980337   -0.05826042521914643   -0.1687082523669836
2.7941660534980337   -0.05826042521914643   -0.1687082523669836
2.7941660534980337   -0.05826042521914643   -0.1687082523669836
2.7941660534980337   -0.05826042521914643   -0.1687082523669836
2.080670554150068   -0.2690869252255391   0.1028205481306832
2.080670554150068   -0.2690869252255391   0.1028205481306832
2.080670554150068   -0.2690869252255391   0.1028205481306832
2.080670554150068   -0.2690869252255391   0.1028205481306832
0.40948469544298294   -0.24788065737245668   0.022680285877258163
0.40948469544298294   -0.24788065737245668   0.022680285877258163
0.40948469544298294   -0.24788065737245668   0.022680285877258163
0.40948469544298294   -0.24788065737245668   0.022680285877258163
0.26679282094468837   -0.626694926546097   0.11133060127874267
0.26679282094468837   -0.626694926546097   0.11133060127874267
0.26679282094468837   -0.626694926546097   0.11133060127874267
0.26679282094468837   -0.626694926546097   0.11133060127874267
2.092297527683069   0.07970202566154405   0.07960719768519994
2.092297527683069   0.07970202566154405   0.07960719768519994
2.092297527683069   0.07970202566154405   0.07960719768519994
2.092297527683069   0.07970202566154405   0.07960719768519994
1.1937035834176153   -0.2670444210952349   -0.004475224644645059
1.1937035834176153   -0.2670444210952349   -0.004475224644645059
1.1937035834176153   -0.2670444210952349   -0.004475224644645059
1.1937035834176153   -0.2670444210952349   -0.004475224644645059
2.021478368885032   -0.2808177094520562   0.08603113880860375
2.021478368885032   -0.2808177094520562   0.08603113880860375
2.021478368885032   -0.2808177094520562   0.08603113880860375
2.021478368885032   -0.2808177094520562   0.08603113880860375
0.31973858781301767   -0.2840485833622065   0.03341309243649851
0.31973858781301767   -0.2840485833622065   0.03341309243649851
0.31973858781301767   -0.2840485833622065   0.03341309243649851
0.31973858781301767   -0.2840485833622065   0.03341309243649851
0.2029692146342852   -0.6325660944635623   0.09970699288382295
0.2029692146342852   -0.6325660944635623   0.09970699288382295
0.2029692146342852   -0.6325660944635623   0.09970699288382295
0.2029692146342852   -0.6325660944635623   0.09970699288382295
2.043713631634764   0.06377487134679033   0.0944049716812131
2.043713631634764   0.06377487134679033   0.0944049716812131
2.043713631634764   0.06377487134679033   0.0944049716812131
2.043713631634764   0.06377487134679033   0.0944049716812131
1.1071057614629756   -0.2847117963763624   -0.05750036956527732
1.1071057614629756   -0.2847117963763624   -0.05750036956527732
1.1071057614629756   -0.2847117963763624   -0.05750036956527732
1.1071057614629756   -0.2847117963763624   -0.05750036956527732
1.9692785271562276   -0.28503730534073063   0.07104162597603897
1.9692785271562276   -0.28503730534073063   0.07104162597603897
1.9692785271562276   -0.28503730534073063   0.07104162597603897
1.9692785271562276   -0.28503730534073063   0.07104162597603897
0.2579909247810078   -0.3031673121078573   0.045416761261731206
0.2579909247810078   -0.3031673121078573   0.045416761261731206
0.2579909247810078   -0.3031673121078573   0.045416761261731206
0.2579909247810078   -0.3031673121078573   0.045416761261731206
0.13152766655876072   -0.6326103453214665   0.07816645731857011
0.13152766655876072   -0.6326103453214665   0.07816645731857011
0.13152766655876072   -0.6326103453214665   0.07816645731857011
0.13152766655876072   -0.6326103453214665   0.07816645731857011
1.9885766642160803   0.06445761563770186   0.11295045366234613
1.9885766642160803   0.06445761563770186   0.11295045366234613
1.9885766642160803   0.06445761563770186   0.11295045366234613
1.9885766642160803   0.06445761563770186   0.11295045366234613
1.0540449897937711   -0.2828156448347368   -0.10267740338806311
1.0540449897937711   -0.2828156448347368   -0.10267740338806311
1.0540449897937711   -0.2828156448347368   -0.10267740338806311
1.0540449897937711   -0.2828156448347368   -0.10267740338806311
0.31850974520931097   -0.7725734117537039   0.09249828909014582
0.31850974520931097   -0.7725734117537039   0.09249828909014582
0.31850974520931097   -0.7725734117537039   0.09249828909014582
0.31850974520931097   -0.7725734117537039   0.09249828909014582
-1.2159297183901108   -0.38542369601321724   0.0019409835827727956
-1.2159297183901108   -0.38542369601321724   0.0019409835827727956
-1.2159297183901108   -0.38542369601321724   0.0019409835827727956
-1.2159297183901108   -0.38542369601321724   0.0019409835827727956
-1.4740872243212553   -1.1432168489815098   0.1276072259688305
-1.4740872243212553   -1.1432168489815098   0.1276072259688305
-1.4740872243212553   -1.1432168489815098   0.1276072259688305
-1.4740872243212553   -1.1432168489815098   0.1276072259688305
0.36643110813111396   -0.0673488243538366   0.05017593501860991
0.36643110813111396   -0.0673488243538366   0.05017593501860991
0.36643110813111396   -0.0673488243538366   0.05017593501860991
0.36643110813111396   -0.0673488243538366   0.05017593501860991
-0.4944558723897431   -0.5838216435199918   0.02182808646415016
-0.4944558723897431   -0.5838216435199918   0.02182808646415016
-0.4944558723897431   -0.5838216435199918   0.02182808646415016
-0.4944558723897431   -0.5838216435199918   0.02182808646415016
0.21976896209202518   -0.8167198173322949   0.06623619780162443
0.21976896209202518   -0.8167198173322949   0.06623619780162443
0.21976896209202518   -0.8167198173322949   0.06623619780162443
0.21976896209202518   -0.8167198173322949   0.06623619780162443
-1.3523853060267523   -0.4188060837476385   0.011706052207466608
-1.3523853060267523   -0.4188060837476385   0.011706052207466608
-1.3523853060267523   -0.4188060837476385   0.011706052207466608
-1.3523853060267523   -0.4188060837476385   0.011706052207466608
-1.5630812152536635   -1.1620154155471683   0.10362767519869678
-1.5630812152536635   -1.1620154155471683   0.10362767519869678
-1.5630812152536635   -1.1620154155471683   0.10362767519869678
-1.5630812152536635   -1.1620154155471683   0.10362767519869678
0.3066519609219725   -0.08504237822669473   0.07059700808539185
0.3066519609219725   -0.08504237822669473   0.07059700808539185
0.3066519609219725   -0.08504237822669473   0.07059700808539185
0.3066519609219725   -0.08504237822669473   0.07059700808539185
-0.6056122218871729   -0.6195678698412679   -0.05248083863984768
-0.6056122218871729   -0.6195678698412679   -0.05248083863984768
-0.6056122218871729   -0.6195678698412679   -0.05248083863984768
-0.6056122218871729   -0.6195678698412679   -0.05248083863984768
0.15178400703774045   -0.8312707783675989   0.042485638805139586
0.15178400703774045   -0.8312707783675989   0.042485638805139586
0.15178400703774045   -0.8312707783675989   0.042485638805139586
0.15178400703774045   -0.8312707783675989   0.042485638805139586
-1.437824538346656   -0.4453982923834895   0.013293936570046343
-1.437824538346656   -0.4453982923834895   0.013293936570046343
-1.437824538346656   -0.4453982923834895   0.013293936570046343
-1.437824538346656   -0.4453982923834895   0.013293936570046343
-1.6594157808888435   -1.1542938441517547   0.08772561593083678
-1.6594157808888435   -1.1542938441517547   0.08772561593083678
-1.6594157808888435   -1.1542938441517547   0.08772561593083678
-1.6594157808888435   -1.1542938441517547   0.08772561593083678
0.24011337032805927   -0.09499173495759718   0.0834763658011935
0.24011337032805927   -0.09499173495759718   0.0834763658011935
0.24011337032805927   -0.09499173495759718   0.0834763658011935
0.24011337032805927   -0.09499173495759718   0.0834763658011935
-0.6957134547954547   -0.6332579168651954   -0.1265393931852952
-0.6957134547954547   -0.6332579168651954   -0.1265393931852952
-0.6957134547954547   -0.6332579168651954   -0.1265393931852952
-0.6957134547954547   -0.6332579168651954   -0.1265393931852952
-1.3819199596449225   -1.32343163950408   0.10999772079958303
-1.3819199596449225   -1.32343163950408   0.10999772079958303
-1.3819199596449225   -1.32343163950408   0.10999772079958303
-1.3819199596449225   -1.32343163950408   0.10999772079958303
-3.0666954454682154   -0.4800975774787626   -0.07143608041945426
-3.0666954454682154   -0.4800975774787626   -0.07143608041945426
-3.0666954454682154   -0.4800975774787626   -0.07143608041945426
-3.0666954454682154   -0.4800975774787626   -0.07143608041945426
-3.517610687819159   -1.915910588547327   -0.10012946838454656
-3.517610687819159   -1.915910588547327   -0.10012946838454656
-3.517610687819159   -1.915910588547327   -0.10012946838454656
-3.517610687819159   -1.915910588547327   -0.10012946838454656
-1.2842945258294074   -0.1099990765425036   0.04335294598905621
-1.2842945258294074   -0.1099990765425036   0.04335294598905621
-1.2842945258294074   -0.1099990765425036   0.04335294598905621
-1.2842945258294074   -0.1099990765425036   0.04335294598905621
-2.2906201431189723   -0.920644469634855   -0.08034388851401404
-2.2906201431189723   -0.920644469634855   -0.08034388851401404
-2.2906201431189723   -0.920644469634855   -0.08034388851401404
-2.2906201431189723   -0.920644469634855   -0.08034388851401404
-1.5632157652285001   -1.4977134798850555   0.03646115233615199
-1.5632157652285001   -1.4977134798850555   0.03646115233615199
-1.5632157652285001   -1.4977134798850555   0.03646115233615199
-1.5632157652285001   -1.4977134798850555   0.03646115233615199
-3.2313611103970783   -0.5208678471817866   -0.06392432263968717
-3.2313611103970783   -0.5208678471817866   -0.06392432263968717
-3.2313611103970783   -0.5208678471817866   -0.06392432263968717
-3.2313611103970783   -0.5208678471817866   -0.06392432263968717
-3.6233604786568545   -1.947144013786779   -0.11580360733597755
-3.6233604786568545   -1.947144013786779   -0.11580360733597755
-3.6233604786568545   -1.947144013786779   -0.11580360733597755
-3.6233604786568545   -1.947144013786779   -0.11580360733597755
-1.366202323672239   -0.13891428989104673   0.06492100744968762
-1.366202323672239   -0.13891428989104673   0.06492100744968762
-1.366202323672239   -0.13891428989104673   0.06492100744968762
-1.366202323672239   -0.13891428989104673   0.06492100744968762
-2.4197334121688696   -1.0195605102888803   -0.1127587420134209
-2.4197334121688696   -1.0195605102888803   -0.1127587420134209
-2.4197334121688696   -1.0195605102888803   -0.1127587420134209
-2.4197334121688696   -1.0195605102888803   -0.1127587420134209
-1.6540162012180821   -1.5272724757216012   0.01420980555101825
-1.6540162012180821   -1.5272724757216012   0.01420980555101825
-1.6540162012180821   -1.5272724757216012   0.01420980555101825
-1.6540162012180821   -1.5272724757216012   0.01420980555101825
-3.335691832461987   -0.5589310593071846   -0.06567333084125301
-3.335691832461987   -0.5589310593071846   -0.06567333084125301
-3.335691832461987   -0.5589310593071846   -0.06567333084125301
-3.335691832461987   -0.5589310593071846   -0.06567333084125301
-3.713684137364137   -1.8651269202439056   -0.13060576510156852
-3.713684137364137   -1.8651269202439056   -0.13060576510156852
-3.713684137364137   -1.8651269202439056   -0.13060576510156852
-3.713684137364137   -1.8651269202439056   -0.13060576510156852
-1.470043060666974   -0.1796954314118981   0.05999080430030017
-1.470043060666974   -0.1796954314118981   0.05999080430030017
-1.470043060666974   -0.1796954314118981   0.05999080430030017
-1.470043060666974   -0.1796954314118981   0.05999080430030017
-2.538396610325023   -1.0534676096947493   -0.14353421795760354
-2.538396610325023   -1.0534676096947493   -0.14353421795760354
-2.538396610325023   -1.0534676096947493   -0.14353421795760354
-2.538396610325023   -1.0534676096947493   -0.14353421795760354
-3.010827796851528   -0.5471705352777259   0.2749751204628983
-3.010827796851528   -0.5471705352777259   0.2749751204628983
-3.010827796851528   -0.5471705352777259   0.2749751204628983
-3.010827796851528   -0.5471705352777259   0.2749751204628983
-5.312518213096333   -0.3987749003699723   -0.09551700037804622
-5.312518213096333   -0.3987749003699723   -0.09551700037804622
-5.312518213096333   -0.3987749003699723   -0.09551700037804622
-5.312518213096333   -0.3987749003699723   -0.09551700037804622
-5.639557478624308   -1.112791590759438   0.07559952482711907
-5.639557478624308   -1.112791590759438   0.07559952482711907
-5.639557478624308   -1.112791590759438   0.07559952482711907
-5.639557478624308   -1.112791590759438   0.07559952482711907
-3.100358244480171   0.04364273707427846   0.02657942268875982
-3.100358244480171   0.04364273707427846   0.02657942268875982
-3.100358244480171   0.04364273707427846   0.02657942268875982
-3.100358244480171   0.04364273707427846   0.02657942268875982
-4.062643227203648   -0.39098199236299064   0.08191075432898372
-4.062643227203648   -0.39098199236299064   0.08191075432898372
-4.062643227203648   -0.39098199236299064   0.08191075432898372
-4.062643227203648   -0.39098199236299064   0.08191075432898372
-3.183142615160656   -0.5878070514666749   0.24410735782728166
-3.183142615160656   -0.5878070514666749   0.24410735782728166
-3.183142615160656   -0.5878070514666749   0.24410735782728166
-3.183142615160656   -0.5878070514666749   0.24410735782728166
-5.542255783004084   -0.4668244772787381   -0.08385911055241077
-5.542255783004084   -0.4668244772787381   -0.08385911055241077
-5.542255783004084   -0.4668244772787381   -0.08385911055241077
-5.542255783004084   -0.4668244772787381   -0.08385911055241077
-5.779042474184025   -1.1605352449584558   -0.023633750608254456
-5.779042474184025   -1.1605352449584558   -0.023633750608254456
-5.779042474184025   -1.1605352449584558   -0.023633750608254456
-5.779042474184025   -1.1605352449584558   -0.023633750608254456
-3.1986909615878294   0.011347239719860847   0.04905272450249226
-3.1986909615878294   0.011347239719860847   0.04905272450249226
-3.1986909615878294   0.011347239719860847   0.04905272450249226
-3.1986909615878294   0.011347239719860847   0.04905272450249226
-4.307365002021872   -0.5165394387094928   0.03398609498758426
-4.307365002021872   -0.5165394387094928   0.03398609498758426
-4.307365002021872   -0.5165394387094928   0.03398609498758426
-4.307365002021872   -0.5165394387094928   0.03398609498758426
-3.293868714252544   -0.6182262522256279   0.20273745312440505
-3.293868714252544   -0.6182262522256279   0.20273745312440505
-3.293868714252544   -0.6182262522256279   0.20273745312440505
-3.293868714252544   -0.6182262522256279   0.20273745312440505
-5.654934240829972   -0.5020312723235936   -0.0615965564727593
-5.654934240829972   -0.5020312723235936   -0.0615965564727593
-5.654934240829972   -0.5020312723235936   -0.0615965564727593
-5.654934240829972   -0.5020312723235936   -0.0615965564727593
-5.9011117633506105   -1.180232468135507   -5.0577326924372557e-05
-5.9011117633506105   -1.180232468135507   -5.0577326924372557e-05
-5.9011117633506105   -1.180232468135507   -5.0577326924372557e-05
-5.9011117633506105   -1.180232468135507   -5.0577326924372557e-05
-3.3366294365232774   -0.13032045112425206   0.019861269983076912
-3.3366294365232774   -0.13032045112425206   0.019861269983076912
-3.3366294365232774   -0.13032045112425206   0.019861269983076912
-3.3366294365232774   -0.13032045112425206   0.019861269983076912
-4.360980360820807   -0.6245502986143459   0.05373571648765846
-4.360980360820807   -0.6245502986143459   0.05373571648765846
-4.360980360820807   -0.6245502986143459   0.05373571648765846
-4.360980360820807   -0.6245502986143459   0.05373571648765846
3.5931254875190533   0.16432171345998026   -0.07884560432224175
3.5931254875190533   0.16432171345998026   -0.07884560432224175
3.5931254875190533   0.16432171345998026   -0.07884560432224175
3.5931254875190533   0.16432171345998026   -0.07884560432224175
1.8104271268565213   -0.03530268234778661   0.039128995585975726
1.8104271268565213   -0.03530268234778661   0.039128995585975726
1.8104271268565213   -0.03530268234778661   0.039128995585975726
1.8104271268565213   -0.03530268234778661   0.039128995585975726
1.6942596213348482   -0.26734499428367775   -0.06940978757348781
1.6942596213348482   -0.26734499428367775   -0.06940978757348781
1.6942596213348482   -0.26734499428367775   -0.06940978757348781
1.6942596213348482   -0.26734499428367775   -0.06940978757348781
3.5512461434096805   0.2598879563858397   0.04578066371008424
3.5512461434096805   0.2598879563858397   0.04578066371008424
3.5512461434096805   0.2598879563858397   0.04578066371008424
3.5512461434096805   0.2598879563858397   0.04578066371008424
2.5227009070882973   0.006165531022278126   -0.09747689189755449
2.5227009070882973   0.006165531022278126   -0.09747689189755449
2.5227009070882973   0.006165531022278126   -0.09747689189755449
2.5227009070882973   0.006165531022278126   -0.09747689189755449
3.492274166312019   0.0902513492899858   -0.07944261468234004
3.492274166312019   0.0902513492899858   -0.07944261468234004
3.492274166312019   0.0902513492899858   -0.07944261468234004
3.492274166312019   0.0902513492899858   -0.07944261468234004
1.749928278809874   -0.10101170681045746   0.042600212328404524
1.749928278809874   -0.10101170681045746   0.042600212328404524
1.749928278809874   -0.10101170681045746   0.042600212328404524
1.749928278809874   -0.10101170681045746   0.042600212328404524
1.6317523635735776   -0.2824458937241864   -0.057231434945219484
1.6317523635735776   -0.2824458937241864   -0.057231434945219484
1.6317523635735776   -0.2824458937241864   -0.057231434945219484
1.6317523635735776   -0.2824458937241864   -0.057231434945219484
3.4643305901335255   0.2385563514391471   0.06670526344151179
3.4643305901335255   0.2385563514391471   0.06670526344151179
3.4643305901335255   0.2385563514391471   0.06670526344151179
3.4643305901335255   0.2385563514391471   0.06670526344151179
2.4881117615802046   -0.025564773706344357   -0.11668675726563577
2.4881117615802046   -0.025564773706344357   -0.11668675726563577
2.4881117615802046   -0.025564773706344357   -0.11668675726563577
2.4881117615802046   -0.025564773706344357   -0.11668675726563577
3.4049421548265646   0.07108519932052171   -0.06276576097466635
3.4049421548265646   0.07108519932052171   -0.06276576097466635
3.4049421548265646   0.07108519932052171   -0.06276576097466635
3.4049421548265646   0.07108519932052171   -0.06276576097466635
1.6865910067143441   -0.11952453377175498   0.05404042080618221
1.6865910067143441   -0.11952453377175498   0.05404042080618221
1.6865910067143441   -0.11952453377175498   0.05404042080618221
1.6865910067143441   -0.11952453377175498   0.05404042080618221
1.5711479786909452   -0.2787869233109236   -0.03918419123240294
1.5711479786909452   -0.2787869233109236   -0.03918419123240294
1.5711479786909452   -0.2787869233109236   -0.03918419123240294
1.5711479786909452   -0.2787869233109236   -0.03918419123240294
3.35665259285784   0.2236807895888715   0.08658700903592687
3.35665259285784   0.2236807895888715   0.08658700903592687
3.35665259285784   0.2236807895888715   0.08658700903592687
3.35665259285784   0.2236807895888715   0.08658700903592687
2.3642662426169165   -0.04469779561342413   -0.15347209133885922
2.3642662426169165   -0.04469779561342413   -0.15347209133885922
2.3642662426169165   -0.04469779561342413   -0.15347209133885922
2.3642662426169165   -0.04469779561342413   -0.15347209133885922
1.819316969504262   0.03267070463312294   0.015604821843754307
1.819316969504262   0.03267070463312294   0.015604821843754307
1.819316969504262   0.03267070463312294   0.015604821843754307
1.819316969504262   0.03267070463312294   0.015604821843754307
0.1785310097514367   -0.10835154466300827   -0.003748916623812437
0.1785310097514367   -0.10835154466300827   -0.003748916623812437
0.1785310097514367   -0.10835154466300827   -0.003748916623812437
0.1785310097514367   -0.10835154466300827   -0.003748916623812437
0.06907521154945709   -0.3541968468620929   -0.06666484879937272
0.06907521154945709   -0.3541968468620929   -0.06666484879937272
0.06907521154945709   -0.3541968468620929   -0.06666484879937272
0.06907521154945709   -0.3541968468620929   -0.06666484879937272
1.8216660540371812   0.20986672013568208   0.09041066151880145
1.8216660540371812   0.20986672013568208   0.09041066151880145
1.8216660540371812   0.20986672013568208   0.09041066151880145
1.8216660540371812   0.20986672013568208   0.09041066151880145
0.9543000691937849   -0.050306572488546114   -0.038103049707704964
0.9543000691937849   -0.050306572488546114   -0.038103049707704964
0.9543000691937849   -0.050306572488546114   -0.038103049707704964
0.9543000691937849   -0.050306572488546114   -0.038103049707704964
1.7679640729160904   0.0043894919840962165   0.027377984064939548
1.7679640729160904   0.0043894919840962165   0.027377984064939548
1.7679640729160904   0.0043894919840962165   0.027377984064939548
1.7679640729160904   0.0043894919840962165   0.027377984064939548
0.12478937899655287   -0.146707432384501   0.0044165739585144
0.12478937899655287   -0.146707432384501   0.0044165739585144
0.12478937899655287   -0.146707432384501   0.0044165739585144
0.12478937899655287   -0.146707432384501   0.0044165739585144
0.008807625513728073   -0.3713333342540032   -0.04623005020171874
0.008807625513728073   -0.3713333342540032   -0.04623005020171874
0.008807625513728073   -0.3713333342540032   -0.04623005020171874
0.008807625513728073   -0.3713333342540032   -0.04623005020171874
1.755489904386537   0.17924624715796905   0.09976412823742246
1.755489904386537   0.17924624715796905   0.09976412823742246
1.755489904386537   0.17924624715796905   0.09976412823742246
1.755489904386537   0.17924624715796905   0.09976412823742246
0.8850639598322789   -0.07843581675768782   -0.05395418504702336
0.8850639598322789   -0.07843581675768782   -0.05395418504702336
0.8850639598322789   -0.07843581675768782   -0.05395418504702336
0.8850639598322789   -0.07843581675768782   -0.05395418504702336
1.7047905737791693   -0.014823325074048155   0.04033704743261542
1.7047905737791693   -0.014823325074048155   0.04033704743261542
1.7047905737791693   -0.014823325074048155   0.04033704743261542
1.7047905737791693   -0.014823325074048155   0.04033704743261542
0.059205646367455914   -0.17756507177562353   0.011991791588540732
0.059205646367455914   -0.17756507177562353   0.011991791588540732
0.059205646367455914   -0.17756507177562353   0.011991791588540732
0.059205646367455914   -0.17756507177562353   0.011991791588540732
-0.05593091643923188   -0.37331335431039464   -0.0313968154228242
-0.05593091643923188   -0.37331335431039464   -0.0313968154228242
-0.05593091643923188   -0.37331335431039464   -0.0313968154228242
-0.05593091643923188   -0.37331335431039464   -0.0313968154228242
1.6887286096996557   0.1596326602855322   0.11029938021470194
1.6887286096996557   0.1596326602855322   0.11029938021470194
1.6887286096996557   0.1596326602855322   0.11029938021470194
1.6887286096996557   0.1596326602855322   0.11029938021470194
0.8306738000598161   -0.08984894954788183   -0.06765720111610155
0.8306738000598161   -0.08984894954788183   -0.06765720111610155
0.8306738000598161   -0.08984894954788183   -0.06765720111610155
0.8306738000598161   -0.08984894954788183   -0.06765720111610155
0.18098276034628008   -0.10533144887084536   0.0054897405582413905
0.18098276034628008   -0.10533144887084536   0.0054897405582413905
0.18098276034628008   -0.10533144887084536   0.0054897405582413905
0.18098276034628008   -0.10533144887084536   0.0054897405582413905
-1.3984780966657795   -0.16186082387565445   -0.04406923631914902
-1.3984780966657795   -0.16186082387565445   -0.04406923631914902
-1.3984780966657795   -0.16186082387565445   -0.04406923631914902
-1.3984780966657795   -0.16186082387565445   -0.04406923631914902
-1.5201588842409575   -0.4698604499051286   -0.07579220036577879
-1.5201588842409575   -0.4698604499051286   -0.07579220036577879
-1.5201588842409575   -0.4698604499051286   -0.07579220036577879
-1.5201588842409575   -0.4698604499051286   -0.07579220036577879
0.19426920370975465   0.15336602836630792   0.05174223677371438
0.19426920370975465   0.15336602836630792   0.05174223677371438
0.19426920370975465   0.15336602836630792   0.05174223677371438
0.19426920370975465   0.15336602836630792   0.05174223677371438
-0.6377768113895075   -0.1389198091494272   -0.037904037224963535
-0.6377768113895075   -0.1389198091494272   -0.037904037224963535
-0.6377768113895075   -0.1389198091494272   -0.037904037224963535
-0.6377768113895075   -0.1389198091494272   -0.037904037224963535
0.1357208503582108   -0.11754396936306619   0.02991046774536521
0.1357208503582108   -0.11754396936306619   0.02991046774536521
0.1357208503582108   -0.11754396936306619   0.02991046774536521
0.1357208503582108   -0.11754396936306619   0.02991046774536521
-1.4571518122741378   -0.19449173356047933   -0.03612555687632958
-1.4571518122741378   -0.19449173356047933   -0.03612555687632958
-1.4571518122741378   -0.19449173356047933   -0.03612555687632958
-1.4571518122741378   -0.19449173356047933   -0.03612555687632958
-1.5908652098213176   -0.4886572462008488   -0.04996016104208851
-1.5908652098213176   -0.4886572462008488   -0.04996016104208851
-1.5908652098213176   -0.4886572462008488   -0.04996016104208851
-1.5908652098213176   -0.4886572462008488   -0.04996016104208851
0.1281426143827594   0.12056904364731552   0.05854251624211901
0.1281426143827594   0.12056904364731552   0.05854251624211901
0.1281426143827594   0.12056904364731552   0.05854251624211901
0.1281426143827594   0.12056904364731552   0.05854251624211901
-0.6962408081994313   -0.1585247304055079   -0.045492127330669915
-0.6962408081994313   -0.1585247304055079   -0.045492127330669915
-0.6962408081994313   -0.1585247304055079   -0.045492127330669915
-0.6962408081994313   -0.1585247304055079   -0.045492127330669915
0.07312252119956206   -0.13755454082797133   0.041565634801419234
0.07312252119956206   -0.13755454082797133   0.041565634801419234
0.07312252119956206   -0.13755454082797133   0.041565634801419234
0.07312252119956206   -0.13755454082797133   0.041565634801419234
-1.5349255709364307   -0.22961411602387494   -0.029305096794643114
-1.5349255709364307   -0.22961411602387494   -0.029305096794643114
-1.5349255709364307   -0.22961411602387494   -0.029305096794643114
-1.5349255709364307   -0.22961411602387494   -0.029305096794643114
-1.6693532691736044   -0.5024653815019767   -0.044425227419040834
-1.6693532691736044   -0.5024653815019767   -0.044425227419040834
-1.6693532691736044   -0.5024653815019767   -0.044425227419040834
-1.6693532691736044   -0.5024653815019767   -0.044425227419040834
0.056621444686441647   0.09255305857307183   0.06549857732207695
0.056621444686441647   0.09255305857307183   0.06549857732207695
0.056621444686441647   0.09255305857307183   0.06549857732207695
0.056621444686441647   0.09255305857307183   0.06549857732207695
-0.7722340825056985   -0.18200061654514896   -0.06373077715681676
-0.7722340825056985   -0.18200061654514896   -0.06373077715681676
-0.7722340825056985   -0.18200061654514896   -0.06373077715681676
-0.7722340825056985   -0.18200061654514896   -0.06373077715681676
-1.3776188734291803   -0.12360152982452563   0.021967585812695693
-1.3776188734291803   -0.12360152982452563   0.021967585812695693
-1.3776188734291803   -0.12360152982452563   0.021967585812695693
-1.3776188734291803   -0.12360152982452563   0.021967585812695693
-2.9364867551359266   -0.1893665741908256   -0.07791148271744616
-2.9364867551359266   -0.1893665741908256   -0.07791148271744616
-2.9364867551359266   -0.1893665741908256   -0.07791148271744616
-2.9364867551359266   -0.1893665741908256   -0.07791148271744616
-3.074909090547472   -0.49187962236647276   -0.07543521841284767
-3.074909090547472   -0.49187962236647276   -0.07543521841284767
-3.074909090547472   -0.49187962236647276   -0.07543521841284767
-3.074909090547472   -0.49187962236647276   -0.07543521841284767
-1.3847781719837702   0.11683999801884604   0.014410912996151395
-1.3847781719837702   0.11683999801884604   0.014410912996151395
-1.3847781719837702   0.11683999801884604   0.014410912996151395
-1.3847781719837702   0.11683999801884604   0.014410912996151395
-2.175321629889658   -0.16401928600878402   -0.032016022465697666
-2.175321629889658   -0.16401928600878402   -0.032016022465697666
-2.175321629889658   -0.16401928600878402   -0.032016022465697666
-2.175321629889658   -0.16401928600878402   -0.032016022465697666
-1.427772179766439   -0.13675751842282305   0.05303839052449078
-1.427772179766439   -0.13675751842282305   0.05303839052449078
-1.427772179766439   -0.13675751842282305   0.05303839052449078
-1.427772179766439   -0.13675751842282305   0.05303839052449078
-3.023135852604932   -0.22950287576495482   -0.07894577530169171
-3.023135852604932   -0.22950287576495482   -0.07894577530169171
-3.023135852604932   -0.22950287576495482   -0.07894577530169171
-3.023135852604932   -0.22950287576495482   -0.07894577530169171
-3.172806768092249   -0.5237784970973788   -0.05279558416183972
-3.172806768092249   -0.5237784970973788   -0.05279558416183972
-3.172806768092249   -0.5237784970973788   -0.05279558416183972
-3.172806768092249   -0.5237784970973788   -0.05279558416183972
-1.46341612554424   0.08092340580057533   0.01770460834186091
-1.46341612554424   0.08092340580057533   0.01770460834186091
-1.46341612554424   0.08092340580057533   0.01770460834186091
-1.46341612554424   0.08092340580057533   0.01770460834186091
-2.237427180483237   -0.1818104389609767   -0.03219274888707524
-2.237427180483237   -0.1818104389609767   -0.03219274888707524
-2.237427180483237   -0.1818104389609767   -0.03219274888707524
-2.237427180483237   -0.1818104389609767   -0.03219274888707524
-1.5059128992837119   -0.16884314784522111   0.054987293290288765
-1.5059128992837119   -0.16884314784522111   0.054987293290288765
-1.5059128992837119   -0.16884314784522111   0.054987293290288765
-1.5059128992837119   -0.16884314784522111   0.054987293290288765
-3.12443364221756   -0.2681355913163461   -0.06657286056942621
-3.12443364221756   -0.2681355913163461   -0.06657286056942621
-3.12443364221756   -0.2681355913163461   -0.06657286056942621
-3.12443364221756   -0.2681355913163461   -0.06657286056942621
-3.2836483032342483   -0.5657399202211107   -0.05662639717848901
-3.2836483032342483   -0.5657399202211107   -0.05662639717848901
-3.2836483032342483   -0.5657399202211107   -0.05662639717848901
-3.2836483032342483   -0.5657399202211107   -0.05662639717848901
-1.5483879991822183   0.03667541689576237   0.02126032414012681
-1.5483879991822183   0.03667541689576237   0.02126032414012681
-1.5483879991822183   0.03667541689576237   0.02126032414012681
-1.5483879991822183   0.03667541689576237   0.02126032414012681
-2.3470798546907163   -0.22468757605213546   -0.05212127730342821
-2.3470798546907163   -0.22468757605213546   -0.05212127730342821
-2.3470798546907163   -0.22468757605213546   -0.05212127730342821
-2.3470798546907163   -0.22468757605213546   -0.05212127730342821
-2.83649164125618   0.1350610971431334   0.09763641534732903
-2.83649164125618   0.1350610971431334   0.09763641534732903
-2.83649164125618   0.1350610971431334   0.09763641534732903
-2.83649164125618   0.1350610971431334   0.09763641534732903
-4.399040782458867   -0.21926935919710921   -0.0598250503498039
-4.399040782458867   -0.21926935919710921   -0.0598250503498039
-4.399040782458867   -0.21926935919710921   -0.0598250503498039
-4.399040782458867   -0.21926935919710921   -0.0598250503498039
-4.508459384721467   -0.22321190253911294   0.1004073648630989
-4.508459384721467   -0.22321190253911294   0.1004073648630989
-4.508459384721467   -0.22321190253911294   0.1004073648630989
-4.508459384721467   -0.22321190253911294   0.1004073648630989
-2.948164173058271   0.0906528317753359   -0.024243085108681256
-2.948164173058271   0.0906528317753359   -0.024243085108681256
-2.948164173058271   0.0906528317753359   -0.024243085108681256
-2.948164173058271   0.0906528317753359   -0.024243085108681256
-3.501928019096341   0.0029410111567799158   0.08873157024833014
-3.501928019096341   0.0029410111567799158   0.08873157024833014
-3.501928019096341   0.0029410111567799158   0.08873157024833014
-3.501928019096341   0.0029410111567799158   0.08873157024833014
-2.9169068109049308   0.09963037561520272   0.12306618181814036
-2.9169068109049308   0.09963037561520272   0.12306618181814036
-2.9169068109049308   0.09963037561520272   0.12306618181814036
-2.9169068109049308   0.09963037561520272   0.12306618181814036
-4.537696621481608   -0.23016932098578236   -0.0388214004909361
-4.537696621481608   -0.23016932098578236   -0.0388214004909361
-4.537696621481608   -0.23016932098578236   -0.0388214004909361
-4.537696621481608   -0.23016932098578236   -0.0388214004909361
-4.6467235350790865   -0.26077851352208103   0.13645653178391715
-4.6467235350790865   -0.26077851352208103   0.13645653178391715
-4.6467235350790865   -0.26077851352208103   0.13645653178391715
-4.6467235350790865   -0.26077851352208103   0.13645653178391715
-3.049521157051653   0.0651468624848155   -0.025292888541081915
-3.049521157051653   0.0651468624848155   -0.025292888541081915
-3.049521157051653   0.0651468624848155   -0.025292888541081915
-3.049521157051653   0.0651468624848155   -0.025292888541081915
-3.67967852672935   -0.04109363027096491   0.04801076614393368
-3.67967852672935   -0.04109363027096491   0.04801076614393368
-3.67967852672935   -0.04109363027096491   0.04801076614393368
-3.67967852672935   -0.04109363027096491   0.04801076614393368
-3.020956020197802   0.06134967894997112   0.12132997926301664
-3.020956020197802   0.06134967894997112   0.12132997926301664
-3.020956020197802   0.06134967894997112   0.12132997926301664
-3.020956020197802   0.06134967894997112   0.12132997926301664
-4.68066683755034   -0.2623594956046591   -0.031678998489768184
-4.68066683755034   -0.2623594956046591   -0.031678998489768184
-4.68066683755034   -0.2623594956046591   -0.031678998489768184
-4.68066683755034   -0.2623594956046591   -0.031678998489768184
-4.843122834849835   -0.41183019682143973   0.1188059398236958
-4.843122834849835   -0.41183019682143973   0.1188059398236958
-4.843122834849835   -0.41183019682143973   0.1188059398236958
-4.843122834849835   -0.41183019682143973   0.1188059398236958
-3.1663727612928874   -0.012212534643026518   -0.023776073049829288
-3.1663727612928874   -0.012212534643026518   -0.023776073049829288
-3.1663727612928874   -0.012212534643026518   -0.023776073049829288
-3.1663727612928874   -0.012212534643026518   -0.023776073049829288
-3.7563345145895557   -0.09636983139399546   0.011943630235972807
-3.7563345145895557   -0.09636983139399546   0.011943630235972807
-3.7563345145895557   -0.09636983139399546   0.011943630235972807
-3.7563345145895557   -0.09636983139399546   0.011943630235972807
2.9047378172304064   0.15482701880125777   -0.1045331890426877
2.9047378172304064   0.15482701880125777   -0.1045331890426877
2.9047378172304064   0.15482701880125777   -0.1045331890426877
2.9047378172304064   0.15482701880125777   -0.1045331890426877
1.4415452483185314   -0.00041333158245071555   0.03815192954241835
1.4415452483185314   -0.00041333158245071555   0.03815192954241835
1.4415452483185314   -0.00041333158245071555   0.03815192954241835
1.4415452483185314   -0.00041333158245071555   0.03815192954241835
1.3164546379558106   -0.21536194853322604   -0.09567735543125272
1.3164546379558106   -0.21536194853322604   -0.09567735543125272
1.3164546379558106   -0.21536194853322604   -0.09567735543125272
1.3164546379558106   -0.21536194853322604   -0.09567735543125272
2.849509449225408   0.23538258840377796   0.04781229340466879
2.849509449225408   0.23538258840377796   0.04781229340466879
2.849509449225408   0.23538258840377796   0.04781229340466879
2.849509449225408   0.23538258840377796   0.04781229340466879
2.018044197970109   0.017873961195859323   -0.06638703373212047
2.018044197970109   0.017873961195859323   -0.06638703373212047
2.018044197970109   0.017873961195859323   -0.06638703373212047
2.018044197970109   0.017873961195859323   -0.06638703373212047
2.788358989317693   0.07803575773281723   -0.10059317546291907
2.788358989317693   0.07803575773281723   -0.10059317546291907
2.788358989317693   0.07803575773281723   -0.10059317546291907
2.788358989317693   0.07803575773281723   -0.10059317546291907
1.374963666635004   -0.06065654909078633   0.042162388522251196
1.374963666635004   -0.06065654909078633   0.042162388522251196
1.374963666635004   -0.06065654909078633   0.042162388522251196
1.374963666635004   -0.06065654909078633   0.042162388522251196
1.2538795223705668   -0.23349620241796315   -0.08310643808095808
1.2538795223705668   -0.23349620241796315   -0.08310643808095808
1.2538795223705668   -0.23349620241796315   -0.08310643808095808
1.2538795223705668   -0.23349620241796315   -0.08310643808095808
2.7558791306557135   0.2105080025499877   0.06522530490346862
2.7558791306557135   0.2105080025499877   0.06522530490346862
2.7558791306557135   0.2105080025499877   0.06522530490346862
2.7558791306557135   0.2105080025499877   0.06522530490346862
1.9687086730680863   -0.01469805212127212   -0.08752311758728913
1.9687086730680863   -0.01469805212127212   -0.08752311758728913
1.9687086730680863   -0.01469805212127212   -0.08752311758728913
1.9687086730680863   -0.01469805212127212   -0.08752311758728913
2.6960553860918823   0.05573597905782135   -0.07912139442347393
2.6960553860918823   0.05573597905782135   -0.07912139442347393
2.6960553860918823   0.05573597905782135   -0.07912139442347393
2.6960553860918823   0.05573597905782135   -0.07912139442347393
1.3113515779475151   -0.08107586791265242   0.05183350529846592
1.3113515779475151   -0.08107586791265242   0.05183350529846592
1.3113515779475151   -0.08107586791265242   0.05183350529846592
1.3113515779475151   -0.08107586791265242   0.05183350529846592
1.1966934588297833   -0.23920341190333433   -0.06787486439704582
1.1966934588297833   -0.23920341190333433   -0.06787486439704582
1.1966934588297833   -0.23920341190333433   -0.06787486439704582
1.1966934588297833   -0.23920341190333433   -0.06787486439704582
2.650324618982916   0.1884485512904998   0.0810327183412121
2.650324618982916   0.1884485512904998   0.0810327183412121
2.650324618982916   0.1884485512904998   0.0810327183412121
2.650324618982916   0.1884485512904998   0.0810327183412121
1.8549264083203192   -0.03723571681885768   -0.1190201436527454
1.8549264083203192   -0.03723571681885768   -0.1190201436527454
1.8549264083203192   -0.03723571681885768   -0.1190201436527454
1.8549264083203192   -0.03723571681885768   -0.1190201436527454
1.465773960639402   0.15135271729350952   0.007529442270811093
1.465773960639402   0.15135271729350952   0.007529442270811093
1.465773960639402   0.15135271729350952   0.007529442270811093
1.465773960639402   0.15135271729350952   0.007529442270811093
0.052378687789263696   -0.047260865337044294   -0.0056959118514854495
0.052378687789263696   -0.047260865337044294   -0.0056959118514854495
0.052378687789263696   -0.047260865337044294   -0.0056959118514854495
0.052378687789263696   -0.047260865337044294   -0.0056959118514854495
-0.041896198346935476   -0.19391736719484814   -0.06494752274985563
-0.041896198346935476   -0.19391736719484814   -0.06494752274985563
-0.041896198346935476   -0.19391736719484814   -0.06494752274985563
-0.041896198346935476   -0.19391736719484814   -0.06494752274985563
1.437244329227215   0.21294561695989633   0.07996353543262452
1.437244329227215   0.21294561695989633   0.07996353543262452
1.437244329227215   0.21294561695989633   0.07996353543262452
1.437244329227215   0.21294561695989633   0.07996353543262452
0.7170372475320689   0.030318369910837653   -0.008323672049316149
0.7170372475320689   0.030318369910837653   -0.008323672049316149
0.7170372475320689   0.030318369910837653   -0.008323672049316149
0.7170372475320689   0.030318369910837653   -0.008323672049316149
1.4041439638744087   0.11146802910424206   0.01593929652425135
1.4041439638744087   0.11146802910424206   0.01593929652425135
1.4041439638744087   0.11146802910424206   0.01593929652425135
1.4041439638744087   0.11146802910424206   0.01593929652425135
-0.008216193549603259   -0.09186013989466735   0.001395273936624676
-0.008216193549603259   -0.09186013989466735   0.001395273936624676
-0.008216193549603259   -0.09186013989466735   0.001395273936624676
-0.008216193549603259   -0.09186013989466735   0.001395273936624676
-0.10117711131320956   -0.2232573220362212   -0.05608670203378212
-0.10117711131320956   -0.2232573220362212   -0.05608670203378212
-0.10117711131320956   -0.2232573220362212   -0.05608670203378212
-0.10117711131320956   -0.2232573220362212   -0.05608670203378212
1.3700986518381089   0.1759769262147939   0.08851608062398822
1.3700986518381089   0.1759769262147939   0.08851608062398822
1.3700986518381089   0.1759769262147939   0.08851608062398822
1.3700986518381089   0.1759769262147939   0.08851608062398822
0.6447327293363263   -0.006073571887262541   -0.02901961304793712
0.6447327293363263   -0.006073571887262541   -0.02901961304793712
0.6447327293363263   -0.006073571887262541   -0.02901961304793712
0.6447327293363263   -0.006073571887262541   -0.02901961304793712
1.3382285468700679   0.08072470533908993   0.024417776659495946
1.3382285468700679   0.08072470533908993   0.024417776659495946
1.3382285468700679   0.08072470533908993   0.024417776659495946
1.3382285468700679   0.08072470533908993   0.024417776659495946
-0.06924699003221585   -0.1279450848475835   0.00825166718254862
-0.06924699003221585   -0.1279450848475835   0.00825166718254862
-0.06924699003221585   -0.1279450848475835   0.00825166718254862
-0.06924699003221585   -0.1279450848475835   0.00825166718254862
-0.15987378566716087   -0.24105199054520682   -0.04452147857229928
-0.15987378566716087   -0.24105199054520682   -0.04452147857229928
-0.15987378566716087   -0.24105199054520682   -0.04452147857229928
-0.15987378566716087   -0.24105199054520682   -0.04452147857229928
1.306241035607241   0.1446941976449595   0.0959654099419335
1.306241035607241   0.1446941976449595   0.0959654099419335
1.306241035607241   0.1446941976449595   0.0959654099419335
1.306241035607241   0.1446941976449595   0.0959654099419335
0.5911002298189121   -0.029497307677813916   -0.044322830746200054
0.5911002298189121   -0.029497307677813916   -0.044322830746200054
0.5911002298189121   -0.029497307677813916   -0.044322830746200054
0.5911002298189121   -0.029497307677813916   -0.044322830746200054
0.10020666832991884   0.15327216790855416   0.0329109576061957
0.10020666832991884   0.15327216790855416   0.0329109576061957
0.10020666832991884   0.15327216790855416   0.0329109576061957
0.10020666832991884   0.15327216790855416   0.0329109576061957
-1.293381291345731   -0.08320439362824755   -0.0445681011364297
-1.293381291345731   -0.08320439362824755   -0.0445681011364297
-1.293381291345731   -0.08320439362824755   -0.0445681011364297
-1.293381291345731   -0.08320439362824755   -0.0445681011364297
-1.3669386457927555   -0.17739773454460378   -0.04086872827833406
-1.3669386457927555   -0.17739773454460378   -0.04086872827833406
-1.3669386457927555   -0.17739773454460378   -0.04086872827833406
-1.3669386457927555   -0.17739773454460378   -0.04086872827833406
0.0524684054636961   0.17431993696470352   0.03863819214375059
0.0524684054636961   0.17431993696470352   0.03863819214375059
0.0524684054636961   0.17431993696470352   0.03863819214375059
0.0524684054636961   0.17431993696470352   0.03863819214375059
-0.6261333903151182   0.019758057009329894   0.002312142128559909
-0.6261333903151182   0.019758057009329894   0.002312142128559909
-0.6261333903151182   0.019758057009329894   0.002312142128559909
-0.6261333903151182   0.019758057009329894   0.002312142128559909
0.042353067631594445   0.12092553482126846   0.04145590512667738
0.042353067631594445   0.12092553482126846   0.04145590512667738
0.042353067631594445   0.12092553482126846   0.04145590512667738
0.042353067631594445   0.12092553482126846   0.04145590512667738
-1.3552115399433216   -0.12239156438383672   -0.03723936919193294
-1.3552115399433216   -0.12239156438383672   -0.03723936919193294
-1.3552115399433216   -0.12239156438383672   -0.03723936919193294
-1.3552115399433216   -0.12239156438383672   -0.03723936919193294
-1.4305668739325372   -0.20964937683682322   -0.033840097863278254
-1.4305668739325372   -0.20964937683682322   -0.033840097863278254
-1.4305668739325372   -0.20964937683682322   -0.033840097863278254
-1.4305668739325372   -0.20964937683682322   -0.033840097863278254
-0.008665046860532565   0.1362823057833443   0.04693399241004114
-0.008665046860532565   0.1362823057833443   0.04693399241004114
-0.008665046860532565   0.1362823057833443   0.04693399241004114
-0.008665046860532565   0.1362823057833443   0.04693399241004114
-0.6870831832025188   -0.011741765342081822   -0.013276598488004984
-0.6870831832025188   -0.011741765342081822   -0.013276598488004984
-0.6870831832025188   -0.011741765342081822   -0.013276598488004984
-0.6870831832025188   -0.011741765342081822   -0.013276598488004984
-0.017315981056755952   0.089800955627868   0.05016067158439667
-0.017315981056755952   0.089800955627868   0.05016067158439667
-0.017315981056755952   0.089800955627868   0.05016067158439667
-0.017315981056755952   0.089800955627868   0.05016067158439667
-1.4205235649062846   -0.1617756518513172   -0.031497277717514205
-1.4205235649062846   -0.1617756518513172   -0.031497277717514205
-1.4205235649062846   -0.1617756518513172   -0.031497277717514205
-1.4205235649062846   -0.1617756518513172   -0.031497277717514205
-1.4937791759397754   -0.23505977076533224   -0.022164948743603512
-1.4937791759397754   -0.23505977076533224   -0.022164948743603512
-1.4937791759397754   -0.23505977076533224   -0.022164948743603512
-1.4937791759397754   -0.23505977076533224   -0.022164948743603512
-0.07199289110481777   0.1004495831305506   0.05338142056365506
-0.07199289110481777   0.1004495831305506   0.05338142056365506
-0.07199289110481777   0.1004495831305506   0.05338142056365506
-0.07199289110481777   0.1004495831305506   0.05338142056365506
-0.75265882378176   -0.04378181838431336   -0.030293462518244878
-0.75265882378176   -0.04378181838431336   -0.030293462518244878
-0.75265882378176   -0.04378181838431336   -0.030293462518244878
-0.75265882378176   -0.04378181838431336   -0.030293462518244878
-1.2193876523339433   0.18172890247661955   0.060466797817673015
-1.2193876523339433   0.18172890247661955   0.060466797817673015
-1.2193876523339433   0.18172890247661955   0.060466797817673015
-1.2193876523339433   0.18172890247661955   0.060466797817673015
-2.5934525368140684   -0.11459465364640797   -0.07316024870739724
-2.5934525368140684   -0.11459465364640797   -0.07316024870739724
-2.5934525368140684   -0.11459465364640797   -0.07316024870739724
-2.5934525368140684   -0.11459465364640797   -0.07316024870739724
-2.650835957760414   -0.1414951493922379   -0.011207038282624524
-2.650835957760414   -0.1414951493922379   -0.011207038282624524
-2.650835957760414   -0.1414951493922379   -0.011207038282624524
-2.650835957760414   -0.1414951493922379   -0.011207038282624524
-1.297429776727408   0.13167900165910762   -0.00240111915529323
-1.297429776727408   0.13167900165910762   -0.00240111915529323
-1.297429776727408   0.13167900165910762   -0.00240111915529323
-1.297429776727408   0.13167900165910762   -0.00240111915529323
-1.9262756842955693   0.020368312970136526   0.013983143218798552
-1.9262756842955693   0.020368312970136526   0.013983143218798552
-1.9262756842955693   0.020368312970136526   0.013983143218798552
-1.9262756842955693   0.020368312970136526   0.013983143218798552
-1.280006891890478   0.14849211064663909   0.06790019604182447
-1.280006891890478   0.14849211064663909   0.06790019604182447
-1.280006891890478   0.14849211064663909   0.06790019604182447
-1.280006891890478   0.14849211064663909   0.06790019604182447
-2.666046274191041   -0.15609568997346934   -0.07265807985454464
-2.666046274191041   -0.15609568997346934   -0.07265807985454464
-2.666046274191041   -0.15609568997346934   -0.07265807985454464
-2.666046274191041   -0.15609568997346934   -0.07265807985454464
-2.7292126546636735   -0.17773847271226395   -0.009808255102901925
-2.7292126546636735   -0.17773847271226395   -0.009808255102901925
-2.7292126546636735   -0.17773847271226395   -0.009808255102901925
-2.7292126546636735   -0.17773847271226395   -0.009808255102901925
-1.3617932536842234   0.09538002133734924   0.004998605204124623
-1.3617932536842234   0.09538002133734924   0.004998605204124623
-1.3617932536842234   0.09538002133734924   0.004998605204124623
-1.3617932536842234   0.09538002133734924   0.004998605204124623
-1.9812970778416907   -0.008532058980021962   0.0011814132508818076
-1.9812970778416907   -0.008532058980021962   0.0011814132508818076
-1.9812970778416907   -0.008532058980021962   0.0011814132508818076
-1.9812970778416907   -0.008532058980021962   0.0011814132508818076
-1.3427242683698901   0.11722130515808443   0.07850224795505686
-1.3427242683698901   0.11722130515808443   0.07850224795505686
-1.3427242683698901   0.11722130515808443   0.07850224795505686
-1.3427242683698901   0.11722130515808443   0.07850224795505686
-2.7438201641057063   -0.19511828066070203   -0.06546599436464937
-2.7438201641057063   -0.19511828066070203   -0.06546599436464937
-2.7438201641057063   -0.19511828066070203   -0.06546599436464937
-2.7438201641057063   -0.19511828066070203   -0.06546599436464937
-2.801412014342693   -0.21651013990686946   0.008356555287441794
-2.801412014342693   -0.21651013990686946   0.008356555287441794
-2.801412014342693   -0.21651013990686946   0.008356555287441794
-2.801412014342693   -0.21651013990686946   0.008356555287441794
-1.4299989879925543   0.05226121015974727   0.009415010067444746
-1.4299989879925543   0.05226121015974727   0.009415010067444746
-1.4299989879925543   0.05226121015974727   0.009415010067444746
-1.4299989879925543   0.05226121015974727   0.009415010067444746
-2.066780300641635   -0.048895814344496025   -0.01595732581186879
-2.066780300641635   -0.048895814344496025   -0.01595732581186879
-2.066780300641635   -0.048895814344496025   -0.01595732581186879
-2.066780300641635   -0.048895814344496025   -0.01595732581186879
-2.501067565239084   0.18927023785083463   0.08489971767025592
-2.501067565239084   0.18927023785083463   0.08489971767025592
-2.501067565239084   0.18927023785083463   0.08489971767025592
-2.501067565239084   0.18927023785083463   0.08489971767025592
-3.8273597734791758   -0.17688793367099465   -0.06790622360295093
-3.8273597734791758   -0.17688793367099465   -0.06790622360295093
-3.8273597734791758   -0.17688793367099465   -0.06790622360295093
-3.8273597734791758   -0.17688793367099465   -0.06790622360295093
-3.880607875622344   -0.07650438660870607   0.07241452553518121
-3.880607875622344   -0.07650438660870607   0.07241452553518121
-3.880607875622344   -0.07650438660870607   0.07241452553518121
-3.880607875622344   -0.07650438660870607   0.07241452553518121
-2.6123355245534867   0.07818157823814265   -0.03838159987837006
-2.6123355245534867   0.07818157823814265   -0.03838159987837006
-2.6123355245534867   0.07818157823814265   -0.03838159987837006
-2.6123355245534867   0.07818157823814265   -0.03838159987837006
-3.0638169326555476   0.039678736990481744   0.07010786864323182
-3.0638169326555476   0.039678736990481744   0.07010786864323182
-3.0638169326555476   0.039678736990481744   0.07010786864323182
-3.0638169326555476   0.039678736990481744   0.07010786864323182
-2.562351618644647   0.19217321771715423   0.09754629018678626
-2.562351618644647   0.19217321771715423   0.09754629018678626
-2.562351618644647   0.19217321771715423   0.09754629018678626
-2.562351618644647   0.19217321771715423   0.09754629018678626
-3.9276382697411503   -0.18754251429768087   -0.051699317369824443
-3.9276382697411503   -0.18754251429768087   -0.051699317369824443
-3.9276382697411503   -0.18754251429768087   -0.051699317369824443
-3.9276382697411503   -0.18754251429768087   -0.051699317369824443
-3.9779261656631295   -0.09546067766172461   0.10007441933757116
-3.9779261656631295   -0.09546067766172461   0.10007441933757116
-3.9779261656631295   -0.09546067766172461   0.10007441933757116
-3.9779261656631295   -0.09546067766172461   0.10007441933757116
-2.687076934562077   0.05731412218906251   -0.034182249496244654
-2.687076934562077   0.05731412218906251   -0.034182249496244654
-2.687076934562077   0.05731412218906251   -0.034182249496244654
-2.687076934562077   0.05731412218906251   -0.034182249496244654
-3.1970884019186445   0.01951552025382086   0.044737252665348226
-3.1970884019186445   0.01951552025382086   0.044737252665348226
-3.1970884019186445   0.01951552025382086   0.044737252665348226
-3.1970884019186445   0.01951552025382086   0.044737252665348226
-2.6318784940727347   0.17796565651393437   0.12115841862559418
-2.6318784940727347   0.17796565651393437   0.12115841862559418
-2.6318784940727347   0.17796565651393437   0.12115841862559418
-2.6318784940727347   0.17796565651393437   0.12115841862559418
-4.030284872545488   -0.21327247837962449   -0.04390731435626721
-4.030284872545488   -0.21327247837962449   -0.04390731435626721
-4.030284872545488   -0.21327247837962449   -0.04390731435626721
-4.030284872545488   -0.21327247837962449   -0.04390731435626721
-4.109900346925865   -0.17622249730043804   0.09970169929596845
-4.109900346925865   -0.17622249730043804   0.09970169929596845
-4.109900346925865   -0.17622249730043804   0.09970169929596845
-4.109900346925865   -0.17622249730043804   0.09970169929596845
-2.767162482669192   -0.004829270255599427   -0.032076655996324394
-2.767162482669192   -0.004829270255599427   -0.032076655996324394
-2.767162482669192   -0.004829270255599427   -0.032076655996324394
-2.767162482669192   -0.004829270255599427   -0.032076655996324394
-3.2367134749451845   -0.00931530215708154   0.036157594070462235
-3.2367134749451845   -0.00931530215708154   0.036157594070462235
-3.2367134749451845   -0.00931530215708154   0.036157594070462235
-3.2367134749451845   -0.00931530215708154   0.036157594070462235
2.1951753132207648   0.12151675541053064   -0.10582770039490848
2.1951753132207648   0.12151675541053064   -0.10582770039490848
2.1951753132207648   0.12151675541053064   -0.10582770039490848
2.1951753132207648   0.12151675541053064   -0.10582770039490848
1.0449463339599137   0.021923646294572385   0.04057916716249712
1.0449463339599137   0.021923646294572385   0.04057916716249712
1.0449463339599137   0.021923646294572385   0.04057916716249712
1.0449463339599137   0.021923646294572385   0.04057916716249712
0.9272573065197874   -0.17870301804007535   -0.1003635961088546
0.9272573065197874   -0.17870301804007535   -0.1003635961088546
0.9272573065197874   -0.17870301804007535   -0.1003635961088546
0.9272573065197874   -0.17870301804007535   -0.1003635961088546
2.147032473284786   0.20229014348737806   0.0501447093383313
2.147032473284786   0.20229014348737806   0.0501447093383313
2.147032473284786   0.20229014348737806   0.0501447093383313
2.147032473284786   0.20229014348737806   0.0501447093383313
1.4970752796626987   0.020285110562217656   -0.04424309957794641
1.4970752796626987   0.020285110562217656   -0.04424309957794641
1.4970752796626987   0.020285110562217656   -0.04424309957794641
1.4970752796626987   0.020285110562217656   -0.04424309957794641
2.0872355913940672   0.05337953902581233   -0.09992909565369569
2.0872355913940672   0.05337953902581233   -0.09992909565369569
2.0872355913940672   0.05337953902581233   -0.09992909565369569
2.0872355913940672   0.05337953902581233   -0.09992909565369569
0.9858683134017686   -0.03097828858724866   0.04496670884821492
0.9858683134017686   -0.03097828858724866   0.04496670884821492
0.9858683134017686   -0.03097828858724866   0.04496670884821492
0.9858683134017686   -0.03097828858724866   0.04496670884821492
0.8722307485311079   -0.19637219990799668   -0.08552732526197085
0.8722307485311079   -0.19637219990799668   -0.08552732526197085
0.8722307485311079   -0.19637219990799668   -0.08552732526197085
0.8722307485311079   -0.19637219990799668   -0.08552732526197085
2.061484280914525   0.17706907996769355   0.06582588409234526
2.061484280914525   0.17706907996769355   0.06582588409234526
2.061484280914525   0.17706907996769355   0.06582588409234526
2.061484280914525   0.17706907996769355   0.06582588409234526
1.4474994156659027   -0.010267131784614358   -0.06240329586240177
1.4474994156659027   -0.010267131784614358   -0.06240329586240177
1.4474994156659027   -0.010267131784614358   -0.06240329586240177
1.4474994156659027   -0.010267131784614358   -0.06240329586240177
2.003107320037433   0.03092550948381878   -0.0799153498092191
2.003107320037433   0.03092550948381878   -0.0799153498092191
2.003107320037433   0.03092550948381878   -0.0799153498092191
2.003107320037433   0.03092550948381878   -0.0799153498092191
0.929129395232539   -0.05170694359978073   0.054300651936959834
0.929129395232539   -0.05170694359978073   0.054300651936959834
0.929129395232539   -0.05170694359978073   0.054300651936959834
0.929129395232539   -0.05170694359978073   0.054300651936959834
0.8225939676452156   -0.20754655341789097   -0.07121215386304093
0.8225939676452156   -0.20754655341789097   -0.07121215386304093
0.8225939676452156   -0.20754655341789097   -0.07121215386304093
0.8225939676452156   -0.20754655341789097   -0.07121215386304093
1.9650540472224292   0.14955259715079794   0.07809138195496917
1.9650540472224292   0.14955259715079794   0.07809138195496917
1.9650540472224292   0.14955259715079794   0.07809138195496917
1.9650540472224292   0.14955259715079794   0.07809138195496917
1.3504763219351392   -0.03345607735181261   -0.08910666923817899
1.3504763219351392   -0.03345607735181261   -0.08910666923817899
1.3504763219351392   -0.03345607735181261   -0.08910666923817899
1.3504763219351392   -0.03345607735181261   -0.08910666923817899
1.0619753363179412   0.15443934315702768   -0.006791517909803237
1.0619753363179412   0.15443934315702768   -0.006791517909803237
1.0619753363179412   0.15443934315702768   -0.006791517909803237
1.0619753363179412   0.15443934315702768   -0.006791517909803237
-0.06833388167729205   -0.014366164856947654   -0.0002673066202536244
-0.06833388167729205   -0.014366164856947654   -0.0002673066202536244
-0.06833388167729205   -0.014366164856947654   -0.0002673066202536244
-0.06833388167729205   -0.014366164856947654   -0.0002673066202536244
-0.15123247332681503   -0.1334746300405135   -0.06366089701539426
-0.15123247332681503   -0.1334746300405135   -0.06366089701539426
-0.15123247332681503   -0.1334746300405135   -0.06366089701539426
-0.15123247332681503   -0.1334746300405135   -0.06366089701539426
1.0339653400644069   0.1837294287080642   0.07074412486609412
1.0339653400644069   0.1837294287080642   0.07074412486609412
1.0339653400644069   0.1837294287080642   0.07074412486609412
1.0339653400644069   0.1837294287080642   0.07074412486609412
0.4618794364023216   0.045465353503729385   0.0032206352660885656
0.4618794364023216   0.045465353503729385   0.0032206352660885656
0.4618794364023216   0.045465353503729385   0.0032206352660885656
0.4618794364023216   0.045465353503729385   0.0032206352660885656
1.0058576462332298   0.1112188251318594   0.0027162592864254653
1.0058576462332298   0.1112188251318594   0.0027162592864254653
1.0058576462332298   0.1112188251318594   0.0027162592864254653
1.0058576462332298   0.1112188251318594   0.0027162592864254653
-0.12263832867887457   -0.06047757564754337   0.006312771831337886
-0.12263832867887457   -0.06047757564754337   0.006312771831337886
-0.12263832867887457   -0.06047757564754337   0.006312771831337886
-0.12263832867887457   -0.06047757564754337   0.006312771831337886
-0.20307318032285704   -0.16687653690629162   -0.05257940282035094
-0.20307318032285704   -0.16687653690629162   -0.05257940282035094
-0.20307318032285704   -0.16687653690629162   -0.05257940282035094
-0.20307318032285704   -0.16687653690629162   -0.05257940282035094
0.9728700148648651   0.14394508303377124   0.07735172346503821
0.9728700148648651   0.14394508303377124   0.07735172346503821
0.9728700148648651   0.14394508303377124   0.07735172346503821
0.9728700148648651   0.14394508303377124   0.07735172346503821
0.3980837473666575   0.006156958199038193   -0.016524570131803595
0.3980837473666575   0.006156958199038193   -0.016524570131803595
0.3980837473666575   0.006156958199038193   -0.016524570131803595
0.3980837473666575   0.006156958199038193   -0.016524570131803595
0.9456874881317361   0.07539025992944315   0.009993912903729973
0.9456874881317361   0.07539025992944315   0.009993912903729973
0.9456874881317361   0.07539025992944315   0.009993912903729973
0.9456874881317361   0.07539025992944315   0.009993912903729973
-0.17627510194251614   -0.09870616215475025   0.01324061432981206
-0.17627510194251614   -0.09870616215475025   0.01324061432981206
-0.17627510194251614   -0.09870616215475025   0.01324061432981206
-0.17627510194251614   -0.09870616215475025   0.01324061432981206
-0.2542494989425002   -0.1950301612285143   -0.04216584987569441
-0.2542494989425002   -0.1950301612285143   -0.04216584987569441
-0.2542494989425002   -0.1950301612285143   -0.04216584987569441
-0.2542494989425002   -0.1950301612285143   -0.04216584987569441
0.9164633421578819   0.10706611270034312   0.08352205258205318
0.9164633421578819   0.10706611270034312   0.08352205258205318
0.9164633421578819   0.10706611270034312   0.08352205258205318
0.9164633421578819   0.10706611270034312   0.08352205258205318
0.3490085676918447   -0.023761931208115677   -0.033015390983211684
0.3490085676918447   -0.023761931208115677   -0.033015390983211684
0.3490085676918447   -0.023761931208115677   -0.033015390983211684
0.3490085676918447   -0.023761931208115677   -0.033015390983211684
-0.023322983611431092   0.1848375765969326   0.02558344225517097
-0.023322983611431092   0.1848375765969326   0.02558344225517097
-0.023322983611431092   0.1848375765969326   0.02558344225517097
-0.023322983611431092   0.1848375765969326   0.02558344225517097
-1.1578386155178648   -0.049603944225388746   -0.03841202861885993
-1.1578386155178648   -0.049603944225388746   -0.03841202861885993
-1.1578386155178648   -0.049603944225388746   -0.03841202861885993
-1.1578386155178648   -0.049603944225388746   -0.03841202861885993
-1.211277820681675   -0.09214401286324428   -0.029935330850617066
-1.211277820681675   -0.09214401286324428   -0.029935330850617066
-1.211277820681675   -0.09214401286324428   -0.029935330850617066
-1.211277820681675   -0.09214401286324428   -0.029935330850617066
-0.07597331821580292   0.14840184121309924   0.030758407286053585
-0.07597331821580292   0.14840184121309924   0.030758407286053585
-0.07597331821580292   0.14840184121309924   0.030758407286053585
-0.07597331821580292   0.14840184121309924   0.030758407286053585
-0.6156451344023901   0.048220222527679046   0.01208907259875034
-0.6156451344023901   0.048220222527679046   0.01208907259875034
-0.6156451344023901   0.048220222527679046   0.01208907259875034
-0.6156451344023901   0.048220222527679046   0.01208907259875034
-0.07492008710940026   0.1483332340229728   0.0360931700081933
-0.07492008710940026   0.1483332340229728   0.0360931700081933
-0.07492008710940026   0.1483332340229728   0.0360931700081933
-0.07492008710940026   0.1483332340229728   0.0360931700081933
-1.2113249230661944   -0.09106927695123446   -0.031245578685223402
-1.2113249230661944   -0.09106927695123446   -0.031245578685223402
-1.2113249230661944   -0.09106927695123446   -0.031245578685223402
-1.2113249230661944   -0.09106927695123446   -0.031245578685223402
-1.2643744925119083   -0.12829699082782886   -0.020253044994448688
-1.2643744925119083   -0.12829699082782886   -0.020253044994448688
-1.2643744925119083   -0.12829699082782886   -0.020253044994448688
-1.2643744925119083   -0.12829699082782886   -0.020253044994448688
-0.1300113317490541   0.10743301399630115   0.03842028914607088
-0.1300113317490541   0.10743301399630115   0.03842028914607088
-0.1300113317490541   0.10743301399630115   0.03842028914607088
-0.1300113317490541   0.10743301399630115   0.03842028914607088
-0.669287793648436   0.012601283196837842   -0.003952215417237476
-0.669287793648436   0.012601283196837842   -0.003952215417237476
-0.669287793648436   0.012601283196837842   -0.003952215417237476
-0.669287793648436   0.012601283196837842   -0.003952215417237476
-0.12789149185504528   0.11195059902076396   0.04450190359165223
-0.12789149185504528   0.11195059902076396   0.04450190359165223
-0.12789149185504528   0.11195059902076396   0.04450190359165223
-0.12789149185504528   0.11195059902076396   0.04450190359165223
-1.2661902193821177   -0.13251046282849221   -0.025118207344832222
-1.2661902193821177   -0.13251046282849221   -0.025118207344832222
-1.2661902193821177   -0.13251046282849221   -0.025118207344832222
-1.2661902193821177   -0.13251046282849221   -0.025118207344832222
-1.3168611483799664   -0.1613357137975079   -0.010676806801488713
-1.3168611483799664   -0.1613357137975079   -0.010676806801488713
-1.3168611483799664   -0.1613357137975079   -0.010676806801488713
-1.3168611483799664   -0.1613357137975079   -0.010676806801488713
-0.18425921106560902   0.06780866945341911   0.04494675882682814
-0.18425921106560902   0.06780866945341911   0.04494675882682814
-0.18425921106560902   0.06780866945341911   0.04494675882682814
-0.18425921106560902   0.06780866945341911   0.04494675882682814
-0.7253764616961413   -0.023324378122792228   -0.021807677847865116
-0.7253764616961413   -0.023324378122792228   -0.021807677847865116
-0.7253764616961413   -0.023324378122792228   -0.021807677847865116
-0.7253764616961413   -0.023324378122792228   -0.021807677847865116
-1.0865179845777277   0.21261811909466583   0.05596906276175441
-1.0865179845777277   0.21261811909466583   0.05596906276175441
-1.0865179845777277   0.21261811909466583   0.05596906276175441
-1.0865179845777277   0.21261811909466583   0.05596906276175441
-2.2217043596443573   -0.0855498145581231   -0.06939006515645926
-2.2217043596443573   -0.0855498145581231   -0.06939006515645926
-2.2217043596443573   -0.0855498145581231   -0.06939006515645926
-2.2217043596443573   -0.0855498145581231   -0.06939006515645926
-2.250939713482668   -0.057177617211721654   0.006825723245820092
-2.250939713482668   -0.057177617211721654   0.006825723245820092
-2.250939713482668   -0.057177617211721654   0.006825723245820092
-2.250939713482668   -0.057177617211721654   0.006825723245820092
-1.1673898089438055   0.10646849452871404   -0.009107779553227516
-1.1673898089438055   0.10646849452871404   -0.009107779553227516
-1.1673898089438055   0.10646849452871404   -0.009107779553227516
-1.1673898089438055   0.10646849452871404   -0.009107779553227516
-1.670753381049994   0.04625652751306858   0.020501060071305352
-1.670753381049994   0.04625652751306858   0.020501060071305352
-1.670753381049994   0.04625652751306858   0.020501060071305352
-1.670753381049994   0.04625652751306858   0.020501060071305352
-1.1382003820129138   0.17722222863252457   0.06608562099742012
-1.1382003820129138   0.17722222863252457   0.06608562099742012
-1.1382003820129138   0.17722222863252457   0.06608562099742012
-1.1382003820129138   0.17722222863252457   0.06608562099742012
-2.279840923019915   -0.12764313392190801   -0.06721480773022832
-2.279840923019915   -0.12764313392190801   -0.06721480773022832
-2.279840923019915   -0.12764313392190801   -0.06721480773022832
-2.279840923019915   -0.12764313392190801   -0.06721480773022832
-2.3127578804052753   -0.09371758090440141   0.010475220716422845
-2.3127578804052753   -0.09371758090440141   0.010475220716422845
-2.3127578804052753   -0.09371758090440141   0.010475220716422845
-2.3127578804052753   -0.09371758090440141   0.010475220716422845
-1.2212196310383885   0.06852911369562675   -0.0013048421502899615
-1.2212196310383885   0.06852911369562675   -0.0013048421502899615
-1.2212196310383885   0.06852911369562675   -0.0013048421502899615
-1.2212196310383885   0.06852911369562675   -0.0013048421502899615
-1.7162361348097748   0.014416022522227678   0.005555199629753704
-1.7162361348097748   0.014416022522227678   0.005555199629753704
-1.7162361348097748   0.014416022522227678   0.005555199629753704
-1.7162361348097748   0.014416022522227678   0.005555199629753704
-1.1908212290895672   0.14368163456111888   0.07553464672831647
-1.1908212290895672   0.14368163456111888   0.07553464672831647
-1.1908212290895672   0.14368163456111888   0.07553464672831647
-1.1908212290895672   0.14368163456111888   0.07553464672831647
-2.3415846240436213   -0.16729844345941974   -0.060077634920289266
-2.3415846240436213   -0.16729844345941974   -0.060077634920289266
-2.3415846240436213   -0.16729844345941974   -0.060077634920289266
-2.3415846240436213   -0.16729844345941974   -0.060077634920289266
-2.368865009617669   -0.1330054767143174   0.021947597322235807
-2.368865009617669   -0.1330054767143174   0.021947597322235807
-2.368865009617669   -0.1330054767143174   0.021947597322235807
-2.368865009617669   -0.1330054767143174   0.021947597322235807
-1.2765517212651174   0.025185858442498044   0.004348756532765896
-1.2765517212651174   0.025185858442498044   0.004348756532765896
-1.2765517212651174   0.025185858442498044   0.004348756532765896
-1.2765517212651174   0.025185858442498044   0.004348756532765896
-1.7851993439367022   -0.02537979168359833   -0.01336762007794512
-1.7851993439367022   -0.02537979168359833   -0.01336762007794512
-1.7851993439367022   -0.02537979168359833   -0.01336762007794512
-1.7851993439367022   -0.02537979168359833   -0.01336762007794512
-2.13673641102101   0.19066496351804985   0.07923489988410595
-2.13673641102101   0.19066496351804985   0.07923489988410595
-2.13673641102101   0.19066496351804985   0.07923489988410595
-2.13673641102101   0.19066496351804985   0.07923489988410595
-3.2320086503303926   -0.14894158595364337   -0.07685108880011574
-3.2320086503303926   -0.14894158595364337   -0.07685108880011574
-3.2320086503303926   -0.14894158595364337   -0.07685108880011574
-3.2320086503303926   -0.14894158595364337   -0.07685108880011574
-3.2684411960119144   -0.030741896200967456   0.07310669938450678
-3.2684411960119144   -0.030741896200967456   0.07310669938450678
-3.2684411960119144   -0.030741896200967456   0.07310669938450678
-3.2684411960119144   -0.030741896200967456   0.07310669938450678
-2.239271354981993   0.05315283320819353   -0.04516293467072233
-2.239271354981993   0.05315283320819353   -0.04516293467072233
-2.239271354981993   0.05315283320819353   -0.04516293467072233
-2.239271354981993   0.05315283320819353   -0.04516293467072233
-2.5989220145293377   0.043156016607726055   0.0634403749076472
-2.5989220145293377   0.043156016607726055   0.0634403749076472
-2.5989220145293377   0.043156016607726055   0.0634403749076472
-2.5989220145293377   0.043156016607726055   0.0634403749076472
-2.184272784070852   0.19005583077414712   0.09292692231901725
-2.184272784070852   0.19005583077414712   0.09292692231901725
-2.184272784070852   0.19005583077414712   0.09292692231901725
-2.184272784070852   0.19005583077414712   0.09292692231901725
-3.3224937779513004   -0.16669890479517335   -0.06119920171818771
-3.3224937779513004   -0.16669890479517335   -0.06119920171818771
-3.3224937779513004   -0.16669890479517335   -0.06119920171818771
-3.3224937779513004   -0.16669890479517335   -0.06119920171818771
-3.3493251345891215   -0.05000490147195236   0.09147083222572544
-3.3493251345891215   -0.05000490147195236   0.09147083222572544
-3.3493251345891215   -0.05000490147195236   0.09147083222572544
-3.3493251345891215   -0.05000490147195236   0.09147083222572544
-2.2973846856341944   0.032348789280106316   -0.038725175612681434
-2.2973846856341944   0.032348789280106316   -0.038725175612681434
-2.2973846856341944   0.032348789280106316   -0.038725175612681434
-2.2973846856341944   0.032348789280106316   -0.038725175612681434
-2.711444929710119   0.021624060471148954   0.038332180793347465
-2.711444929710119   0.021624060471148954   0.038332180793347465
-2.711444929710119   0.021624060471148954   0.038332180793347465
-2.711444929710119   0.021624060471148954   0.038332180793347465
-2.239041661078155   0.17568781172885017   0.10965092471877208
-2.239041661078155   0.17568781172885017   0.10965092471877208
-2.239041661078155   0.17568781172885017   0.10965092471877208
-2.239041661078155   0.17568781172885017   0.10965092471877208
-3.4061256647329268   -0.19180142950845724   -0.050735290456767085
-3.4061256647329268   -0.19180142950845724   -0.050735290456767085
-3.4061256647329268   -0.19180142950845724   -0.050735290456767085
-3.4061256647329268   -0.19180142950845724   -0.050735290456767085
-3.456064623657132   -0.11820429274422628   0.08995037254848146
-3.456064623657132   -0.11820429274422628   0.08995037254848146
-3.456064623657132   -0.11820429274422628   0.08995037254848146
-3.456064623657132   -0.11820429274422628   0.08995037254848146
-2.3587065161924734   -0.02518590633993867   -0.03507950592616338
-2.3587065161924734   -0.02518590633993867   -0.03507950592616338
-2.3587065161924734   -0.02518590633993867   -0.03507950592616338
-2.3587065161924734   -0.02518590633993867   -0.03507950592616338
-2.7410679831230182   -0.00504742126079194   0.02984976370641254
-2.7410679831230182   -0.00504742126079194   0.02984976370641254
-2.7410679831230182   -0.00504742126079194   0.02984976370641254
-2.7410679831230182   -0.00504742126079194   0.02984976370641254
1.5014928241937269   0.08461756361807538   -0.10249773645373986
1.5014928241937269   0.08461756361807538   -0.10249773645373986
1.5014928241937269   0.08461756361807538   -0.10249773645373986
1.5014928241937269   0.08461756361807538   -0.10249773645373986
0.6414039285274952   0.041913728490407726   0.04417321231966416
0.6414039285274952   0.041913728490407726   0.04417321231966416
0.6414039285274952   0.041913728490407726   0.04417321231966416
0.6414039285274952   0.041913728490407726   0.04417321231966416
0.5356180964637322   -0.14912074548294757   -0.0954953586922432
0.5356180964637322   -0.14912074548294757   -0.0954953586922432
0.5356180964637322   -0.14912074548294757   -0.0954953586922432
0.5356180964637322   -0.14912074548294757   -0.0954953586922432
1.465740460848807   0.1712258934805682   0.05364785516445413
1.465740460848807   0.1712258934805682   0.05364785516445413
1.465740460848807   0.1712258934805682   0.05364785516445413
1.465740460848807   0.1712258934805682   0.05364785516445413
0.9811730842412427   0.02180921977620301   -0.026825441077930716
0.9811730842412427   0.02180921977620301   -0.026825441077930716
0.9811730842412427   0.02180921977620301   -0.026825441077930716
0.9811730842412427   0.02180921977620301   -0.026825441077930716
1.4066757675994097   0.0250832641352014   -0.09553298173717624
1.4066757675994097   0.0250832641352014   -0.09553298173717624
1.4066757675994097   0.0250832641352014   -0.09553298173717624
1.4066757675994097   0.0250832641352014   -0.09553298173717624
0.5935746510023729   -0.004086254848337023   0.04925292336636202
0.5935746510023729   -0.004086254848337023   0.04925292336636202
0.5935746510023729   -0.004086254848337023   0.04925292336636202
0.5935746510023729   -0.004086254848337023   0.04925292336636202
0.49050707164151164   -0.1665349115235995   -0.08121686409110664
0.49050707164151164   -0.1665349115235995   -0.08121686409110664
0.49050707164151164   -0.1665349115235995   -0.08121686409110664
0.49050707164151164   -0.1665349115235995   -0.08121686409110664
1.3915541961635296   0.14652745266834052   0.0690344675707425
1.3915541961635296   0.14652745266834052   0.0690344675707425
1.3915541961635296   0.14652745266834052   0.0690344675707425
1.3915541961635296   0.14652745266834052   0.0690344675707425
0.934300864368529   -0.006854047106028993   -0.04392718810828142
0.934300864368529   -0.006854047106028993   -0.04392718810828142
0.934300864368529   -0.006854047106028993   -0.04392718810828142
0.934300864368529   -0.006854047106028993   -0.04392718810828142
1.33348454125264   0.0027889036281437685   -0.07757525794351876
1.33348454125264   0.0027889036281437685   -0.07757525794351876
1.33348454125264   0.0027889036281437685   -0.07757525794351876
1.33348454125264   0.0027889036281437685   -0.07757525794351876
0.5469528769124925   -0.024420212123312468   0.05889746286351468
0.5469528769124925   -0.024420212123312468   0.05889746286351468
0.5469528769124925   -0.024420212123312468   0.05889746286351468
0.5469528769124925   -0.024420212123312468   0.05889746286351468
0.4501505877773816   -0.18258032843336303   -0.06766978652078812
0.4501505877773816   -0.18258032843336303   -0.06766978652078812
0.4501505877773816   -0.18258032843336303   -0.06766978652078812
0.4501505877773816   -0.18258032843336303   -0.06766978652078812
1.305008589087225   0.11390025402017934   0.07870749619889314
1.305008589087225   0.11390025402017934   0.07870749619889314
1.305008589087225   0.11390025402017934   0.07870749619889314
1.305008589087225   0.11390025402017934   0.07870749619889314
0.8556912616792656   -0.03046092840539466   -0.06729341425784498
0.8556912616792656   -0.03046092840539466   -0.06729341425784498
0.8556912616792656   -0.03046092840539466   -0.06729341425784498
0.8556912616792656   -0.03046092840539466   -0.06729341425784498
0.6453626126044774   0.12466888963539641   -0.01878852844042536
0.6453626126044774   0.12466888963539641   -0.01878852844042536
0.6453626126044774   0.12466888963539641   -0.01878852844042536
0.6453626126044774   0.12466888963539641   -0.01878852844042536
-0.19931802177571456   0.011357439740951991   0.006183733842735802
-0.19931802177571456   0.011357439740951991   0.006183733842735802
-0.19931802177571456   0.011357439740951991   0.006183733842735802
-0.19931802177571456   0.011357439740951991   0.006183733842735802
-0.2716340400450639   -0.10328134724117971   -0.05871037477065441
-0.2716340400450639   -0.10328134724117971   -0.05871037477065441
-0.2716340400450639   -0.10328134724117971   -0.05871037477065441
-0.2716340400450639   -0.10328134724117971   -0.05871037477065441
0.6271289356470993   0.15000218641346114   0.06293590532819567
0.6271289356470993   0.15000218641346114   0.06293590532819567
0.6271289356470993   0.15000218641346114   0.06293590532819567
0.6271289356470993   0.15000218641346114   0.06293590532819567
0.19597874718817598   0.04347782467673725   0.007486211134693873
0.19597874718817598   0.04347782467673725   0.007486211134693873
0.19597874718817598   0.04347782467673725   0.007486211134693873
0.19597874718817598   0.04347782467673725   0.007486211134693873
0.5985948635562093   0.08046671224220454   -0.010198980955006303
0.5985948635562093   0.08046671224220454   -0.010198980955006303
0.5985948635562093   0.08046671224220454   -0.010198980955006303
0.5985948635562093   0.08046671224220454   -0.010198980955006303
-0.24351242730479827   -0.034158332420548276   0.012774674110046284
-0.24351242730479827   -0.034158332420548276   0.012774674110046284
-0.24351242730479827   -0.034158332420548276   0.012774674110046284
-0.24351242730479827   -0.034158332420548276   0.012774674110046284
-0.3136029838774672   -0.1383091564827888   -0.04744647537542973
-0.3136029838774672   -0.1383091564827888   -0.04744647537542973
-0.3136029838774672   -0.1383091564827888   -0.04744647537542973
-0.3136029838774672   -0.1383091564827888   -0.04744647537542973
0.5756730758134707   0.10965698828903707   0.06842125695605639
0.5756730758134707   0.10965698828903707   0.06842125695605639
0.5756730758134707   0.10965698828903707   0.06842125695605639
0.5756730758134707   0.10965698828903707   0.06842125695605639
0.14429341804964932   0.00396596048581729   -0.011495654362320744
0.14429341804964932   0.00396596048581729   -0.011495654362320744
0.14429341804964932   0.00396596048581729   -0.011495654362320744
0.14429341804964932   0.00396596048581729   -0.011495654362320744
0.5480407233433371   0.04291014717945131   -0.0029936642850333962
0.5480407233433371   0.04291014717945131   -0.0029936642850333962
0.5480407233433371   0.04291014717945131   -0.0029936642850333962
0.5480407233433371   0.04291014717945131   -0.0029936642850333962
-0.2870252073082217   -0.0726168912740918   0.01975014226210445
-0.2870252073082217   -0.0726168912740918   0.01975014226210445
-0.2870252073082217   -0.0726168912740918   0.01975014226210445
-0.2870252073082217   -0.0726168912740918   0.01975014226210445
-0.3550237580793212   -0.1713430153716956   -0.037036487540937246
-0.3550237580793212   -0.1713430153716956   -0.037036487540937246
-0.3550237580793212   -0.1713430153716956   -0.037036487540937246
-0.3550237580793212   -0.1713430153716956   -0.037036487540937246
0.5292378215077896   0.07078963290888737   0.07439642078901408
0.5292378215077896   0.07078963290888737   0.07439642078901408
0.5292378215077896   0.07078963290888737   0.07439642078901408
0.5292378215077896   0.07078963290888737   0.07439642078901408
0.10268797592155275   -0.028947284079618878   -0.028297628322627402
0.10268797592155275   -0.028947284079618878   -0.028297628322627402
0.10268797592155275   -0.028947284079618878   -0.028297628322627402
0.10268797592155275   -0.028947284079618878   -0.028297628322627402
-0.16816281630034882   0.15889755127832417   0.014419649682188618
-0.16816281630034882   0.15889755127832417   0.014419649682188618
-0.16816281630034882   0.15889755127832417   0.014419649682188618
-0.16816281630034882   0.15889755127832417   0.014419649682188618
-1.0276757775117438   -0.0253513648439605   -0.031183210722414756
-1.0276757775117438   -0.0253513648439605   -0.031183210722414756
-1.0276757775117438   -0.0253513648439605   -0.031183210722414756
-1.0276757775117438   -0.0253513648439605   -0.031183210722414756
-1.0690421206027585   -0.06094790508297371   -0.022921521807355655
-1.0690421206027585   -0.06094790508297371   -0.022921521807355655
-1.0690421206027585   -0.06094790508297371   -0.022921521807355655
-1.0690421206027585   -0.06094790508297371   -0.022921521807355655
-0.21148344186660611   0.11440175583674074   0.02435951304371449
-0.21148344186660611   0.11440175583674074   0.02435951304371449
-0.21148344186660611   0.11440175583674074   0.02435951304371449
-0.21148344186660611   0.11440175583674074   0.02435951304371449
-0.6175916972744535   0.04604923976136391   0.012161498135986548
-0.6175916972744535   0.04604923976136391   0.012161498135986548
-0.6175916972744535   0.04604923976136391   0.012161498135986548
-0.6175916972744535   0.04604923976136391   0.012161498135986548
-0.21015611290975497   0.12041098629170022   0.024986927373010524
-0.21015611290975497   0.12041098629170022   0.024986927373010524
-0.21015611290975497   0.12041098629170022   0.024986927373010524
-0.21015611290975497   0.12041098629170022   0.024986927373010524
-1.0704765955320663   -0.06706428151039998   -0.023977520026467518
-1.0704765955320663   -0.06706428151039998   -0.023977520026467518
-1.0704765955320663   -0.06706428151039998   -0.023977520026467518
-1.0704765955320663   -0.06706428151039998   -0.023977520026467518
-1.1114374591698144   -0.09911157856271358   -0.012876546228242414
-1.1114374591698144   -0.09911157856271358   -0.012876546228242414
-1.1114374591698144   -0.09911157856271358   -0.012876546228242414
-1.1114374591698144   -0.09911157856271358   -0.012876546228242414
-0.25551979946234243   0.07287952004562796   0.031780770171773456
-0.25551979946234243   0.07287952004562796   0.031780770171773456
-0.25551979946234243   0.07287952004562796   0.031780770171773456
-0.25551979946234243   0.07287952004562796   0.031780770171773456
-0.6611830464995427   0.008926041483754504   -0.0041742741149687415
-0.6611830464995427   0.008926041483754504   -0.0041742741149687415
-0.6611830464995427   0.008926041483754504   -0.0041742741149687415
-0.6611830464995427   0.008926041483754504   -0.0041742741149687415
-0.2532831500992036   0.08188608325306473   0.03395745378003834
-0.2532831500992036   0.08188608325306473   0.03395745378003834
-0.2532831500992036   0.08188608325306473   0.03395745378003834
-0.2532831500992036   0.08188608325306473   0.03395745378003834
-1.1143358138073371   -0.10877984704452276   -0.01770005093404685
-1.1143358138073371   -0.10877984704452276   -0.01770005093404685
-1.1143358138073371   -0.10877984704452276   -0.01770005093404685
-1.1143358138073371   -0.10877984704452276   -0.01770005093404685
-1.1531321024822991   -0.13557933216158183   -0.0031203578314864186
-1.1531321024822991   -0.13557933216158183   -0.0031203578314864186
-1.1531321024822991   -0.13557933216158183   -0.0031203578314864186
-1.1531321024822991   -0.13557933216158183   -0.0031203578314864186
-0.29917222632009444   0.03252836597412431   0.03834978990937274
-0.29917222632009444   0.03252836597412431   0.03834978990937274
-0.29917222632009444   0.03252836597412431   0.03834978990937274
-0.29917222632009444   0.03252836597412431   0.03834978990937274
-0.7065581994197512   -0.02824338524838757   -0.02187425953933298
-0.7065581994197512   -0.02824338524838757   -0.02187425953933298
-0.7065581994197512   -0.02824338524838757   -0.02187425953933298
-0.7065581994197512   -0.02824338524838757   -0.02187425953933298
-0.9693694155172344   0.18816219514985627   0.04683503925631441
-0.9693694155172344   0.18816219514985627   0.04683503925631441
-0.9693694155172344   0.18816219514985627   0.04683503925631441
-0.9693694155172344   0.18816219514985627   0.04683503925631441
-1.8408675300400905   -0.06180288878239437   -0.06363775731056083
-1.8408675300400905   -0.06180288878239437   -0.06363775731056083
-1.8408675300400905   -0.06180288878239437   -0.06363775731056083
-1.8408675300400905   -0.06180288878239437   -0.06363775731056083
-1.8564496523304175   -0.026424739994137525   0.015485891219126621
-1.8564496523304175   -0.026424739994137525   0.015485891219126621
-1.8564496523304175   -0.026424739994137525   0.015485891219126621
-1.8564496523304175   -0.026424739994137525   0.015485891219126621
-1.040109817052321   0.07449319710297855   -0.013701106241143166
-1.040109817052321   0.07449319710297855   -0.013701106241143166
-1.040109817052321   0.07449319710297855   -0.013701106241143166
-1.040109817052321   0.07449319710297855   -0.013701106241143166
-1.4182828074897775   0.044047176513204056   0.017694302206093984
-1.4182828074897775   0.044047176513204056   0.017694302206093984
-1.4182828074897775   0.044047176513204056   0.017694302206093984
-1.4182828074897775   0.044047176513204056   0.017694302206093984
-1.010575463153441   0.15112140972390342   0.057342450632354866
-1.010575463153441   0.15112140972390342   0.057342450632354866
-1.010575463153441   0.15112140972390342   0.057342450632354866
-1.010575463153441   0.15112140972390342   0.057342450632354866
-1.887257391897221   -0.10432633828298477   -0.06065120832605968
-1.887257391897221   -0.10432633828298477   -0.06065120832605968
-1.887257391897221   -0.10432633828298477   -0.06065120832605968
-1.887257391897221   -0.10432633828298477   -0.06065120832605968
-1.9064069101685421   -0.06421588476610463   0.02015744467120685
-1.9064069101685421   -0.06421588476610463   0.02015744467120685
-1.9064069101685421   -0.06421588476610463   0.02015744467120685
-1.9064069101685421   -0.06421588476610463   0.02015744467120685
-1.0829544995629359   0.03623909814498047   -0.005812424901566096
-1.0829544995629359   0.03623909814498047   -0.005812424901566096
-1.0829544995629359   0.03623909814498047   -0.005812424901566096
-1.0829544995629359   0.03623909814498047   -0.005812424901566096
-1.4550673850710054   0.010336005836803608   0.0013030583523083866
-1.4550673850710054   0.010336005836803608   0.0013030583523083866
-1.4550673850710054   0.010336005836803608   0.0013030583523083866
-1.4550673850710054   0.010336005836803608   0.0013030583523083866
-1.0523620553932873   0.11603281339419941   0.06735608069747219
-1.0523620553932873   0.11603281339419941   0.06735608069747219
-1.0523620553932873   0.11603281339419941   0.06735608069747219
-1.0523620553932873   0.11603281339419941   0.06735608069747219
-1.9371014068153236   -0.1441116524924569   -0.053419270836364816
-1.9371014068153236   -0.1441116524924569   -0.053419270836364816
-1.9371014068153236   -0.1441116524924569   -0.053419270836364816
-1.9371014068153236   -0.1441116524924569   -0.053419270836364816
-1.9509217566789485   -0.10443226510199527   0.030628174224130222
-1.9509217566789485   -0.10443226510199527   0.030628174224130222
-1.9509217566789485   -0.10443226510199527   0.030628174224130222
-1.9509217566789485   -0.10443226510199527   0.030628174224130222
-1.1265416494226685   -0.0061351467056023345   0.00038772201067095724
-1.1265416494226685   -0.0061351467056023345   0.00038772201067095724
-1.1265416494226685   -0.0061351467056023345   0.00038772201067095724
-1.1265416494226685   -0.0061351467056023345   0.00038772201067095724
-1.5100390443265328   -0.028684953639849464   -0.01767915985296739
-1.5100390443265328   -0.028684953639849464   -0.01767915985296739
-1.5100390443265328   -0.028684953639849464   -0.01767915985296739
-1.5100390443265328   -0.028684953639849464   -0.01767915985296739
-1.766174019924862   0.1743341156534362   0.07369278882975175
-1.766174019924862   0.1743341156534362   0.07369278882975175
-1.766174019924862   0.1743341156534362   0.07369278882975175
-1.766174019924862   0.1743341156534362   0.07369278882975175
-2.604504595220802   -0.11970199005683968   -0.08301500512265278
-2.604504595220802   -0.11970199005683968   -0.08301500512265278
-2.604504595220802   -0.11970199005683968   -0.08301500512265278
-2.604504595220802   -0.11970199005683968   -0.08301500512265278
-2.6299748804206287   -0.0013400921571624647   0.07307596394113322
-2.6299748804206287   -0.0013400921571624647   0.07307596394113322
-2.6299748804206287   -0.0013400921571624647   0.07307596394113322
-2.6299748804206287   -0.0013400921571624647   0.07307596394113322
-1.8592610795316715   0.02496658722590439   -0.04996257200721728
-1.8592610795316715   0.02496658722590439   -0.04996257200721728
-1.8592610795316715   0.02496658722590439   -0.04996257200721728
-1.8592610795316715   0.02496658722590439   -0.04996257200721728
-2.1176025001375276   0.04071826853946958   0.05343070875946196
-2.1176025001375276   0.04071826853946958   0.05343070875946196
-2.1176025001375276   0.04071826853946958   0.05343070875946196
-2.1176025001375276   0.04071826853946958   0.05343070875946196
-1.8035349543068857   0.16671635712157423   0.08691828422107392
-1.8035349543068857   0.16671635712157423   0.08691828422107392
-1.8035349543068857   0.16671635712157423   0.08691828422107392
-1.8035349543068857   0.16671635712157423   0.08691828422107392
-2.6867826977886766   -0.14417155419607647   -0.06813166086017756
-2.6867826977886766   -0.14417155419607647   -0.06813166086017756
-2.6867826977886766   -0.14417155419607647   -0.06813166086017756
-2.6867826977886766   -0.14417155419607647   -0.06813166086017756
-2.7005000062933506   -0.022105596890301116   0.09211821419437588
-2.7005000062933506   -0.022105596890301116   0.09211821419437588
-2.7005000062933506   -0.022105596890301116   0.09211821419437588
-2.7005000062933506   -0.022105596890301116   0.09211821419437588
-1.9053182876389945   0.003985660308857164   -0.04260098775604597
-1.9053182876389945   0.003985660308857164   -0.04260098775604597
-1.9053182876389945   0.003985660308857164   -0.04260098775604597
-1.9053182876389945   0.003985660308857164   -0.04260098775604597
-2.212393643850297   0.016819173663031983   0.02774561518376062
-2.212393643850297   0.016819173663031983   0.02774561518376062
-2.212393643850297   0.016819173663031983   0.02774561518376062
-2.212393643850297   0.016819173663031983   0.02774561518376062
-1.8469753190245695   0.1506630007079674   0.10243651491699854
-1.8469753190245695   0.1506630007079674   0.10243651491699854
-1.8469753190245695   0.1506630007079674   0.10243651491699854
-1.8469753190245695   0.1506630007079674   0.10243651491699854
-2.7596268098744474   -0.16956677225608835   -0.0560546283453207
-2.7596268098744474   -0.16956677225608835   -0.0560546283453207
-2.7596268098744474   -0.16956677225608835   -0.0560546283453207
-2.7596268098744474   -0.16956677225608835   -0.0560546283453207
-2.79484983677348   -0.0868985802745258   0.09250044498190779
-2.79484983677348   -0.0868985802745258   0.09250044498190779
-2.79484983677348   -0.0868985802745258   0.09250044498190779
-2.79484983677348   -0.0868985802745258   0.09250044498190779
-1.953482550009421   -0.04894574046130429   -0.03766231706895451
-1.953482550009421   -0.04894574046130429   -0.03766231706895451
-1.953482550009421   -0.04894574046130429   -0.03766231706895451
-1.953482550009421   -0.04894574046130429   -0.03766231706895451
-2.23965981603155   -0.010366893090391072   0.01544426445683389
-2.23965981603155   -0.010366893090391072   0.01544426445683389
-2.23965981603155   -0.010366893090391072   0.01544426445683389
-2.23965981603155   -0.010366893090391072   0.01544426445683389
0.8198762407146665   0.04877032807522044   -0.1000161019434435
0.8198762407146665   0.04877032807522044   -0.1000161019434435
0.8198762407146665   0.04877032807522044   -0.1000161019434435
0.8198762407146665   0.04877032807522044   -0.1000161019434435
0.2365237613680204   0.060397796326063534   0.04799392983936719
0.2365237613680204   0.060397796326063534   0.04799392983936719
0.2365237613680204   0.060397796326063534   0.04799392983936719
0.2365237613680204   0.060397796326063534   0.04799392983936719
0.1433306654338252   -0.12161507691119713   -0.0881472013793908
0.1433306654338252   -0.12161507691119713   -0.0881472013793908
0.1433306654338252   -0.12161507691119713   -0.0881472013793908
0.1433306654338252   -0.12161507691119713   -0.0881472013793908
0.7968519055441038   0.14091246980003125   0.05775297284550951
0.7968519055441038   0.14091246980003125   0.05775297284550951
0.7968519055441038   0.14091246980003125   0.05775297284550951
0.7968519055441038   0.14091246980003125   0.05775297284550951
0.46991055201995224   0.023460304627383258   -0.010929849772984019
0.46991055201995224   0.023460304627383258   -0.010929849772984019
0.46991055201995224   0.023460304627383258   -0.010929849772984019
0.46991055201995224   0.023460304627383258   -0.010929849772984019
0.7381226767061869   -0.0033528122413807593   -0.09162788930267063
0.7381226767061869   -0.0033528122413807593   -0.09162788930267063
0.7381226767061869   -0.0033528122413807593   -0.09162788930267063
0.7381226767061869   -0.0033528122413807593   -0.09162788930267063
0.20022601543508126   0.02081632629355292   0.053898145422140484
0.20022601543508126   0.02081632629355292   0.053898145422140484
0.20022601543508126   0.02081632629355292   0.053898145422140484
0.20022601543508126   0.02081632629355292   0.053898145422140484
0.10812765278915365   -0.13892561935625639   -0.0748043491778661
0.10812765278915365   -0.13892561935625639   -0.0748043491778661
0.10812765278915365   -0.13892561935625639   -0.0748043491778661
0.10812765278915365   -0.13892561935625639   -0.0748043491778661
0.7335793801492408   0.1170171434186088   0.07410655015368398
0.7335793801492408   0.1170171434186088   0.07410655015368398
0.7335793801492408   0.1170171434186088   0.07410655015368398
0.7335793801492408   0.1170171434186088   0.07410655015368398
0.4255524243943274   -0.0035435434974731977   -0.028503226829071592
0.4255524243943274   -0.0035435434974731977   -0.028503226829071592
0.4255524243943274   -0.0035435434974731977   -0.028503226829071592
0.4255524243943274   -0.0035435434974731977   -0.028503226829071592
0.6752094481216759   -0.025577986472738845   -0.07514798009280066
0.6752094481216759   -0.025577986472738845   -0.07514798009280066
0.6752094481216759   -0.025577986472738845   -0.07514798009280066
0.6752094481216759   -0.025577986472738845   -0.07514798009280066
0.16404869852571913   0.0012206242440909731   0.06465463590461662
0.16404869852571913   0.0012206242440909731   0.06465463590461662
0.16404869852571913   0.0012206242440909731   0.06465463590461662
0.16404869852571913   0.0012206242440909731   0.06465463590461662
0.0766335424667788   -0.15997159048321002   -0.06227667969760756
0.0766335424667788   -0.15997159048321002   -0.06227667969760756
0.0766335424667788   -0.15997159048321002   -0.06227667969760756
0.0766335424667788   -0.15997159048321002   -0.06227667969760756
0.6552772276320458   0.0786787963128501   0.08220671514826594
0.6552772276320458   0.0786787963128501   0.08220671514826594
0.6552772276320458   0.0786787963128501   0.08220671514826594
0.6552772276320458   0.0786787963128501   0.08220671514826594
0.3646740142437118   -0.02766317890180152   -0.049910831263860284
0.3646740142437118   -0.02766317890180152   -0.049910831263860284
0.3646740142437118   -0.02766317890180152   -0.049910831263860284
0.3646740142437118   -0.02766317890180152   -0.049910831263860284
0.2269099007731583   0.0895256351003359   -0.029203211909217583
0.2269099007731583   0.0895256351003359   -0.029203211909217583
0.2269099007731583   0.0895256351003359   -0.029203211909217583
0.2269099007731583   0.0895256351003359   -0.029203211909217583
-0.3378552950786084   0.029322285751949714   0.011778893558243839
-0.3378552950786084   0.029322285751949714   0.011778893558243839
-0.3378552950786084   0.029322285751949714   0.011778893558243839
-0.3378552950786084   0.029322285751949714   0.011778893558243839
-0.3978669844573414   -0.07785800833481474   -0.05136914830874291
-0.3978669844573414   -0.07785800833481474   -0.05136914830874291
-0.3978669844573414   -0.07785800833481474   -0.05136914830874291
-0.3978669844573414   -0.07785800833481474   -0.05136914830874291
0.21842579355426156   0.11118215441682561   0.054531207894769375
0.21842579355426156   0.11118215441682561   0.054531207894769375
0.21842579355426156   0.11118215441682561   0.054531207894769375
0.21842579355426156   0.11118215441682561   0.054531207894769375
-0.0745444946050667   0.03644725922671074   0.00912856211854016
-0.0745444946050667   0.03644725922671074   0.00912856211854016
-0.0745444946050667   0.03644725922671074   0.00912856211854016
-0.0745444946050667   0.03644725922671074   0.00912856211854016
0.19013248520047968   0.04572089947252932   -0.021474078929843758
0.19013248520047968   0.04572089947252932   -0.021474078929843758
0.19013248520047968   0.04572089947252932   -0.021474078929843758
0.19013248520047968   0.04572089947252932   -0.021474078929843758
-0.37113011622481057   -0.013953193511769518   0.018410378030865954
-0.37113011622481057   -0.013953193511769518   0.018410378030865954
-0.37113011622481057   -0.013953193511769518   0.018410378030865954
-0.37113011622481057   -0.013953193511769518   0.018410378030865954
-0.4293650252086814   -0.11307054073325913   -0.04017828713327252
-0.4293650252086814   -0.11307054073325913   -0.04017828713327252
-0.4293650252086814   -0.11307054073325913   -0.04017828713327252
-0.4293650252086814   -0.11307054073325913   -0.04017828713327252
0.17709716602898393   0.07167373948568276   0.0594438581793489
0.17709716602898393   0.07167373948568276   0.0594438581793489
0.17709716602898393   0.07167373948568276   0.0594438581793489
0.17709716602898393   0.07167373948568276   0.0594438581793489
-0.1134279190710358   -0.0014687820655929218   -0.009032923251366128
-0.1134279190710358   -0.0014687820655929218   -0.009032923251366128
-0.1134279190710358   -0.0014687820655929218   -0.009032923251366128
-0.1134279190710358   -0.0014687820655929218   -0.009032923251366128
0.1496454548957564   0.007949184261717632   -0.014090142262826514
0.1496454548957564   0.007949184261717632   -0.014090142262826514
0.1496454548957564   0.007949184261717632   -0.014090142262826514
0.1496454548957564   0.007949184261717632   -0.014090142262826514
-0.4039268479617537   -0.051359519395593044   0.02530157776370761
-0.4039268479617537   -0.051359519395593044   0.02530157776370761
-0.4039268479617537   -0.051359519395593044   0.02530157776370761
-0.4039268479617537   -0.051359519395593044   0.02530157776370761
-0.4606266592968986   -0.1480748972770996   -0.0300617493362325
-0.4606266592968986   -0.1480748972770996   -0.0300617493362325
-0.4606266592968986   -0.1480748972770996   -0.0300617493362325
-0.4606266592968986   -0.1480748972770996   -0.0300617493362325
0.14091318270646816   0.03280543593806707   0.06634449507956318
0.14091318270646816   0.03280543593806707   0.06634449507956318
0.14091318270646816   0.03280543593806707   0.06634449507956318
0.14091318270646816   0.03280543593806707   0.06634449507956318
-0.1471436904146933   -0.03550872510796136   -0.02620842712390926
-0.1471436904146933   -0.03550872510796136   -0.02620842712390926
-0.1471436904146933   -0.03550872510796136   -0.02620842712390926
-0.1471436904146933   -0.03550872510796136   -0.02620842712390926
-0.32058495575278584   0.1231616807001461   0.004291195239160377
-0.32058495575278584   0.1231616807001461   0.004291195239160377
-0.32058495575278584   0.1231616807001461   0.004291195239160377
-0.32058495575278584   0.1231616807001461   0.004291195239160377
-0.9047790860776647   -0.010383988948094641   -0.02476750014894427
-0.9047790860776647   -0.010383988948094641   -0.02476750014894427
-0.9047790860776647   -0.010383988948094641   -0.02476750014894427
-0.9047790860776647   -0.010383988948094641   -0.02476750014894427
-0.933122507452273   -0.037748350664043   -0.014751953874537142
-0.933122507452273   -0.037748350664043   -0.014751953874537142
-0.933122507452273   -0.037748350664043   -0.014751953874537142
-0.933122507452273   -0.037748350664043   -0.014751953874537142
-0.3539240149166902   0.0731558321828811   0.017331858876813766
-0.3539240149166902   0.0731558321828811   0.017331858876813766
-0.3539240149166902   0.0731558321828811   0.017331858876813766
-0.3539240149166902   0.0731558321828811   0.017331858876813766
-0.6266242587996204   0.036288204750064446   0.009493274131544091
-0.6266242587996204   0.036288204750064446   0.009493274131544091
-0.6266242587996204   0.036288204750064446   0.009493274131544091
-0.6266242587996204   0.036288204750064446   0.009493274131544091
-0.3522085680161345   0.08433151092548964   0.014733414636987387
-0.3522085680161345   0.08433151092548964   0.014733414636987387
-0.3522085680161345   0.08433151092548964   0.014733414636987387
-0.3522085680161345   0.08433151092548964   0.014733414636987387
-0.9361983684382451   -0.05028444349205827   -0.017595165976389597
-0.9361983684382451   -0.05028444349205827   -0.017595165976389597
-0.9361983684382451   -0.05028444349205827   -0.017595165976389597
-0.9361983684382451   -0.05028444349205827   -0.017595165976389597
-0.9644782021680945   -0.07618886618769116   -0.0046027582891314395
-0.9644782021680945   -0.07618886618769116   -0.0046027582891314395
-0.9644782021680945   -0.07618886618769116   -0.0046027582891314395
-0.9644782021680945   -0.07618886618769116   -0.0046027582891314395
-0.3871759154430233   0.03308738672681831   0.024609334234940588
-0.3871759154430233   0.03308738672681831   0.024609334234940588
-0.3871759154430233   0.03308738672681831   0.024609334234940588
-0.3871759154430233   0.03308738672681831   0.024609334234940588
-0.6593449902484716   -0.00020612394729013772   -0.006798483251454358
-0.6593449902484716   -0.00020612394729013772   -0.006798483251454358
-0.6593449902484716   -0.00020612394729013772   -0.006798483251454358
-0.6593449902484716   -0.00020612394729013772   -0.006798483251454358
-0.38487643073866273   0.04540905721061286   0.023785087272956792
-0.38487643073866273   0.04540905721061286   0.023785087272956792
-0.38487643073866273   0.04540905721061286   0.023785087272956792
-0.38487643073866273   0.04540905721061286   0.023785087272956792
-0.968712716054915   -0.09044556585394571   -0.011518628056987685
-0.968712716054915   -0.09044556585394571   -0.011518628056987685
-0.968712716054915   -0.09044556585394571   -0.011518628056987685
-0.968712716054915   -0.09044556585394571   -0.011518628056987685
-0.9952417640828951   -0.11331307695454286   0.005212113028837544
-0.9952417640828951   -0.11331307695454286   0.005212113028837544
-0.9952417640828951   -0.11331307695454286   0.005212113028837544
-0.9952417640828951   -0.11331307695454286   0.005212113028837544
-0.4198465972217317   -0.005521556690279414   0.03128522045277435
-0.4198465972217317   -0.005521556690279414   0.03128522045277435
-0.4198465972217317   -0.005521556690279414   0.03128522045277435
-0.4198465972217317   -0.005521556690279414   0.03128522045277435
-0.6937643644728786   -0.03679286346356471   -0.02448275852801832
-0.6937643644728786   -0.03679286346356471   -0.02448275852801832
-0.6937643644728786   -0.03679286346356471   -0.02448275852801832
-0.6937643644728786   -0.03679286346356471   -0.02448275852801832
-0.8590207684990459   0.15501836228928134   0.038621736506773155
-0.8590207684990459   0.15501836228928134   0.038621736506773155
-0.8590207684990459   0.15501836228928134   0.038621736506773155
-0.8590207684990459   0.15501836228928134   0.038621736506773155
-1.4589263587381878   -0.042855380199147586   -0.05667377390367012
-1.4589263587381878   -0.042855380199147586   -0.05667377390367012
-1.4589263587381878   -0.042855380199147586   -0.05667377390367012
-1.4589263587381878   -0.042855380199147586   -0.05667377390367012
-1.4617451515720716   -0.002275197213373492   0.024092256696847128
-1.4617451515720716   -0.002275197213373492   0.024092256696847128
-1.4617451515720716   -0.002275197213373492   0.024092256696847128
-1.4617451515720716   -0.002275197213373492   0.024092256696847128
-0.9187054589139343   0.03755076256640452   -0.017965824413298366
-0.9187054589139343   0.03755076256640452   -0.017965824413298366
-0.9187054589139343   0.03755076256640452   -0.017965824413298366
-0.9187054589139343   0.03755076256640452   -0.017965824413298366
-1.1686640635441712   0.036807621262722745   0.012551866386692506
-1.1686640635441712   0.036807621262722745   0.012551866386692506
-1.1686640635441712   0.036807621262722745   0.012551866386692506
-1.1686640635441712   0.036807621262722745   0.012551866386692506
-0.8893621525095919   0.11720270441226505   0.04909876576256032
-0.8893621525095919   0.11720270441226505   0.04909876576256032
-0.8893621525095919   0.11720270441226505   0.04909876576256032
-0.8893621525095919   0.11720270441226505   0.04909876576256032
-1.493705355016542   -0.08454403609936098   -0.05343992163951792
-1.493705355016542   -0.08454403609936098   -0.05343992163951792
-1.493705355016542   -0.08454403609936098   -0.05343992163951792
-1.493705355016542   -0.08454403609936098   -0.05343992163951792
-1.5003360455918937   -0.04016152121061406   0.029566024349480732
-1.5003360455918937   -0.04016152121061406   0.029566024349480732
-1.5003360455918937   -0.04016152121061406   0.029566024349480732
-1.5003360455918937   -0.04016152121061406   0.029566024349480732
-0.9502259791466929   0.0006777417081978709   -0.01020825107802794
-0.9502259791466929   0.0006777417081978709   -0.01020825107802794
-0.9502259791466929   0.0006777417081978709   -0.01020825107802794
-0.9502259791466929   0.0006777417081978709   -0.01020825107802794
-1.1965171229322555   0.002771041034602406   -0.004536476208776466
-1.1965171229322555   0.002771041034602406   -0.004536476208776466
-1.1965171229322555   0.002771041034602406   -0.004536476208776466
-1.1965171229322555   0.002771041034602406   -0.004536476208776466
-0.920101095782424   0.08182587114307477   0.05926803630845527
-0.920101095782424   0.08182587114307477   0.05926803630845527
-0.920101095782424   0.08182587114307477   0.05926803630845527
-0.920101095782424   0.08182587114307477   0.05926803630845527
-1.5320909026342309   -0.12293962432356184   -0.04643015774928854
-1.5320909026342309   -0.12293962432356184   -0.04643015774928854
-1.5320909026342309   -0.12293962432356184   -0.04643015774928854
-1.5320909026342309   -0.12293962432356184   -0.04643015774928854
-1.5336957331141827   -0.07961111350580025   0.04016197170119547
-1.5336957331141827   -0.07961111350580025   0.04016197170119547
-1.5336957331141827   -0.07961111350580025   0.04016197170119547
-1.5336957331141827   -0.07961111350580025   0.04016197170119547
-0.9821350971836967   -0.03871136526481786   -0.003856264164918806
-0.9821350971836967   -0.03871136526481786   -0.003856264164918806
-0.9821350971836967   -0.03871136526481786   -0.003856264164918806
-0.9821350971836967   -0.03871136526481786   -0.003856264164918806
-1.2378092810281873   -0.0342385332198582   -0.023130775299383316
-1.2378092810281873   -0.0342385332198582   -0.023130775299383316
-1.2378092810281873   -0.0342385332198582   -0.023130775299383316
-1.2378092810281873   -0.0342385332198582   -0.023130775299383316
-1.3948288486679845   0.15252319960657307   0.06843519664165461
-1.3948288486679845   0.15252319960657307   0.06843519664165461
-1.3948288486679845   0.15252319960657307   0.06843519664165461
-1.3948288486679845   0.15252319960657307   0.06843519664165461
-1.9609761936372734   -0.09001129805062624   -0.08636022061948202
-1.9609761936372734   -0.09001129805062624   -0.08636022061948202
-1.9609761936372734   -0.09001129805062624   -0.08636022061948202
-1.9609761936372734   -0.09001129805062624   -0.08636022061948202
-1.9754681583511502   0.026108564495826492   0.0719543931618108
-1.9754681583511502   0.026108564495826492   0.0719543931618108
-1.9754681583511502   0.026108564495826492   0.0719543931618108
-1.9754681583511502   0.026108564495826492   0.0719543931618108
-1.4776411789215882   -0.0048478461363360426   -0.05281523112778791
-1.4776411789215882   -0.0048478461363360426   -0.05281523112778791
-1.4776411789215882   -0.0048478461363360426   -0.05281523112778791
-1.4776411789215882   -0.0048478461363360426   -0.05281523112778791
-1.629153621307622   0.036816482616345125   0.03927238643207863
-1.629153621307622   0.036816482616345125   0.03927238643207863
-1.629153621307622   0.036816482616345125   0.03927238643207863
-1.629153621307622   0.036816482616345125   0.03927238643207863
-1.422210388508716   0.13855617899333217   0.08093469580690472
-1.422210388508716   0.13855617899333217   0.08093469580690472
-1.422210388508716   0.13855617899333217   0.08093469580690472
-1.422210388508716   0.13855617899333217   0.08093469580690472
-2.0336801017493302   -0.12007661361915178   -0.07292014571406277
-2.0336801017493302   -0.12007661361915178   -0.07292014571406277
-2.0336801017493302   -0.12007661361915178   -0.07292014571406277
-2.0336801017493302   -0.12007661361915178   -0.07292014571406277
-2.0355247416285183   0.004849390942070431   0.09192411939948274
-2.0355247416285183   0.004849390942070431   0.09192411939948274
-2.0355247416285183   0.004849390942070431   0.09192411939948274
-2.0355247416285183   0.004849390942070431   0.09192411939948274
-1.5123715178390371   -0.0254237592606138   -0.04534909883626789
-1.5123715178390371   -0.0254237592606138   -0.04534909883626789
-1.5123715178390371   -0.0254237592606138   -0.04534909883626789
-1.5123715178390371   -0.0254237592606138   -0.04534909883626789
-1.7057292437852891   0.011646437273853227   0.013917177494517569
-1.7057292437852891   0.011646437273853227   0.013917177494517569
-1.7057292437852891   0.011646437273853227   0.013917177494517569
-1.7057292437852891   0.011646437273853227   0.013917177494517569
-1.4545763690182183   0.12191234898806624   0.09629053701916167
-1.4545763690182183   0.12191234898806624   0.09629053701916167
-1.4545763690182183   0.12191234898806624   0.09629053701916167
-1.4545763690182183   0.12191234898806624   0.09629053701916167
-2.0959596440678254   -0.14512647092507763   -0.06027453092986003
-2.0959596440678254   -0.14512647092507763   -0.06027453092986003
-2.0959596440678254   -0.14512647092507763   -0.06027453092986003
-2.0959596440678254   -0.14512647092507763   -0.06027453092986003
-2.1186151881514372   -0.05544541102689238   0.09497196824512061
-2.1186151881514372   -0.05544541102689238   0.09497196824512061
-2.1186151881514372   -0.05544541102689238   0.09497196824512061
-2.1186151881514372   -0.05544541102689238   0.09497196824512061
-1.5481965561350808   -0.07240824443698352   -0.03954501247214287
-1.5481965561350808   -0.07240824443698352   -0.03954501247214287
-1.5481965561350808   -0.07240824443698352   -0.03954501247214287
-1.5481965561350808   -0.07240824443698352   -0.03954501247214287
-1.7309702158148288   -0.015064852314584154   -0.001224831342339583
-1.7309702158148288   -0.015064852314584154   -0.001224831342339583
-1.7309702158148288   -0.015064852314584154   -0.001224831342339583
-1.7309702158148288   -0.015064852314584154   -0.001224831342339583
0.13965777438967572   0.011512649472338175   -0.09956581745091492
0.13965777438967572   0.011512649472338175   -0.09956581745091492
0.13965777438967572   0.011512649472338175   -0.09956581745091492
0.13965777438967572   0.011512649472338175   -0.09956581745091492
-0.166910962837919   0.07485005428419778   0.05103648278103259
-0.166910962837919   0.07485005428419778   0.05103648278103259
-0.166910962837919   0.07485005428419778   0.05103648278103259
-0.166910962837919   0.07485005428419778   0.05103648278103259
-0.24803977051562823   -0.09564179910576223   -0.08012669562372576
-0.24803977051562823   -0.09564179910576223   -0.08012669562372576
-0.24803977051562823   -0.09564179910576223   -0.08012669562372576
-0.24803977051562823   -0.09564179910576223   -0.08012669562372576
0.1273641637248827   0.10479938930251675   0.0627297118502444
0.1273641637248827   0.10479938930251675   0.0627297118502444
0.1273641637248827   0.10479938930251675   0.0627297118502444
0.1273641637248827   0.10479938930251675   0.0627297118502444
-0.04004975690603593   0.0229871698549445   0.008696482205192093
-0.04004975690603593   0.0229871698549445   0.008696482205192093
-0.04004975690603593   0.0229871698549445   0.008696482205192093
-0.04004975690603593   0.0229871698549445   0.008696482205192093
0.06928114264987349   -0.03394123182697811   -0.08894477239530689
0.06928114264987349   -0.03394123182697811   -0.08894477239530689
0.06928114264987349   -0.03394123182697811   -0.08894477239530689
0.06928114264987349   -0.03394123182697811   -0.08894477239530689
-0.19340511241062364   0.039650459053728014   0.05775433674180705
-0.19340511241062364   0.039650459053728014   0.05775433674180705
-0.19340511241062364   0.039650459053728014   0.05775433674180705
-0.19340511241062364   0.039650459053728014   0.05775433674180705
-0.27473583713748206   -0.11304032097885533   -0.0678655545468523
-0.27473583713748206   -0.11304032097885533   -0.0678655545468523
-0.27473583713748206   -0.11304032097885533   -0.0678655545468523
-0.27473583713748206   -0.11304032097885533   -0.0678655545468523
0.07231762178855204   0.08114359869568803   0.08596643374255503
0.07231762178855204   0.08114359869568803   0.08596643374255503
0.07231762178855204   0.08114359869568803   0.08596643374255503
0.07231762178855204   0.08114359869568803   0.08596643374255503
-0.08360606068919407   -0.003070606011561828   -0.01143338707074905
-0.08360606068919407   -0.003070606011561828   -0.01143338707074905
-0.08360606068919407   -0.003070606011561828   -0.01143338707074905
-0.08360606068919407   -0.003070606011561828   -0.01143338707074905
0.012910535811364398   -0.05660251247437882   -0.07332288497331632
0.012910535811364398   -0.05660251247437882   -0.07332288497331632
0.012910535811364398   -0.05660251247437882   -0.07332288497331632
0.012910535811364398   -0.05660251247437882   -0.07332288497331632
-0.2201070263666274   0.019927514984878457   0.07231066334368658
-0.2201070263666274   0.019927514984878457   0.07231066334368658
-0.2201070263666274   0.019927514984878457   0.07231066334368658
-0.2201070263666274   0.019927514984878457   0.07231066334368658
-0.2991914029488792   -0.13989976529251247   -0.056217462297621826
-0.2991914029488792   -0.13989976529251247   -0.056217462297621826
-0.2991914029488792   -0.13989976529251247   -0.056217462297621826
-0.2991914029488792   -0.13989976529251247   -0.056217462297621826
-0.004125451822833717   0.03147952740249151   0.09794623799003778
-0.004125451822833717   0.03147952740249151   0.09794623799003778
-0.004125451822833717   0.03147952740249151   0.09794623799003778
-0.004125451822833717   0.03147952740249151   0.09794623799003778
-0.13012448266717777   -0.029356136808583264   -0.03459507299714955
-0.13012448266717777   -0.029356136808583264   -0.03459507299714955
-0.13012448266717777   -0.029356136808583264   -0.03459507299714955
-0.13012448266717777   -0.029356136808583264   -0.03459507299714955
-0.190334971290916   0.04851989229823019   -0.03975339749798484
-0.190334971290916   0.04851989229823019   -0.03975339749798484
-0.190334971290916   0.04851989229823019   -0.03975339749798484
-0.190334971290916   0.04851989229823019   -0.03975339749798484
-0.4780000631393091   0.02008278160910751   0.013377916324492478
-0.4780000631393091   0.02008278160910751   0.013377916324492478
-0.4780000631393091   0.02008278160910751   0.013377916324492478
-0.4780000631393091   0.02008278160910751   0.013377916324492478
-0.5197876260363322   -0.05568872608020563   -0.041609774999731605
-0.5197876260363322   -0.05568872608020563   -0.041609774999731605
-0.5197876260363322   -0.05568872608020563   -0.041609774999731605
-0.5197876260363322   -0.05568872608020563   -0.041609774999731605
-0.19556432412451627   0.04689411463266519   0.03971462259340662
-0.19556432412451627   0.04689411463266519   0.03971462259340662
-0.19556432412451627   0.04689411463266519   0.03971462259340662
-0.19556432412451627   0.04689411463266519   0.03971462259340662
-0.3451902422132881   0.013994728677666213   0.007411820182987562
-0.3451902422132881   0.013994728677666213   0.007411820182987562
-0.3451902422132881   0.013994728677666213   0.007411820182987562
-0.3451902422132881   0.013994728677666213   0.007411820182987562
-0.21812884863208382   0.006435172781864638   -0.032649058093628655
-0.21812884863208382   0.006435172781864638   -0.032649058093628655
-0.21812884863208382   0.006435172781864638   -0.032649058093628655
-0.21812884863208382   0.006435172781864638   -0.032649058093628655
-0.5000438323963656   -0.018050515097007017   0.019470982216894934
-0.5000438323963656   -0.018050515097007017   0.019470982216894934
-0.5000438323963656   -0.018050515097007017   0.019470982216894934
-0.5000438323963656   -0.018050515097007017   0.019470982216894934
-0.540555678846977   -0.08987752112877279   -0.03065960001696797
-0.540555678846977   -0.08987752112877279   -0.03065960001696797
-0.540555678846977   -0.08987752112877279   -0.03065960001696797
-0.540555678846977   -0.08987752112877279   -0.03065960001696797
-0.22777538239038372   0.009121839395561639   0.04477455881422175
-0.22777538239038372   0.009121839395561639   0.04477455881422175
-0.22777538239038372   0.009121839395561639   0.04477455881422175
-0.22777538239038372   0.009121839395561639   0.04477455881422175
-0.3714294908126092   -0.02027602025288624   -0.009767494884671024
-0.3714294908126092   -0.02027602025288624   -0.009767494884671024
-0.3714294908126092   -0.02027602025288624   -0.009767494884671024
-0.3714294908126092   -0.02027602025288624   -0.009767494884671024
-0.24951453948185479   -0.030414375584880613   -0.02438501166269057
-0.24951453948185479   -0.030414375584880613   -0.02438501166269057
-0.24951453948185479   -0.030414375584880613   -0.02438501166269057
-0.24951453948185479   -0.030414375584880613   -0.02438501166269057
-0.5218421966403709   -0.05336698103318523   0.0263972709204746
-0.5218421966403709   -0.05336698103318523   0.0263972709204746
-0.5218421966403709   -0.05336698103318523   0.0263972709204746
-0.5218421966403709   -0.05336698103318523   0.0263972709204746
-0.561460737359644   -0.1251301107691858   -0.020959318390588975
-0.561460737359644   -0.1251301107691858   -0.020959318390588975
-0.561460737359644   -0.1251301107691858   -0.020959318390588975
-0.561460737359644   -0.1251301107691858   -0.020959318390588975
-0.25470380938291015   -0.02923755291978612   0.05555829315949712
-0.25470380938291015   -0.02923755291978612   0.05555829315949712
-0.25470380938291015   -0.02923755291978612   0.05555829315949712
-0.25470380938291015   -0.02923755291978612   0.05555829315949712
-0.3976868414047692   -0.054257754473308   -0.027261526639950358
-0.3976868414047692   -0.054257754473308   -0.027261526639950358
-0.3976868414047692   -0.054257754473308   -0.027261526639950358
-0.3976868414047692   -0.054257754473308   -0.027261526639950358
-0.46937721866203164   0.08080405719068193   -0.004229136870694358
-0.46937721866203164   0.08080405719068193   -0.004229136870694358
-0.46937721866203164   0.08080405719068193   -0.004229136870694358
-0.46937721866203164   0.08080405719068193   -0.004229136870694358
-0.7865600379250897   -0.02679083592556028   -0.022132822015522392
-0.7865600379250897   -0.02679083592556028   -0.022132822015522392
-0.7865600379250897   -0.02679083592556028   -0.022132822015522392
-0.7865600379250897   -0.02679083592556028   -0.022132822015522392
-0.7947681300251542   -0.019392775879103152   -0.004567066324643501
-0.7947681300251542   -0.019392775879103152   -0.004567066324643501
-0.7947681300251542   -0.019392775879103152   -0.004567066324643501
-0.7947681300251542   -0.019392775879103152   -0.004567066324643501
-0.49829242159171955   0.004062194025774402   0.0061153271173437565
-0.49829242159171955   0.004062194025774402   0.0061153271173437565
-0.49829242159171955   0.004062194025774402   0.0061153271173437565
-0.49829242159171955   0.004062194025774402   0.0061153271173437565
-0.6359279520915705   0.009065770559135794   0.0024422991715905493
-0.6359279520915705   0.009065770559135794   0.0024422991715905493
-0.6359279520915705   0.009065770559135794   0.0024422991715905493
-0.6359279520915705   0.009065770559135794   0.0024422991715905493
-0.4903917777534263   0.04361004658924007   0.006070693745344732
-0.4903917777534263   0.04361004658924007   0.006070693745344732
-0.4903917777534263   0.04361004658924007   0.006070693745344732
-0.4903917777534263   0.04361004658924007   0.006070693745344732
-0.8053784878692397   -0.0616503424483609   -0.015361288975812785
-0.8053784878692397   -0.0616503424483609   -0.015361288975812785
-0.8053784878692397   -0.0616503424483609   -0.015361288975812785
-0.8053784878692397   -0.0616503424483609   -0.015361288975812785
-0.8142319852399931   -0.05611947313251758   0.005631104735169347
-0.8142319852399931   -0.05611947313251758   0.005631104735169347
-0.8142319852399931   -0.05611947313251758   0.005631104735169347
-0.8142319852399931   -0.05611947313251758   0.005631104735169347
-0.5203314689787889   -0.0320330247705103   0.012616952965709628
-0.5203314689787889   -0.0320330247705103   0.012616952965709628
-0.5203314689787889   -0.0320330247705103   0.012616952965709628
-0.5203314689787889   -0.0320330247705103   0.012616952965709628
-0.6570409539895865   -0.024335131143095087   -0.013337966758884458
-0.6570409539895865   -0.024335131143095087   -0.013337966758884458
-0.6570409539895865   -0.024335131143095087   -0.013337966758884458
-0.6570409539895865   -0.024335131143095087   -0.013337966758884458
-0.5121759622965844   0.006198169025302   0.015163292580920095
-0.5121759622965844   0.006198169025302   0.015163292580920095
-0.5121759622965844   0.006198169025302   0.015163292580920095
-0.5121759622965844   0.006198169025302   0.015163292580920095
-0.8256528660559226   -0.09761604106206383   -0.009976731414924316
-0.8256528660559226   -0.09761604106206383   -0.009976731414924316
-0.8256528660559226   -0.09761604106206383   -0.009976731414924316
-0.8256528660559226   -0.09761604106206383   -0.009976731414924316
-0.8331926796749195   -0.0913676237432413   0.015400967641152712
-0.8331926796749195   -0.0913676237432413   0.015400967641152712
-0.8331926796749195   -0.0913676237432413   0.015400967641152712
-0.8331926796749195   -0.0913676237432413   0.015400967641152712
-0.5414802482262231   -0.06610836691884983   0.019921383426171224
-0.5414802482262231   -0.06610836691884983   0.019921383426171224
-0.5414802482262231   -0.06610836691884983   0.019921383426171224
-0.5414802482262231   -0.06610836691884983   0.019921383426171224
-0.6797605982576187   -0.05795271543941366   -0.03048308591244983
-0.6797605982576187   -0.05795271543941366   -0.03048308591244983
-0.6797605982576187   -0.05795271543941366   -0.03048308591244983
-0.6797605982576187   -0.05795271543941366   -0.03048308591244983
-0.7468254067116904   0.11737455384338288   0.032374944282546475
-0.7468254067116904   0.11737455384338288   0.032374944282546475
-0.7468254067116904   0.11737455384338288   0.032374944282546475
-0.7468254067116904   0.11737455384338288   0.032374944282546475
-1.0826464091333388   -0.04440586388529699   -0.04971524250559181
-1.0826464091333388   -0.04440586388529699   -0.04971524250559181
-1.0826464091333388   -0.04440586388529699   -0.04971524250559181
-1.0826464091333388   -0.04440586388529699   -0.04971524250559181
-1.0679711420302374   0.018029645751409917   0.03369427462803178
-1.0679711420302374   0.018029645751409917   0.03369427462803178
-1.0679711420302374   0.018029645751409917   0.03369427462803178
-1.0679711420302374   0.018029645751409917   0.03369427462803178
-0.7976248378488413   -0.01604647208918486   -0.02219690923299765
-0.7976248378488413   -0.01604647208918486   -0.02219690923299765
-0.7976248378488413   -0.01604647208918486   -0.02219690923299765
-0.7976248378488413   -0.01604647208918486   -0.02219690923299765
-0.9206167095349829   0.018886001555923404   0.004330901091469844
-0.9206167095349829   0.018886001555923404   0.004330901091469844
-0.9206167095349829   0.018886001555923404   0.004330901091469844
-0.9206167095349829   0.018886001555923404   0.004330901091469844
-0.7653661751933569   0.08035147548686661   0.042698456468373405
-0.7653661751933569   0.08035147548686661   0.042698456468373405
-0.7653661751933569   0.08035147548686661   0.042698456468373405
-0.7653661751933569   0.08035147548686661   0.042698456468373405
-1.1041854328297023   -0.08232392996861682   -0.04702360364929668
-1.1041854328297023   -0.08232392996861682   -0.04702360364929668
-1.1041854328297023   -0.08232392996861682   -0.04702360364929668
-1.1041854328297023   -0.08232392996861682   -0.04702360364929668
-1.0940753625848791   -0.018095320781767038   0.03977581991033386
-1.0940753625848791   -0.018095320781767038   0.03977581991033386
-1.0940753625848791   -0.018095320781767038   0.03977581991033386
-1.0940753625848791   -0.018095320781767038   0.03977581991033386
-0.8169220553557877   -0.04883232082739239   -0.015106398148929057
-0.8169220553557877   -0.04883232082739239   -0.015106398148929057
-0.8169220553557877   -0.04883232082739239   -0.015106398148929057
-0.8169220553557877   -0.04883232082739239   -0.015106398148929057
-0.9383602523482905   -0.01330665473251888   -0.012776469388062713
-0.9383602523482905   -0.01330665473251888   -0.012776469388062713
-0.9383602523482905   -0.01330665473251888   -0.012776469388062713
-0.9383602523482905   -0.01330665473251888   -0.012776469388062713
-0.7842943417122703   0.046454741049118786   0.05274510819215417
-0.7842943417122703   0.046454741049118786   0.05274510819215417
-0.7842943417122703   0.046454741049118786   0.05274510819215417
-0.7842943417122703   0.046454741049118786   0.05274510819215417
-1.129826628206321   -0.11650593463619358   -0.040569894342463164
-1.129826628206321   -0.11650593463619358   -0.040569894342463164
-1.129826628206321   -0.11650593463619358   -0.040569894342463164
-1.129826628206321   -0.11650593463619358   -0.040569894342463164
-1.1153012151241024   -0.05444811989210954   0.0506260806390284
-1.1153012151241024   -0.05444811989210954   0.0506260806390284
-1.1153012151241024   -0.05444811989210954   0.0506260806390284
-1.1153012151241024   -0.05444811989210954   0.0506260806390284
-0.8362837307001761   -0.08236851258084854   -0.009053398647531574
-0.8362837307001761   -0.08236851258084854   -0.009053398647531574
-0.8362837307001761   -0.08236851258084854   -0.009053398647531574
-0.8362837307001761   -0.08236851258084854   -0.009053398647531574
-0.9650263578041722   -0.046085363345555685   -0.03028782576211935
-0.9650263578041722   -0.046085363345555685   -0.03028782576211935
-0.9650263578041722   -0.046085363345555685   -0.03028782576211935
-0.9650263578041722   -0.046085363345555685   -0.03028782576211935
-1.025597275760034   0.1271345347865376   0.06399002568909799
-1.025597275760034   0.1271345347865376   0.06399002568909799
-1.025597275760034   0.1271345347865376   0.06399002568909799
-1.025597275760034   0.1271345347865376   0.06399002568909799
-1.3172620245958815   -0.0656737277827503   -0.083428581509953
-1.3172620245958815   -0.0656737277827503   -0.083428581509953
-1.3172620245958815   -0.0656737277827503   -0.083428581509953
-1.3172620245958815   -0.0656737277827503   -0.083428581509953
-1.318211607798572   0.051708443276563876   0.07053664481369548
-1.318211607798572   0.051708443276563876   0.07053664481369548
-1.318211607798572   0.051708443276563876   0.07053664481369548
-1.318211607798572   0.051708443276563876   0.07053664481369548
-1.096065892413867   -0.037693220961737106   -0.05105661057698589
-1.096065892413867   -0.037693220961737106   -0.05105661057698589
-1.096065892413867   -0.037693220961737106   -0.05105661057698589
-1.096065892413867   -0.037693220961737106   -0.05105661057698589
-1.1412576309247455   0.030382892152929386   0.021866828559308965
-1.1412576309247455   0.030382892152929386   0.021866828559308965
-1.1412576309247455   0.030382892152929386   0.021866828559308965
-1.1412576309247455   0.030382892152929386   0.021866828559308965
-1.0416139755464724   0.10801882610323538   0.07549092669501525
-1.0416139755464724   0.10801882610323538   0.07549092669501525
-1.0416139755464724   0.10801882610323538   0.07549092669501525
-1.0416139755464724   0.10801882610323538   0.07549092669501525
-1.3767641940295243   -0.09810427315198156   -0.07241356991248983
-1.3767641940295243   -0.09810427315198156   -0.07241356991248983
-1.3767641940295243   -0.09810427315198156   -0.07241356991248983
-1.3767641940295243   -0.09810427315198156   -0.07241356991248983
-1.3657004980633622   0.03116508751163205   0.09092411524928642
-1.3657004980633622   0.03116508751163205   0.09092411524928642
-1.3657004980633622   0.03116508751163205   0.09092411524928642
-1.3657004980633622   0.03116508751163205   0.09092411524928642
-1.118670711446827   -0.05653364316847889   -0.04476260201269366
-1.118670711446827   -0.05653364316847889   -0.04476260201269366
-1.118670711446827   -0.05653364316847889   -0.04476260201269366
-1.118670711446827   -0.05653364316847889   -0.04476260201269366
-1.1976952077672554   0.0053780720841613006   -0.0018028556773261872
-1.1976952077672554   0.0053780720841613006   -0.0018028556773261872
-1.1976952077672554   0.0053780720841613006   -0.0018028556773261872
-1.1976952077672554   0.0053780720841613006   -0.0018028556773261872
-1.0619304272015702   0.09184609486929624   0.09055908117581521
-1.0619304272015702   0.09184609486929624   0.09055908117581521
-1.0619304272015702   0.09184609486929624   0.09055908117581521
-1.0619304272015702   0.09184609486929624   0.09055908117581521
-1.426630377481274   -0.12140424569879546   -0.06115594862982942
-1.426630377481274   -0.12140424569879546   -0.06115594862982942
-1.426630377481274   -0.12140424569879546   -0.06115594862982942
-1.426630377481274   -0.12140424569879546   -0.06115594862982942
-1.4359858394327312   -0.022820826839219155   0.09618135881432938
-1.4359858394327312   -0.022820826839219155   0.09618135881432938
-1.4359858394327312   -0.022820826839219155   0.09618135881432938
-1.4359858394327312   -0.022820826839219155   0.09618135881432938
-1.1413614258678602   -0.0954561883536266   -0.03866690461825762
-1.1413614258678602   -0.0954561883536266   -0.03866690461825762
-1.1413614258678602   -0.0954561883536266   -0.03866690461825762
-1.1413614258678602   -0.0954561883536266   -0.03866690461825762
-1.219504355534518   -0.019348884855289128   -0.018651347929441328
-1.219504355534518   -0.019348884855289128   -0.018651347929441328
-1.219504355534518   -0.019348884855289128   -0.018651347929441328
-1.219504355534518   -0.019348884855289128   -0.018651347929441328
-0.571742239064746   -0.037431027948969825   -0.10553765215797863
-0.571742239064746   -0.037431027948969825   -0.10553765215797863
-0.571742239064746   -0.037431027948969825   -0.10553765215797863
-0.571742239064746   -0.037431027948969825   -0.10553765215797863
-0.5612176931964022   0.0811356682285424   0.0475537350941055
-0.5612176931964022   0.0811356682285424   0.0475537350941055
-0.5612176931964022   0.0811356682285424   0.0475537350941055
-0.5612176931964022   0.0811356682285424   0.0475537350941055
-0.6307115047334478   -0.073646264635605   -0.07142288938203376
-0.6307115047334478   -0.073646264635605   -0.07142288938203376
-0.6307115047334478   -0.073646264635605   -0.07142288938203376
-0.6307115047334478   -0.073646264635605   -0.07142288938203376
-0.5832339067979242   0.04159096883943558   0.07166158190550923
-0.5832339067979242   0.04159096883943558   0.07166158190550923
-0.5832339067979242   0.04159096883943558   0.07166158190550923
-0.5832339067979242   0.04159096883943558   0.07166158190550923
-0.5572971574099571   0.013477291859033375   0.04850998322310168
-0.5572971574099571   0.013477291859033375   0.04850998322310168
-0.5572971574099571   0.013477291859033375   0.04850998322310168
-0.5572971574099571   0.013477291859033375   0.04850998322310168
-0.6393007955429022   -0.07874660293088698   -0.08833529004905073
-0.6393007955429022   -0.07874660293088698   -0.08833529004905073
-0.6393007955429022   -0.07874660293088698   -0.08833529004905073
-0.6393007955429022   -0.07874660293088698   -0.08833529004905073
-0.5816597383096073   0.03967618481359164   0.060513493287972696
-0.5816597383096073   0.03967618481359164   0.060513493287972696
-0.5816597383096073   0.03967618481359164   0.060513493287972696
-0.5816597383096073   0.03967618481359164   0.060513493287972696
-0.6514966893570321   -0.09288683788914984   -0.06037143803605021
-0.6514966893570321   -0.09288683788914984   -0.06037143803605021
-0.6514966893570321   -0.09288683788914984   -0.06037143803605021
-0.6514966893570321   -0.09288683788914984   -0.06037143803605021
-0.6371519233745598   0.015346246782486278   0.1329907486504617
-0.6371519233745598   0.015346246782486278   0.1329907486504617
-0.6371519233745598   0.015346246782486278   0.1329907486504617
-0.6371519233745598   0.015346246782486278   0.1329907486504617
-0.6071346071548932   -0.019599210841552098   0.019299972555947228
-0.6071346071548932   -0.019599210841552098   0.019299972555947228
-0.6071346071548932   -0.019599210841552098   0.019299972555947228
-0.6071346071548932   -0.019599210841552098   0.019299972555947228
-0.701476410939176   -0.10455465256366078   -0.06873078982646097
-0.701476410939176   -0.10455465256366078   -0.06873078982646097
-0.701476410939176   -0.10455465256366078   -0.06873078982646097
-0.701476410939176   -0.10455465256366078   -0.06873078982646097
-0.6037029253394209   0.010483337909994117   0.07522720625286197
-0.6037029253394209   0.010483337909994117   0.07522720625286197
-0.6037029253394209   0.010483337909994117   0.07522720625286197
-0.6037029253394209   0.010483337909994117   0.07522720625286197
-0.6684866525897541   -0.13047095138383646   -0.047444955174681745
-0.6684866525897541   -0.13047095138383646   -0.047444955174681745
-0.6684866525897541   -0.13047095138383646   -0.047444955174681745
-0.6684866525897541   -0.13047095138383646   -0.047444955174681745
-0.7210230331625274   -0.07137926728935325   0.12449738082744435
-0.7210230331625274   -0.07137926728935325   0.12449738082744435
-0.7210230331625274   -0.07137926728935325   0.12449738082744435
-0.7210230331625274   -0.07137926728935325   0.12449738082744435
-0.6500308461607739   -0.058728728998658414   -0.026860481261255058
-0.6500308461607739   -0.058728728998658414   -0.026860481261255058
-0.6500308461607739   -0.058728728998658414   -0.026860481261255058
-0.6500308461607739   -0.058728728998658414   -0.026860481261255058
-0.6014906722166321   -0.018188351522464064   -0.0544871402560424
-0.6014906722166321   -0.018188351522464064   -0.0544871402560424
-0.6014906722166321   -0.018188351522464064   -0.0544871402560424
-0.6014906722166321   -0.018188351522464064   -0.0544871402560424
-0.6061576912734518   -0.07433360394348648   -0.0031474210891860744
-0.6061576912734518   -0.07433360394348648   -0.0031474210891860744
-0.6061576912734518   -0.07433360394348648   -0.0031474210891860744
-0.6061576912734518   -0.07433360394348648   -0.0031474210891860744
-0.6103025243628365   -0.049391954564686785   -0.02697752315497167
-0.6103025243628365   -0.049391954564686785   -0.02697752315497167
-0.6103025243628365   -0.049391954564686785   -0.02697752315497167
-0.6103025243628365   -0.049391954564686785   -0.02697752315497167
-0.6222914320942927   -0.10173387040890142   -0.0012349204129613583
-0.6222914320942927   -0.10173387040890142   -0.0012349204129613583
-0.6222914320942927   -0.10173387040890142   -0.0012349204129613583
-0.6222914320942927   -0.10173387040890142   -0.0012349204129613583
-0.6048614748602026   -0.0635497987036029   -0.002384994710121633
-0.6048614748602026   -0.0635497987036029   -0.002384994710121633
-0.6048614748602026   -0.0635497987036029   -0.002384994710121633
-0.6048614748602026   -0.0635497987036029   -0.002384994710121633
-0.6222837148243381   -0.055815607433676084   -0.04711459703841656
-0.6222837148243381   -0.055815607433676084   -0.04711459703841656
-0.6222837148243381   -0.055815607433676084   -0.04711459703841656
-0.6222837148243381   -0.055815607433676084   -0.04711459703841656
-0.6142009091446285   -0.09920088505175129   0.003339483423125152
-0.6142009091446285   -0.09920088505175129   0.003339483423125152
-0.6142009091446285   -0.09920088505175129   0.003339483423125152
-0.6142009091446285   -0.09920088505175129   0.003339483423125152
-0.6203041783281917   -0.08180523785922711   -0.01733203152191408
-0.6203041783281917   -0.08180523785922711   -0.01733203152191408
-0.6203041783281917   -0.08180523785922711   -0.01733203152191408
-0.6203041783281917   -0.08180523785922711   -0.01733203152191408
-0.6444831572101293   -0.13183682311319686   0.013646207922510591
-0.6444831572101293   -0.13183682311319686   0.013646207922510591
-0.6444831572101293   -0.13183682311319686   0.013646207922510591
-0.6444831572101293   -0.13183682311319686   0.013646207922510591
-0.6184732770836986   -0.08969360269549662   -0.017339317474511375
-0.6184732770836986   -0.08969360269549662   -0.017339317474511375
-0.6184732770836986   -0.08969360269549662   -0.017339317474511375
-0.6184732770836986   -0.08969360269549662   -0.017339317474511375
-0.6459198797103161   -0.0904473478079943   -0.0349268798836256
-0.6459198797103161   -0.0904473478079943   -0.0349268798836256
-0.6459198797103161   -0.0904473478079943   -0.0349268798836256
-0.6459198797103161   -0.0904473478079943   -0.0349268798836256
-0.6238466273491788   -0.1281738846855998   0.011324370199514808
-0.6238466273491788   -0.1281738846855998   0.011324370199514808
-0.6238466273491788   -0.1281738846855998   0.011324370199514808
-0.6238466273491788   -0.1281738846855998   0.011324370199514808
-0.6292495811320155   -0.11681304984973964   -0.007773419741165189
-0.6292495811320155   -0.11681304984973964   -0.007773419741165189
-0.6292495811320155   -0.11681304984973964   -0.007773419741165189
-0.6292495811320155   -0.11681304984973964   -0.007773419741165189
-0.661430840796329   -0.17018483597573214   0.027547988384335118
-0.661430840796329   -0.17018483597573214   0.027547988384335118
-0.661430840796329   -0.17018483597573214   0.027547988384335118
-0.661430840796329   -0.17018483597573214   0.027547988384335118
-0.6373230916147915   -0.12138724186729441   -0.03641051695320827
-0.6373230916147915   -0.12138724186729441   -0.03641051695320827
-0.6373230916147915   -0.12138724186729441   -0.03641051695320827
-0.6373230916147915   -0.12138724186729441   -0.03641051695320827
-0.5896491212151611   0.015025230726073063   -0.009963405467284407
-0.5896491212151611   0.015025230726073063   -0.009963405467284407
-0.5896491212151611   0.015025230726073063   -0.009963405467284407
-0.5896491212151611   0.015025230726073063   -0.009963405467284407
-0.6641883279101845   -0.12605841754309455   -0.03175640551381493
-0.6641883279101845   -0.12605841754309455   -0.03175640551381493
-0.6641883279101845   -0.12605841754309455   -0.03175640551381493
-0.6641883279101845   -0.12605841754309455   -0.03175640551381493
-0.6368248171516394   -0.023159242338356617   0.008540540856608388
-0.6368248171516394   -0.023159242338356617   0.008540540856608388
-0.6368248171516394   -0.023159242338356617   0.008540540856608388
-0.6368248171516394   -0.023159242338356617   0.008540540856608388
-0.6263552168839512   -0.13692727908554275   -0.019705661239697234
-0.6263552168839512   -0.13692727908554275   -0.019705661239697234
-0.6263552168839512   -0.13692727908554275   -0.019705661239697234
-0.6263552168839512   -0.13692727908554275   -0.019705661239697234
-0.6288166642828731   -0.06991724236821509   -0.014369921445094962
-0.6288166642828731   -0.06991724236821509   -0.014369921445094962
-0.6288166642828731   -0.06991724236821509   -0.014369921445094962
-0.6288166642828731   -0.06991724236821509   -0.014369921445094962
-0.5984797362887206   -0.017207868172426477   -4.7669176659735635e-05
-0.5984797362887206   -0.017207868172426477   -4.7669176659735635e-05
-0.5984797362887206   -0.017207868172426477   -4.7669176659735635e-05
-0.5984797362887206   -0.017207868172426477   -4.7669176659735635e-05
-0.6682275392469007   -0.1464058947515085   -0.02522641720654589
-0.6682275392469007   -0.1464058947515085   -0.02522641720654589
-0.6682275392469007   -0.1464058947515085   -0.02522641720654589
-0.6682275392469007   -0.1464058947515085   -0.02522641720654589
-0.6439471743449194   -0.055654737492847536   0.018124094720153933
-0.6439471743449194   -0.055654737492847536   0.018124094720153933
-0.6439471743449194   -0.055654737492847536   0.018124094720153933
-0.6439471743449194   -0.055654737492847536   0.018124094720153933
-0.6357144262172313   -0.16255455487107834   -0.01363395395526101
-0.6357144262172313   -0.16255455487107834   -0.01363395395526101
-0.6357144262172313   -0.16255455487107834   -0.01363395395526101
-0.6357144262172313   -0.16255455487107834   -0.01363395395526101
-0.6364054022525788   -0.0946907816115586   -0.027191411587756686
-0.6364054022525788   -0.0946907816115586   -0.027191411587756686
-0.6364054022525788   -0.0946907816115586   -0.027191411587756686
-0.6364054022525788   -0.0946907816115586   -0.027191411587756686
-0.6085994202557117   -0.05027725118565422   0.00966377216691285
-0.6085994202557117   -0.05027725118565422   0.00966377216691285
-0.6085994202557117   -0.05027725118565422   0.00966377216691285
-0.6085994202557117   -0.05027725118565422   0.00966377216691285
-0.6750020545391003   -0.17187191541093566   -0.020933128332678377
-0.6750020545391003   -0.17187191541093566   -0.020933128332678377
-0.6750020545391003   -0.17187191541093566   -0.020933128332678377
-0.6750020545391003   -0.17187191541093566   -0.020933128332678377
-0.6497064361913598   -0.08624034233649061   0.027487694303103855
-0.6497064361913598   -0.08624034233649061   0.027487694303103855
-0.6497064361913598   -0.08624034233649061   0.027487694303103855
-0.6497064361913598   -0.08624034233649061   0.027487694303103855
-0.6426176969251467   -0.187193318148329   -0.004233730408224494
-0.6426176969251467   -0.187193318148329   -0.004233730408224494
-0.6426176969251467   -0.187193318148329   -0.004233730408224494
-0.6426176969251467   -0.187193318148329   -0.004233730408224494
-0.6454796644701845   -0.12061048434653465   -0.04128197819706972
-0.6454796644701845   -0.12061048434653465   -0.04128197819706972
-0.6454796644701845   -0.12061048434653465   -0.04128197819706972
-0.6454796644701845   -0.12061048434653465   -0.04128197819706972
-0.6133048983328092   0.0656049597849338   0.030997365045032504
-0.6133048983328092   0.0656049597849338   0.030997365045032504
-0.6133048983328092   0.0656049597849338   0.030997365045032504
-0.6133048983328092   0.0656049597849338   0.030997365045032504
-0.7223428627335075   -0.09368645290741916   -0.04413981340203338
-0.7223428627335075   -0.09368645290741916   -0.04413981340203338
-0.7223428627335075   -0.09368645290741916   -0.04413981340203338
-0.7223428627335075   -0.09368645290741916   -0.04413981340203338
-0.6830316114053147   0.019926388551611274   0.043074167527394694
-0.6830316114053147   0.019926388551611274   0.043074167527394694
-0.6830316114053147   0.019926388551611274   0.043074167527394694
-0.6830316114053147   0.019926388551611274   0.043074167527394694
-0.6603138069029897   -0.10524486036228473   -0.026818789876214374
-0.6603138069029897   -0.10524486036228473   -0.026818789876214374
-0.6603138069029897   -0.10524486036228473   -0.026818789876214374
-0.6603138069029897   -0.10524486036228473   -0.026818789876214374
-0.6697332866940742   -0.027633682720026878   -0.00858545922716331
-0.6697332866940742   -0.027633682720026878   -0.00858545922716331
-0.6697332866940742   -0.027633682720026878   -0.00858545922716331
-0.6697332866940742   -0.027633682720026878   -0.00858545922716331
-0.6193449869461826   0.032170808205888385   0.04060964133964813
-0.6193449869461826   0.032170808205888385   0.04060964133964813
-0.6193449869461826   0.032170808205888385   0.04060964133964813
-0.6193449869461826   0.032170808205888385   0.04060964133964813
-0.7286774835112471   -0.12216633216568208   -0.04306247228497426
-0.7286774835112471   -0.12216633216568208   -0.04306247228497426
-0.7286774835112471   -0.12216633216568208   -0.04306247228497426
-0.7286774835112471   -0.12216633216568208   -0.04306247228497426
-0.695532275453859   -0.011769502555522615   0.048817913308491195
-0.695532275453859   -0.011769502555522615   0.048817913308491195
-0.695532275453859   -0.011769502555522615   0.048817913308491195
-0.695532275453859   -0.011769502555522615   0.048817913308491195
-0.6664857302122105   -0.12885545471653553   -0.02136796739261326
-0.6664857302122105   -0.12885545471653553   -0.02136796739261326
-0.6664857302122105   -0.12885545471653553   -0.02136796739261326
-0.6664857302122105   -0.12885545471653553   -0.02136796739261326
-0.6759564133774929   -0.054466579496334586   -0.023615357787537077
-0.6759564133774929   -0.054466579496334586   -0.023615357787537077
-0.6759564133774929   -0.054466579496334586   -0.023615357787537077
-0.6759564133774929   -0.054466579496334586   -0.023615357787537077
-0.6259760453553572   0.002369301031249882   0.049955701143851894
-0.6259760453553572   0.002369301031249882   0.049955701143851894
-0.6259760453553572   0.002369301031249882   0.049955701143851894
-0.6259760453553572   0.002369301031249882   0.049955701143851894
-0.7400962611646842   -0.14704855915728773   -0.03872295864386969
-0.7400962611646842   -0.14704855915728773   -0.03872295864386969
-0.7400962611646842   -0.14704855915728773   -0.03872295864386969
-0.7400962611646842   -0.14704855915728773   -0.03872295864386969
-0.7037474050898977   -0.042147021132994233   0.05951773298146171
-0.7037474050898977   -0.042147021132994233   0.05951773298146171
-0.7037474050898977   -0.042147021132994233   0.05951773298146171
-0.7037474050898977   -0.042147021132994233   0.05951773298146171
-0.6717525384899342   -0.1525619312380008   -0.016421228288258177
-0.6717525384899342   -0.1525619312380008   -0.016421228288258177
-0.6717525384899342   -0.1525619312380008   -0.016421228288258177
-0.6717525384899342   -0.1525619312380008   -0.016421228288258177
-0.6869536857972237   -0.07971761266780755   -0.03816276044293023
-0.6869536857972237   -0.07971761266780755   -0.03816276044293023
-0.6869536857972237   -0.07971761266780755   -0.03816276044293023
-0.6869536857972237   -0.07971761266780755   -0.03816276044293023
-0.6635974534305287   0.09410421566116337   0.06179656454426229
-0.6635974534305287   0.09410421566116337   0.06179656454426229
-0.6635974534305287   0.09410421566116337   0.06179656454426229
-0.6635974534305287   0.09410421566116337   0.06179656454426229
-0.7062116782079001   -0.05628354361716441   -0.06406300576505827
-0.7062116782079001   -0.05628354361716441   -0.06406300576505827
-0.7062116782079001   -0.05628354361716441   -0.06406300576505827
-0.7062116782079001   -0.05628354361716441   -0.06406300576505827
-0.6899745901258701   0.06746780395768678   0.06865721173213633
-0.6899745901258701   0.06746780395768678   0.06865721173213633
-0.6899745901258701   0.06746780395768678   0.06865721173213633
-0.6899745901258701   0.06746780395768678   0.06865721173213633
-0.71806669628034   -0.07302298230518361   -0.039151885990952984
-0.71806669628034   -0.07302298230518361   -0.039151885990952984
-0.71806669628034   -0.07302298230518361   -0.039151885990952984
-0.71806669628034   -0.07302298230518361   -0.039151885990952984
-0.670945720907607   0.01699268113216551   0.0023658743957362116
-0.670945720907607   0.01699268113216551   0.0023658743957362116
-0.670945720907607   0.01699268113216551   0.0023658743957362116
-0.670945720907607   0.01699268113216551   0.0023658743957362116
-0.6668103727604551   0.07265879578749765   0.07144795351577564
-0.6668103727604551   0.07265879578749765   0.07144795351577564
-0.6668103727604551   0.07265879578749765   0.07144795351577564
-0.6668103727604551   0.07265879578749765   0.07144795351577564
-0.7450261902387073   -0.0820092507279492   -0.05712373414641368
-0.7450261902387073   -0.0820092507279492   -0.05712373414641368
-0.7450261902387073   -0.0820092507279492   -0.05712373414641368
-0.7450261902387073   -0.0820092507279492   -0.05712373414641368
-0.7203726173293186   0.0497662667386862   0.08843885340568486
-0.7203726173293186   0.0497662667386862   0.08843885340568486
-0.7203726173293186   0.0497662667386862   0.08843885340568486
-0.7203726173293186   0.0497662667386862   0.08843885340568486
-0.7274747033279141   -0.0868958990017926   -0.03576782961552978
-0.7274747033279141   -0.0868958990017926   -0.03576782961552978
-0.7274747033279141   -0.0868958990017926   -0.03576782961552978
-0.7274747033279141   -0.0868958990017926   -0.03576782961552978
-0.7036528800278875   -0.004478635828352673   -0.01530131868774346
-0.7036528800278875   -0.004478635828352673   -0.01530131868774346
-0.7036528800278875   -0.004478635828352673   -0.01530131868774346
-0.7036528800278875   -0.004478635828352673   -0.01530131868774346
-0.6741439424078703   0.05843520519869197   0.08555487078420401
-0.6741439424078703   0.05843520519869197   0.08555487078420401
-0.6741439424078703   0.05843520519869197   0.08555487078420401
-0.6741439424078703   0.05843520519869197   0.08555487078420401
-0.7786670880081848   -0.10052854722060055   -0.05273868602932941
-0.7786670880081848   -0.10052854722060055   -0.05273868602932941
-0.7786670880081848   -0.10052854722060055   -0.05273868602932941
-0.7786670880081848   -0.10052854722060055   -0.05273868602932941
-0.7742481256046236   0.00460429458304587   0.09452220980186823
-0.7742481256046236   0.00460429458304587   0.09452220980186823
-0.7742481256046236   0.00460429458304587   0.09452220980186823
-0.7742481256046236   0.00460429458304587   0.09452220980186823
-0.7360362691523142   -0.11297696671139687   -0.031096641752217512
-0.7360362691523142   -0.11297696671139687   -0.031096641752217512
-0.7360362691523142   -0.11297696671139687   -0.031096641752217512
-0.7360362691523142   -0.11297696671139687   -0.031096641752217512
-0.719179863987941   -0.024192928066097963   -0.03128425149318094
-0.719179863987941   -0.024192928066097963   -0.03128425149318094
-0.719179863987941   -0.024192928066097963   -0.03128425149318094
-0.719179863987941   -0.024192928066097963   -0.03128425149318094
-1.4425015926622005   -0.13159780051091546   -0.13482970913741638
-1.4425015926622005   -0.13159780051091546   -0.13482970913741638
-1.4425015926622005   -0.13159780051091546   -0.13482970913741638
-1.4425015926622005   -0.13159780051091546   -0.13482970913741638
-0.9122772211171841   0.07894124150633336   0.03187303352477765
-0.9122772211171841   0.07894124150633336   0.03187303352477765
-0.9122772211171841   0.07894124150633336   0.03187303352477765
-0.9122772211171841   0.07894124150633336   0.03187303352477765
-0.9576482945998841   -0.059600134238039726   -0.05987954567990731
-0.9576482945998841   -0.059600134238039726   -0.05987954567990731
-0.9576482945998841   -0.059600134238039726   -0.05987954567990731
-0.9576482945998841   -0.059600134238039726   -0.05987954567990731
-1.5321475701202247   -0.17102635806534972   0.15174593892152627
-1.5321475701202247   -0.17102635806534972   0.15174593892152627
-1.5321475701202247   -0.17102635806534972   0.15174593892152627
-1.5321475701202247   -0.17102635806534972   0.15174593892152627
-1.1137644920751406   -0.04185983334880808   0.14683158145749617
-1.1137644920751406   -0.04185983334880808   0.14683158145749617
-1.1137644920751406   -0.04185983334880808   0.14683158145749617
-1.1137644920751406   -0.04185983334880808   0.14683158145749617
-1.5866412853830707   -0.1931438519585865   -0.09860514349945484
-1.5866412853830707   -0.1931438519585865   -0.09860514349945484
-1.5866412853830707   -0.1931438519585865   -0.09860514349945484
-1.5866412853830707   -0.1931438519585865   -0.09860514349945484
-0.9414377950711836   -0.0757658560789463   0.03733867380450216
-0.9414377950711836   -0.0757658560789463   0.03733867380450216
-0.9414377950711836   -0.0757658560789463   0.03733867380450216
-0.9414377950711836   -0.0757658560789463   0.03733867380450216
-0.9717841885426611   -0.0867371695057266   -0.042794067622501396
-0.9717841885426611   -0.0867371695057266   -0.042794067622501396
-0.9717841885426611   -0.0867371695057266   -0.042794067622501396
-0.9717841885426611   -0.0867371695057266   -0.042794067622501396
-1.5801171676963457   -0.23918501652348828   0.004175765435714341
-1.5801171676963457   -0.23918501652348828   0.004175765435714341
-1.5801171676963457   -0.23918501652348828   0.004175765435714341
-1.5801171676963457   -0.23918501652348828   0.004175765435714341
-1.2320140431119937   -0.1443409917716852   0.03377565124409275
-1.2320140431119937   -0.1443409917716852   0.03377565124409275
-1.2320140431119937   -0.1443409917716852   0.03377565124409275
-1.2320140431119937   -0.1443409917716852   0.03377565124409275
-1.5925847075750132   -0.218173208236597   -0.07917374224450122
-1.5925847075750132   -0.218173208236597   -0.07917374224450122
-1.5925847075750132   -0.218173208236597   -0.07917374224450122
-1.5925847075750132   -0.218173208236597   -0.07917374224450122
-0.9709692184942916   -0.11940154762291509   -0.006054839263473815
-0.9709692184942916   -0.11940154762291509   -0.006054839263473815
-0.9709692184942916   -0.11940154762291509   -0.006054839263473815
-0.9709692184942916   -0.11940154762291509   -0.006054839263473815
-0.971920803280206   -0.15266760923107972   -0.031046558763509403
-0.971920803280206   -0.15266760923107972   -0.031046558763509403
-0.971920803280206   -0.15266760923107972   -0.031046558763509403
-0.971920803280206   -0.15266760923107972   -0.031046558763509403
-1.6169545475011815   -0.36563981484347546   0.024619760489598977
-1.6169545475011815   -0.36563981484347546   0.024619760489598977
-1.6169545475011815   -0.36563981484347546   0.024619760489598977
-1.6169545475011815   -0.36563981484347546   0.024619760489598977
-1.2300532241310942   -0.19854874584727436   0.0023516385306201256
-1.2300532241310942   -0.19854874584727436   0.0023516385306201256
-1.2300532241310942   -0.19854874584727436   0.0023516385306201256
-1.2300532241310942   -0.19854874584727436   0.0023516385306201256
-0.9851840960769201   -0.1668778505332127   -0.08684224923434884
-0.9851840960769201   -0.1668778505332127   -0.08684224923434884
-0.9851840960769201   -0.1668778505332127   -0.08684224923434884
-0.9851840960769201   -0.1668778505332127   -0.08684224923434884
-0.6747104313486116   -0.43359467356060055   -0.08140955442807764
-0.6747104313486116   -0.43359467356060055   -0.08140955442807764
-0.6747104313486116   -0.43359467356060055   -0.08140955442807764
-0.6747104313486116   -0.43359467356060055   -0.08140955442807764
-0.5927768484289687   -0.09656757910370484   -0.004918047552333146
-0.5927768484289687   -0.09656757910370484   -0.004918047552333146
-0.5927768484289687   -0.09656757910370484   -0.004918047552333146
-0.5927768484289687   -0.09656757910370484   -0.004918047552333146
-1.0464396032264194   -0.46057377654357234   -0.10286244650705052
-1.0464396032264194   -0.46057377654357234   -0.10286244650705052
-1.0464396032264194   -0.46057377654357234   -0.10286244650705052
-1.0464396032264194   -0.46057377654357234   -0.10286244650705052
-0.8151541174010997   -0.3073000723935508   -0.023696336163839538
-0.8151541174010997   -0.3073000723935508   -0.023696336163839538
-0.8151541174010997   -0.3073000723935508   -0.023696336163839538
-0.8151541174010997   -0.3073000723935508   -0.023696336163839538
-0.9842021751070695   -0.186932376183027   -0.06531670627084317
-0.9842021751070695   -0.186932376183027   -0.06531670627084317
-0.9842021751070695   -0.186932376183027   -0.06531670627084317
-0.9842021751070695   -0.186932376183027   -0.06531670627084317
-0.6590162488438746   -0.3742109517598069   -0.05847167697076815
-0.6590162488438746   -0.3742109517598069   -0.05847167697076815
-0.6590162488438746   -0.3742109517598069   -0.05847167697076815
-0.6590162488438746   -0.3742109517598069   -0.05847167697076815
-0.5989879493587933   -0.12523184650969096   0.0011758830887040623
-0.5989879493587933   -0.12523184650969096   0.0011758830887040623
-0.5989879493587933   -0.12523184650969096   0.0011758830887040623
-0.5989879493587933   -0.12523184650969096   0.0011758830887040623
-1.0496791739702047   -0.4582081112553677   -0.06079805301058634
-1.0496791739702047   -0.4582081112553677   -0.06079805301058634
-1.0496791739702047   -0.4582081112553677   -0.06079805301058634
-1.0496791739702047   -0.4582081112553677   -0.06079805301058634
-0.8057408045466614   -0.28806226457382167   -0.025169662161008757
-0.8057408045466614   -0.28806226457382167   -0.025169662161008757
-0.8057408045466614   -0.28806226457382167   -0.025169662161008757
-0.8057408045466614   -0.28806226457382167   -0.025169662161008757
-0.9986972427736076   -0.2151901528891556   -0.04890635539380492
-0.9986972427736076   -0.2151901528891556   -0.04890635539380492
-0.9986972427736076   -0.2151901528891556   -0.04890635539380492
-0.9986972427736076   -0.2151901528891556   -0.04890635539380492
-0.6582110620102366   -0.37649098633074796   -0.04368054034745568
-0.6582110620102366   -0.37649098633074796   -0.04368054034745568
-0.6582110620102366   -0.37649098633074796   -0.04368054034745568
-0.6582110620102366   -0.37649098633074796   -0.04368054034745568
-0.5981446861464035   -0.16105968296580847   0.00988759878402826
-0.5981446861464035   -0.16105968296580847   0.00988759878402826
-0.5981446861464035   -0.16105968296580847   0.00988759878402826
-0.5981446861464035   -0.16105968296580847   0.00988759878402826
-1.0465045678545957   -0.4661261593796655   -0.09050683148688471
-1.0465045678545957   -0.4661261593796655   -0.09050683148688471
-1.0465045678545957   -0.4661261593796655   -0.09050683148688471
-1.0465045678545957   -0.4661261593796655   -0.09050683148688471
-0.8173008367823179   -0.30996925466951325   -0.046697193245998574
-0.8173008367823179   -0.30996925466951325   -0.046697193245998574
-0.8173008367823179   -0.30996925466951325   -0.046697193245998574
-0.8173008367823179   -0.30996925466951325   -0.046697193245998574
-0.5946547155298897   -0.10728795311941039   -0.007437695775658159
-0.5946547155298897   -0.10728795311941039   -0.007437695775658159
-0.5946547155298897   -0.10728795311941039   -0.007437695775658159
-0.5946547155298897   -0.10728795311941039   -0.007437695775658159
-0.4964852248353218   -0.33126731664589043   -0.057191923105697005
-0.4964852248353218   -0.33126731664589043   -0.057191923105697005
-0.4964852248353218   -0.33126731664589043   -0.057191923105697005
-0.4964852248353218   -0.33126731664589043   -0.057191923105697005
-0.42775381427624026   -0.08866398976223189   0.02300938276914606
-0.42775381427624026   -0.08866398976223189   0.02300938276914606
-0.42775381427624026   -0.08866398976223189   0.02300938276914606
-0.42775381427624026   -0.08866398976223189   0.02300938276914606
-0.6572925451815901   -0.36071422328049896   -0.0633498871386534
-0.6572925451815901   -0.36071422328049896   -0.0633498871386534
-0.6572925451815901   -0.36071422328049896   -0.0633498871386534
-0.6572925451815901   -0.36071422328049896   -0.0633498871386534
-0.5416178908574975   -0.2251674513458104   -0.026429629063637706
-0.5416178908574975   -0.2251674513458104   -0.026429629063637706
-0.5416178908574975   -0.2251674513458104   -0.026429629063637706
-0.5416178908574975   -0.2251674513458104   -0.026429629063637706
-0.5976705982192917   -0.127033415188503   0.0010790395808420584
-0.5976705982192917   -0.127033415188503   0.0010790395808420584
-0.5976705982192917   -0.127033415188503   0.0010790395808420584
-0.5976705982192917   -0.127033415188503   0.0010790395808420584
-0.49090469783871876   -0.32587373445440804   -0.0555352903510703
-0.49090469783871876   -0.32587373445440804   -0.0555352903510703
-0.49090469783871876   -0.32587373445440804   -0.0555352903510703
-0.49090469783871876   -0.32587373445440804   -0.0555352903510703
-0.4273858113771058   -0.1122056454671438   0.02978197822428619
-0.4273858113771058   -0.1122056454671438   0.02978197822428619
-0.4273858113771058   -0.1122056454671438   0.02978197822428619
-0.4273858113771058   -0.1122056454671438   0.02978197822428619
-0.6588412933077815   -0.36644015637861627   -0.05688252678731154
-0.6588412933077815   -0.36644015637861627   -0.05688252678731154
-0.6588412933077815   -0.36644015637861627   -0.05688252678731154
-0.6588412933077815   -0.36644015637861627   -0.05688252678731154
-0.5402056998912409   -0.23409199634455902   -0.034284185750460563
-0.5402056998912409   -0.23409199634455902   -0.034284185750460563
-0.5402056998912409   -0.23409199634455902   -0.034284185750460563
-0.5402056998912409   -0.23409199634455902   -0.034284185750460563
-0.6021287313690258   -0.15088549983734578   0.01112562636519632
-0.6021287313690258   -0.15088549983734578   0.01112562636519632
-0.6021287313690258   -0.15088549983734578   0.01112562636519632
-0.6021287313690258   -0.15088549983734578   0.01112562636519632
-0.4860313537600016   -0.329693282452557   -0.045958096704779815
-0.4860313537600016   -0.329693282452557   -0.045958096704779815
-0.4860313537600016   -0.329693282452557   -0.045958096704779815
-0.4860313537600016   -0.329693282452557   -0.045958096704779815
-0.4217642622527536   -0.13474804426130196   0.03713920435451771
-0.4217642622527536   -0.13474804426130196   0.03713920435451771
-0.4217642622527536   -0.13474804426130196   0.03713920435451771
-0.4217642622527536   -0.13474804426130196   0.03713920435451771
-0.650372037203719   -0.3712452511236287   -0.041063588344728424
-0.650372037203719   -0.3712452511236287   -0.041063588344728424
-0.650372037203719   -0.3712452511236287   -0.041063588344728424
-0.650372037203719   -0.3712452511236287   -0.041063588344728424
-0.5380086723458309   -0.24576413441290554   -0.039658572654498916
-0.5380086723458309   -0.24576413441290554   -0.039658572654498916
-0.5380086723458309   -0.24576413441290554   -0.039658572654498916
-0.5380086723458309   -0.24576413441290554   -0.039658572654498916
-0.4136862449009687   -0.0150166955637243   0.04055235548390225
-0.4136862449009687   -0.0150166955637243   0.04055235548390225
-0.4136862449009687   -0.0150166955637243   0.04055235548390225
-0.4136862449009687   -0.0150166955637243   0.04055235548390225
-0.38881711529314944   -0.17487672610847405   -0.034021646653782926
-0.38881711529314944   -0.17487672610847405   -0.034021646653782926
-0.38881711529314944   -0.17487672610847405   -0.034021646653782926
-0.38881711529314944   -0.17487672610847405   -0.034021646653782926
-0.33475341356755745   -0.025360364913986806   0.0470432940298431
-0.33475341356755745   -0.025360364913986806   0.0470432940298431
-0.33475341356755745   -0.025360364913986806   0.0470432940298431
-0.33475341356755745   -0.025360364913986806   0.0470432940298431
-0.4600053566767436   -0.20272486070899876   -0.024187458286603496
-0.4600053566767436   -0.20272486070899876   -0.024187458286603496
-0.4600053566767436   -0.20272486070899876   -0.024187458286603496
-0.4600053566767436   -0.20272486070899876   -0.024187458286603496
-0.40066724556666444   -0.10356787600133352   -0.014309335436734702
-0.40066724556666444   -0.10356787600133352   -0.014309335436734702
-0.40066724556666444   -0.10356787600133352   -0.014309335436734702
-0.40066724556666444   -0.10356787600133352   -0.014309335436734702
-0.41350267858994455   -0.041165552030628584   0.046766623469021315
-0.41350267858994455   -0.041165552030628584   0.046766623469021315
-0.41350267858994455   -0.041165552030628584   0.046766623469021315
-0.41350267858994455   -0.041165552030628584   0.046766623469021315
-0.38498500618477977   -0.19064858812278035   -0.03882644584747506
-0.38498500618477977   -0.19064858812278035   -0.03882644584747506
-0.38498500618477977   -0.19064858812278035   -0.03882644584747506
-0.38498500618477977   -0.19064858812278035   -0.03882644584747506
-0.33474309484594833   -0.04812687477971064   0.05053229692527978
-0.33474309484594833   -0.04812687477971064   0.05053229692527978
-0.33474309484594833   -0.04812687477971064   0.05053229692527978
-0.33474309484594833   -0.04812687477971064   0.05053229692527978
-0.45932117684652035   -0.21504721277349703   -0.02705328181644852
-0.45932117684652035   -0.21504721277349703   -0.02705328181644852
-0.45932117684652035   -0.21504721277349703   -0.02705328181644852
-0.45932117684652035   -0.21504721277349703   -0.02705328181644852
-0.3984547530157034   -0.12189380686742243   -0.024244069254522334
-0.3984547530157034   -0.12189380686742243   -0.024244069254522334
-0.3984547530157034   -0.12189380686742243   -0.024244069254522334
-0.3984547530157034   -0.12189380686742243   -0.024244069254522334
-0.4129020447923292   -0.06322174251486479   0.05321690819589003
-0.4129020447923292   -0.06322174251486479   0.05321690819589003
-0.4129020447923292   -0.06322174251486479   0.05321690819589003
-0.4129020447923292   -0.06322174251486479   0.05321690819589003
-0.3834180876459915   -0.2022082057841899   -0.038761336070457016
-0.3834180876459915   -0.2022082057841899   -0.038761336070457016
-0.3834180876459915   -0.2022082057841899   -0.038761336070457016
-0.3834180876459915   -0.2022082057841899   -0.038761336070457016
-0.3313411742233766   -0.06948735272069557   0.05854030003171026
-0.3313411742233766   -0.06948735272069557   0.05854030003171026
-0.3313411742233766   -0.06948735272069557   0.05854030003171026
-0.3313411742233766   -0.06948735272069557   0.05854030003171026
-0.4514408541827044   -0.2274087160481072   -0.01858308350843086
-0.4514408541827044   -0.2274087160481072   -0.01858308350843086
-0.4514408541827044   -0.2274087160481072   -0.01858308350843086
-0.4514408541827044   -0.2274087160481072   -0.01858308350843086
-0.3966864169210089   -0.13757032930215723   -0.031086255865059857
-0.3966864169210089   -0.13757032930215723   -0.031086255865059857
-0.3966864169210089   -0.13757032930215723   -0.031086255865059857
-0.3966864169210089   -0.13757032930215723   -0.031086255865059857
-0.3253645333497813   0.045309494915323045   0.06305504203926028
-0.3253645333497813   0.045309494915323045   0.06305504203926028
-0.3253645333497813   0.045309494915323045   0.06305504203926028
-0.3253645333497813   0.045309494915323045   0.06305504203926028
-0.21299420068899852   -0.05715603152727237   -0.02076779788005766
-0.21299420068899852   -0.05715603152727237   -0.02076779788005766
-0.21299420068899852   -0.05715603152727237   -0.02076779788005766
-0.21299420068899852   -0.05715603152727237   -0.02076779788005766
-0.18502277271224746   0.053856746268881796   0.0622028333112815
-0.18502277271224746   0.053856746268881796   0.0622028333112815
-0.18502277271224746   0.053856746268881796   0.0622028333112815
-0.18502277271224746   0.053856746268881796   0.0622028333112815
-0.3588953859178551   -0.088304147565502   -0.010722785070129845
-0.3588953859178551   -0.088304147565502   -0.010722785070129845
-0.3588953859178551   -0.088304147565502   -0.010722785070129845
-0.3588953859178551   -0.088304147565502   -0.010722785070129845
-0.2669862148123676   -0.005525390905484984   -0.011573427049392623
-0.2669862148123676   -0.005525390905484984   -0.011573427049392623
-0.2669862148123676   -0.005525390905484984   -0.011573427049392623
-0.2669862148123676   -0.005525390905484984   -0.011573427049392623
-0.31967582571206343   0.028249785571106342   0.06882108282222016
-0.31967582571206343   0.028249785571106342   0.06882108282222016
-0.31967582571206343   0.028249785571106342   0.06882108282222016
-0.31967582571206343   0.028249785571106342   0.06882108282222016
-0.2245877821391885   -0.0630426360888734   -0.018722831465653393
-0.2245877821391885   -0.0630426360888734   -0.018722831465653393
-0.2245877821391885   -0.0630426360888734   -0.018722831465653393
-0.2245877821391885   -0.0630426360888734   -0.018722831465653393
-0.19283016659910443   0.04284379001301522   0.07828607872969978
-0.19283016659910443   0.04284379001301522   0.07828607872969978
-0.19283016659910443   0.04284379001301522   0.07828607872969978
-0.19283016659910443   0.04284379001301522   0.07828607872969978
-0.35677834516633056   -0.09392952786426076   -0.013841301592081495
-0.35677834516633056   -0.09392952786426076   -0.013841301592081495
-0.35677834516633056   -0.09392952786426076   -0.013841301592081495
-0.35677834516633056   -0.09392952786426076   -0.013841301592081495
-0.27443072691164294   -0.0175655473945315   -0.016092169365120007
-0.27443072691164294   -0.0175655473945315   -0.016092169365120007
-0.27443072691164294   -0.0175655473945315   -0.016092169365120007
-0.27443072691164294   -0.0175655473945315   -0.016092169365120007
-0.3156772511368949   0.018470071248075495   0.07926456944276082
-0.3156772511368949   0.018470071248075495   0.07926456944276082
-0.3156772511368949   0.018470071248075495   0.07926456944276082
-0.3156772511368949   0.018470071248075495   0.07926456944276082
-0.23674461829517476   -0.07236916676595308   -0.02607322297168354
-0.23674461829517476   -0.07236916676595308   -0.02607322297168354
-0.23674461829517476   -0.07236916676595308   -0.02607322297168354
-0.23674461829517476   -0.07236916676595308   -0.02607322297168354
-0.22080213226976106   0.012580408258387889   0.08145609621415305
-0.22080213226976106   0.012580408258387889   0.08145609621415305
-0.22080213226976106   0.012580408258387889   0.08145609621415305
-0.22080213226976106   0.012580408258387889   0.08145609621415305
-0.35124762000855114   -0.09882806685727234   -0.01165121475758582
-0.35124762000855114   -0.09882806685727234   -0.01165121475758582
-0.35124762000855114   -0.09882806685727234   -0.01165121475758582
-0.35124762000855114   -0.09882806685727234   -0.01165121475758582
-0.27783483591476116   -0.026193378877281744   -0.023562601262237533
-0.27783483591476116   -0.026193378877281744   -0.023562601262237533
-0.27783483591476116   -0.026193378877281744   -0.023562601262237533
-0.27783483591476116   -0.026193378877281744   -0.023562601262237533
-3.3867059291061516   -0.478449165675972   -0.280650294397782
-3.3867059291061516   -0.478449165675972   -0.280650294397782
-3.3867059291061516   -0.478449165675972   -0.280650294397782
-3.3867059291061516   -0.478449165675972   -0.280650294397782
-1.1733549051334071   -1.8310543136801685   -0.21996977839095316
-1.1733549051334071   -1.8310543136801685   -0.21996977839095316
-1.1733549051334071   -1.8310543136801685   -0.21996977839095316
-1.1733549051334071   -1.8310543136801685   -0.21996977839095316
-0.9089143238828362   -0.07643481632093864   0.0014704014061929956
-0.9089143238828362   -0.07643481632093864   0.0014704014061929956
-0.9089143238828362   -0.07643481632093864   0.0014704014061929956
-0.9089143238828362   -0.07643481632093864   0.0014704014061929956
-3.6120766249632625   -2.155427453414062   -1.153500815675465
-3.6120766249632625   -2.155427453414062   -1.153500815675465
-3.6120766249632625   -2.155427453414062   -1.153500815675465
-3.6120766249632625   -2.155427453414062   -1.153500815675465
-2.2135941635789744   -1.0727307632533476   -0.1562560572161036
-2.2135941635789744   -1.0727307632533476   -0.1562560572161036
-2.2135941635789744   -1.0727307632533476   -0.1562560572161036
-2.2135941635789744   -1.0727307632533476   -0.1562560572161036
-3.1466871428131493   -0.6005663600466974   -0.3814144982922877
-3.1466871428131493   -0.6005663600466974   -0.3814144982922877
-3.1466871428131493   -0.6005663600466974   -0.3814144982922877
-3.1466871428131493   -0.6005663600466974   -0.3814144982922877
-1.2664891162027236   -1.52348121985808   -0.33935715665609495
-1.2664891162027236   -1.52348121985808   -0.33935715665609495
-1.2664891162027236   -1.52348121985808   -0.33935715665609495
-1.2664891162027236   -1.52348121985808   -0.33935715665609495
-0.926698263547725   -0.10234212345407005   0.03497132663416937
-0.926698263547725   -0.10234212345407005   0.03497132663416937
-0.926698263547725   -0.10234212345407005   0.03497132663416937
-0.926698263547725   -0.10234212345407005   0.03497132663416937
-3.379715558781598   -1.9210269501388835   -1.0601485017840964
-3.379715558781598   -1.9210269501388835   -1.0601485017840964
-3.379715558781598   -1.9210269501388835   -1.0601485017840964
-3.379715558781598   -1.9210269501388835   -1.0601485017840964
-2.0846204759245155   -0.9667752343042013   0.08479622779901697
-2.0846204759245155   -0.9667752343042013   0.08479622779901697
-2.0846204759245155   -0.9667752343042013   0.08479622779901697
-2.0846204759245155   -0.9667752343042013   0.08479622779901697
-2.954661104639116   -0.5717579943677507   -0.2841451868428425
-2.954661104639116   -0.5717579943677507   -0.2841451868428425
-2.954661104639116   -0.5717579943677507   -0.2841451868428425
-2.954661104639116   -0.5717579943677507   -0.2841451868428425
-1.2320085021198501   -1.3318668636548487   -0.26205512602566977
-1.2320085021198501   -1.3318668636548487   -0.26205512602566977
-1.2320085021198501   -1.3318668636548487   -0.26205512602566977
-1.2320085021198501   -1.3318668636548487   -0.26205512602566977
-1.0636283357248055   -0.27087478669074544   -0.054881310523142456
-1.0636283357248055   -0.27087478669074544   -0.054881310523142456
-1.0636283357248055   -0.27087478669074544   -0.054881310523142456
-1.0636283357248055   -0.27087478669074544   -0.054881310523142456
-3.080136475328414   -1.612374907051416   -0.938502276475966
-3.080136475328414   -1.612374907051416   -0.938502276475966
-3.080136475328414   -1.612374907051416   -0.938502276475966
-3.080136475328414   -1.612374907051416   -0.938502276475966
-1.9306426059922173   -0.837756404971852   0.3569351556785825
-1.9306426059922173   -0.837756404971852   0.3569351556785825
-1.9306426059922173   -0.837756404971852   0.3569351556785825
-1.9306426059922173   -0.837756404971852   0.3569351556785825
-0.8712307760652898   -0.4705812674703569   -0.06982217926018137
-0.8712307760652898   -0.4705812674703569   -0.06982217926018137
-0.8712307760652898   -0.4705812674703569   -0.06982217926018137
-0.8712307760652898   -0.4705812674703569   -0.06982217926018137
-0.401107463146864   -0.5734334613735121   -0.0990252452327571
-0.401107463146864   -0.5734334613735121   -0.0990252452327571
-0.401107463146864   -0.5734334613735121   -0.0990252452327571
-0.401107463146864   -0.5734334613735121   -0.0990252452327571
-0.35486833738306567   -0.2998244523521471   0.009312908606721931
-0.35486833738306567   -0.2998244523521471   0.009312908606721931
-0.35486833738306567   -0.2998244523521471   0.009312908606721931
-0.35486833738306567   -0.2998244523521471   0.009312908606721931
-1.0626950843636007   -0.843534388181336   -0.00033382913722551644
-1.0626950843636007   -0.843534388181336   -0.00033382913722551644
-1.0626950843636007   -0.843534388181336   -0.00033382913722551644
-1.0626950843636007   -0.843534388181336   -0.00033382913722551644
-0.5715864423514437   -0.40955372106350935   0.18253111521937465
-0.5715864423514437   -0.40955372106350935   0.18253111521937465
-0.5715864423514437   -0.40955372106350935   0.18253111521937465
-0.5715864423514437   -0.40955372106350935   0.18253111521937465
-0.9904499239338592   -0.437776528681353   -0.04486588648851407
-0.9904499239338592   -0.437776528681353   -0.04486588648851407
-0.9904499239338592   -0.437776528681353   -0.04486588648851407
-0.9904499239338592   -0.437776528681353   -0.04486588648851407
-0.456918185122189   -0.735386999161514   -0.06537378327952768
-0.456918185122189   -0.735386999161514   -0.06537378327952768
-0.456918185122189   -0.735386999161514   -0.06537378327952768
-0.456918185122189   -0.735386999161514   -0.06537378327952768
-0.3827775664448258   -0.3107755512249762   0.00946313961600774
-0.3827775664448258   -0.3107755512249762   0.00946313961600774
-0.3827775664448258   -0.3107755512249762   0.00946313961600774
-0.3827775664448258   -0.3107755512249762   0.00946313961600774
-1.113743184627356   -0.8320697298738695   -0.17052567234417906
-1.113743184627356   -0.8320697298738695   -0.17052567234417906
-1.113743184627356   -0.8320697298738695   -0.17052567234417906
-1.113743184627356   -0.8320697298738695   -0.17052567234417906
-0.6805681622800223   -0.5259738680589559   0.08380230467767745
-0.6805681622800223   -0.5259738680589559   0.08380230467767745
-0.6805681622800223   -0.5259738680589559   0.08380230467767745
-0.6805681622800223   -0.5259738680589559   0.08380230467767745
-1.0213860468428402   -0.45712651490572986   -0.08368319838974629
-1.0213860468428402   -0.45712651490572986   -0.08368319838974629
-1.0213860468428402   -0.45712651490572986   -0.08368319838974629
-1.0213860468428402   -0.45712651490572986   -0.08368319838974629
-0.47232786517065906   -0.682911927134433   -0.06615197810369401
-0.47232786517065906   -0.682911927134433   -0.06615197810369401
-0.47232786517065906   -0.682911927134433   -0.06615197810369401
-0.47232786517065906   -0.682911927134433   -0.06615197810369401
-0.42565239704241564   -0.32107133430979257   0.013915123050299835
-0.42565239704241564   -0.32107133430979257   0.013915123050299835
-0.42565239704241564   -0.32107133430979257   0.013915123050299835
-0.42565239704241564   -0.32107133430979257   0.013915123050299835
-1.1898492269478398   -0.8080088792239631   -0.14885167410509023
-1.1898492269478398   -0.8080088792239631   -0.14885167410509023
-1.1898492269478398   -0.8080088792239631   -0.14885167410509023
-1.1898492269478398   -0.8080088792239631   -0.14885167410509023
-0.7113834257206898   -0.49561616414033   0.0887631030788984
-0.7113834257206898   -0.49561616414033   0.0887631030788984
-0.7113834257206898   -0.49561616414033   0.0887631030788984
-0.7113834257206898   -0.49561616414033   0.0887631030788984
-0.31853980772398877   -0.28013661208404994   0.020516182592157053
-0.31853980772398877   -0.28013661208404994   0.020516182592157053
-0.31853980772398877   -0.28013661208404994   0.020516182592157053
-0.31853980772398877   -0.28013661208404994   0.020516182592157053
-0.19313037275944556   -0.17609987984692338   -0.048203838929547715
-0.19313037275944556   -0.17609987984692338   -0.048203838929547715
-0.19313037275944556   -0.17609987984692338   -0.048203838929547715
-0.19313037275944556   -0.17609987984692338   -0.048203838929547715
-0.18779949542512298   -0.24998531112538935   0.020801623880442703
-0.18779949542512298   -0.24998531112538935   0.020801623880442703
-0.18779949542512298   -0.24998531112538935   0.020801623880442703
-0.18779949542512298   -0.24998531112538935   0.020801623880442703
-0.3499898964212609   -0.24333691610288938   -0.022782422833511735
-0.3499898964212609   -0.24333691610288938   -0.022782422833511735
-0.3499898964212609   -0.24333691610288938   -0.022782422833511735
-0.3499898964212609   -0.24333691610288938   -0.022782422833511735
-0.2217502724976431   -0.2004073703806224   0.09141183131789152
-0.2217502724976431   -0.2004073703806224   0.09141183131789152
-0.2217502724976431   -0.2004073703806224   0.09141183131789152
-0.2217502724976431   -0.2004073703806224   0.09141183131789152
-0.3487433578339996   -0.28192644798605887   0.022039801985956467
-0.3487433578339996   -0.28192644798605887   0.022039801985956467
-0.3487433578339996   -0.28192644798605887   0.022039801985956467
-0.3487433578339996   -0.28192644798605887   0.022039801985956467
-0.19197399374765745   -0.21432373897749177   -0.03573243988012724
-0.19197399374765745   -0.21432373897749177   -0.03573243988012724
-0.19197399374765745   -0.21432373897749177   -0.03573243988012724
-0.19197399374765745   -0.21432373897749177   -0.03573243988012724
-0.18947247318682203   -0.2575049028155457   0.0184249209070817
-0.18947247318682203   -0.2575049028155457   0.0184249209070817
-0.18947247318682203   -0.2575049028155457   0.0184249209070817
-0.18947247318682203   -0.2575049028155457   0.0184249209070817
-0.3709689663683644   -0.2843023929418285   0.042032981715174646
-0.3709689663683644   -0.2843023929418285   0.042032981715174646
-0.3709689663683644   -0.2843023929418285   0.042032981715174646
-0.3709689663683644   -0.2843023929418285   0.042032981715174646
-0.24040140571522128   -0.22315860227058257   0.07786103077288761
-0.24040140571522128   -0.22315860227058257   0.07786103077288761
-0.24040140571522128   -0.22315860227058257   0.07786103077288761
-0.24040140571522128   -0.22315860227058257   0.07786103077288761
-0.3750266276474958   -0.29234355117796706   0.029785833555648678
-0.3750266276474958   -0.29234355117796706   0.029785833555648678
-0.3750266276474958   -0.29234355117796706   0.029785833555648678
-0.3750266276474958   -0.29234355117796706   0.029785833555648678
-0.20136361275339715   -0.26541254542511494   -0.03312313431622462
-0.20136361275339715   -0.26541254542511494   -0.03312313431622462
-0.20136361275339715   -0.26541254542511494   -0.03312313431622462
-0.20136361275339715   -0.26541254542511494   -0.03312313431622462
-0.19085324666065961   -0.26596410323432734   0.025823360558734368
-0.19085324666065961   -0.26596410323432734   0.025823360558734368
-0.19085324666065961   -0.26596410323432734   0.025823360558734368
-0.19085324666065961   -0.26596410323432734   0.025823360558734368
-0.4327362591615117   -0.35077020864999603   0.008194686795023123
-0.4327362591615117   -0.35077020864999603   0.008194686795023123
-0.4327362591615117   -0.35077020864999603   0.008194686795023123
-0.4327362591615117   -0.35077020864999603   0.008194686795023123
-0.2676638407739611   -0.25475740364671895   0.03738094196363805
-0.2676638407739611   -0.25475740364671895   0.03738094196363805
-0.2676638407739611   -0.25475740364671895   0.03738094196363805
-0.2676638407739611   -0.25475740364671895   0.03738094196363805
-0.159730251262541   -0.11142970519165456   0.05412659389970614
-0.159730251262541   -0.11142970519165456   0.05412659389970614
-0.159730251262541   -0.11142970519165456   0.05412659389970614
-0.159730251262541   -0.11142970519165456   0.05412659389970614
-0.11065543560861058   0.002774952499060842   -0.010736345831318462
-0.11065543560861058   0.002774952499060842   -0.010736345831318462
-0.11065543560861058   0.002774952499060842   -0.010736345831318462
-0.11065543560861058   0.002774952499060842   -0.010736345831318462
-0.1051096908620399   -0.1201762491644902   0.033659933621235746
-0.1051096908620399   -0.1201762491644902   0.033659933621235746
-0.1051096908620399   -0.1201762491644902   0.033659933621235746
-0.1051096908620399   -0.1201762491644902   0.033659933621235746
-0.14706703335068044   -0.01812515149527006   -0.00739622537746399
-0.14706703335068044   -0.01812515149527006   -0.00739622537746399
-0.14706703335068044   -0.01812515149527006   -0.00739622537746399
-0.14706703335068044   -0.01812515149527006   -0.00739622537746399
-0.12086930722754914   -0.05970377961720851   0.026855567722757136
-0.12086930722754914   -0.05970377961720851   0.026855567722757136
-0.12086930722754914   -0.05970377961720851   0.026855567722757136
-0.12086930722754914   -0.05970377961720851   0.026855567722757136
-0.15719914819814135   -0.12713543131497113   0.05095348020493255
-0.15719914819814135   -0.12713543131497113   0.05095348020493255
-0.15719914819814135   -0.12713543131497113   0.05095348020493255
-0.15719914819814135   -0.12713543131497113   0.05095348020493255
-0.09213656359844051   -0.008324956928650635   -0.013325722296606817
-0.09213656359844051   -0.008324956928650635   -0.013325722296606817
-0.09213656359844051   -0.008324956928650635   -0.013325722296606817
-0.09213656359844051   -0.008324956928650635   -0.013325722296606817
-0.09591303435744734   -0.1307618694623784   0.030965292250071816
-0.09591303435744734   -0.1307618694623784   0.030965292250071816
-0.09591303435744734   -0.1307618694623784   0.030965292250071816
-0.09591303435744734   -0.1307618694623784   0.030965292250071816
-0.14761721752295892   -0.038172805624549326   0.008369102035401003
-0.14761721752295892   -0.038172805624549326   0.008369102035401003
-0.14761721752295892   -0.038172805624549326   0.008369102035401003
-0.14761721752295892   -0.038172805624549326   0.008369102035401003
-0.110386624435068   -0.06832534736905903   0.03234161307993281
-0.110386624435068   -0.06832534736905903   0.03234161307993281
-0.110386624435068   -0.06832534736905903   0.03234161307993281
-0.110386624435068   -0.06832534736905903   0.03234161307993281
-0.15755872158991346   -0.1376552584530585   0.058144034529137315
-0.15755872158991346   -0.1376552584530585   0.058144034529137315
-0.15755872158991346   -0.1376552584530585   0.058144034529137315
-0.15755872158991346   -0.1376552584530585   0.058144034529137315
-0.08670458759432004   -0.03201247393769646   -0.021741869458973554
-0.08670458759432004   -0.03201247393769646   -0.021741869458973554
-0.08670458759432004   -0.03201247393769646   -0.021741869458973554
-0.08670458759432004   -0.03201247393769646   -0.021741869458973554
-0.07945097369970602   -0.1424993517444727   0.03397385752674333
-0.07945097369970602   -0.1424993517444727   0.03397385752674333
-0.07945097369970602   -0.1424993517444727   0.03397385752674333
-0.07945097369970602   -0.1424993517444727   0.03397385752674333
-0.15815910053458843   -0.08772524104816432   0.01105522900292728
-0.15815910053458843   -0.08772524104816432   0.01105522900292728
-0.15815910053458843   -0.08772524104816432   0.01105522900292728
-0.15815910053458843   -0.08772524104816432   0.01105522900292728
-0.10553605784708725   -0.08643573936248049   0.02837014485195575
-0.10553605784708725   -0.08643573936248049   0.02837014485195575
-0.10553605784708725   -0.08643573936248049   0.02837014485195575
-0.10553605784708725   -0.08643573936248049   0.02837014485195575
-0.10220531609876539   -0.01998904515818379   0.054278249375152125
-0.10220531609876539   -0.01998904515818379   0.054278249375152125
-0.10220531609876539   -0.01998904515818379   0.054278249375152125
-0.10220531609876539   -0.01998904515818379   0.054278249375152125
-0.016913312129406756   0.01245760127752471   -0.0010951098044545598
-0.016913312129406756   0.01245760127752471   -0.0010951098044545598
-0.016913312129406756   0.01245760127752471   -0.0010951098044545598
-0.016913312129406756   0.01245760127752471   -0.0010951098044545598
0.007165302478509983   -0.006258740687940953   0.033443560921310324
0.007165302478509983   -0.006258740687940953   0.033443560921310324
0.007165302478509983   -0.006258740687940953   0.033443560921310324
0.007165302478509983   -0.006258740687940953   0.033443560921310324
-0.08678552402616097   0.00968489387565082   -0.004580375239510543
-0.08678552402616097   0.00968489387565082   -0.004580375239510543
-0.08678552402616097   0.00968489387565082   -0.004580375239510543
-0.08678552402616097   0.00968489387565082   -0.004580375239510543
-0.05058571867885672   -0.003688362775960987   -0.004319513731223036
-0.05058571867885672   -0.003688362775960987   -0.004319513731223036
-0.05058571867885672   -0.003688362775960987   -0.004319513731223036
-0.05058571867885672   -0.003688362775960987   -0.004319513731223036
-0.08036276426872807   -0.019174502280822178   0.05639281970412691
-0.08036276426872807   -0.019174502280822178   0.05639281970412691
-0.08036276426872807   -0.019174502280822178   0.05639281970412691
-0.08036276426872807   -0.019174502280822178   0.05639281970412691
0.0038205615001956593   0.025678674247648053   -0.015217558905880984
0.0038205615001956593   0.025678674247648053   -0.015217558905880984
0.0038205615001956593   0.025678674247648053   -0.015217558905880984
0.0038205615001956593   0.025678674247648053   -0.015217558905880984
0.01958909625611234   -0.00764954684908614   0.04119116206136405
0.01958909625611234   -0.00764954684908614   0.04119116206136405
0.01958909625611234   -0.00764954684908614   0.04119116206136405
0.01958909625611234   -0.00764954684908614   0.04119116206136405
-0.075732538278585   0.007904857524092288   -0.00679895434208713
-0.075732538278585   0.007904857524092288   -0.00679895434208713
-0.075732538278585   0.007904857524092288   -0.00679895434208713
-0.075732538278585   0.007904857524092288   -0.00679895434208713
-0.03245921792002531   -0.0005975816572692692   0.0054643764466812085
-0.03245921792002531   -0.0005975816572692692   0.0054643764466812085
-0.03245921792002531   -0.0005975816572692692   0.0054643764466812085
-0.03245921792002531   -0.0005975816572692692   0.0054643764466812085
-0.06812681987692872   -0.02133671954158899   0.06047121473187553
-0.06812681987692872   -0.02133671954158899   0.06047121473187553
-0.06812681987692872   -0.02133671954158899   0.06047121473187553
-0.06812681987692872   -0.02133671954158899   0.06047121473187553
0.014800379320668442   0.02440903168281007   -0.014811001147751659
0.014800379320668442   0.02440903168281007   -0.014811001147751659
0.014800379320668442   0.02440903168281007   -0.014811001147751659
0.014800379320668442   0.02440903168281007   -0.014811001147751659
0.032515410440701976   -0.011765306864761634   0.039899554755729906
0.032515410440701976   -0.011765306864761634   0.039899554755729906
0.032515410440701976   -0.011765306864761634   0.039899554755729906
0.032515410440701976   -0.011765306864761634   0.039899554755729906
-0.05753984533208775   0.008780478199458147   -0.007750330579096174
-0.05753984533208775   0.008780478199458147   -0.007750330579096174
-0.05753984533208775   0.008780478199458147   -0.007750330579096174
-0.05753984533208775   0.008780478199458147   -0.007750330579096174
-0.01617368677639911   0.0014844157953011867   0.014208484805101288
-0.01617368677639911   0.0014844157953011867   0.014208484805101288
-0.01617368677639911   0.0014844157953011867   0.014208484805101288
-0.01617368677639911   0.0014844157953011867   0.014208484805101288
              </DataArray>   
             <DataArray type="Float64" NumberOfComponents="3" Name="Displacements" format="ascii">   
0.0   0.0   0.0
-0.009412611319381628   -0.006164528971033425   -0.003152443019079563
0.0   0.0   0.0
0.0   0.0   0.0
-0.009412611319381628   -0.006164528971033425   -0.003152443019079563
-0.005990711370595615   -0.005537853124330625   -0.0023159891062238796
0.0   0.0   0.0
-0.00587314026480667   -0.005816389108989878   -0.0019400333599288414
0.0   0.0   0.0
0.0   0.0   0.0
-0.00587314026480667   -0.005816389108989878   -0.0019400333599288414
0.0   0.0   0.0
0.0   0.0   0.0
-0.00587314026480667   -0.005816389108989878   -0.0019400333599288414
-0.009851863300293487   -0.006567938826938538   -0.0025305650564782485
-0.009412611319381628   -0.006164528971033425   -0.003152443019079563
0.0   0.0   0.0
-0.00587314026480667   -0.005816389108989878   -0.0019400333599288414
-0.009412611319381628   -0.006164528971033425   -0.003152443019079563
0.0   0.0   0.0
0.0   0.0   0.0
-0.009851863300293487   -0.006567938826938538   -0.0025305650564782485
0.0   0.0   0.0
0.0   0.0   0.0
-0.009851863300293487   -0.006567938826938538   -0.0025305650564782485
-0.00587314026480667   -0.005816389108989878   -0.0019400333599288414
0.0   0.0   0.0
-0.005890683003194467   -0.00595901750615522   -0.0015645075058392495
0.0   0.0   0.0
0.0   0.0   0.0
-0.005890683003194467   -0.00595901750615522   -0.0015645075058392495
0.0   0.0   0.0
0.0   0.0   0.0
-0.005890683003194467   -0.00595901750615522   -0.0015645075058392495
-0.010160795305652635   -0.006764055383488332   -0.0019344973430561142
-0.009851863300293487   -0.006567938826938538   -0.0025305650564782485
0.0   0.0   0.0
-0.005890683003194467   -0.00595901750615522   -0.0015645075058392495
-0.009851863300293487   -0.006567938826938538   -0.0025305650564782485
0.0   0.0   0.0
0.0   0.0   0.0
-0.010160795305652635   -0.006764055383488332   -0.0019344973430561142
0.0   0.0   0.0
0.0   0.0   0.0
-0.010160795305652635   -0.006764055383488332   -0.0019344973430561142
-0.005890683003194467   -0.00595901750615522   -0.0015645075058392495
0.0   0.0   0.0
-0.005888690836548925   -0.00599551286784355   -0.0011760695630268795
0.0   0.0   0.0
0.0   0.0   0.0
-0.005888690836548925   -0.00599551286784355   -0.0011760695630268795
0.0   0.0   0.0
0.0   0.0   0.0
-0.005888690836548925   -0.00599551286784355   -0.0011760695630268795
-0.01082534796297548   -0.0069121963962835405   -0.0012428361087586867
-0.010160795305652635   -0.006764055383488332   -0.0019344973430561142
0.0   0.0   0.0
-0.005888690836548925   -0.00599551286784355   -0.0011760695630268795
-0.010160795305652635   -0.006764055383488332   -0.0019344973430561142
0.0   0.0   0.0
0.0   0.0   0.0
-0.005990711370595615   -0.005537853124330625   -0.0023159891062238796
0.0   0.0   0.0
0.0   0.0   0.0
-0.005990711370595615   -0.005537853124330625   -0.0023159891062238796
-0.0027270696983758887   -0.005307813611270403   -0.0017611689364113664
0.0   0.0   0.0
-0.0026238116586083746   -0.005489224644239365   -0.0015838018596479755
0.0   0.0   0.0
0.0   0.0   0.0
-0.0026238116586083746   -0.005489224644239365   -0.0015838018596479755
0.0   0.0   0.0
0.0   0.0   0.0
-0.0026238116586083746   -0.005489224644239365   -0.0015838018596479755
-0.00587314026480667   -0.005816389108989878   -0.0019400333599288414
-0.005990711370595615   -0.005537853124330625   -0.0023159891062238796
0.0   0.0   0.0
-0.0026238116586083746   -0.005489224644239365   -0.0015838018596479755
-0.005990711370595615   -0.005537853124330625   -0.0023159891062238796
0.0   0.0   0.0
0.0   0.0   0.0
-0.00587314026480667   -0.005816389108989878   -0.0019400333599288414
0.0   0.0   0.0
0.0   0.0   0.0
-0.00587314026480667   -0.005816389108989878   -0.0019400333599288414
-0.0026238116586083746   -0.005489224644239365   -0.0015838018596479755
0.0   0.0   0.0
-0.0025662191360902335   -0.005558331773099419   -0.0014109566301407158
0.0   0.0   0.0
0.0   0.0   0.0
-0.0025662191360902335   -0.005558331773099419   -0.0014109566301407158
0.0   0.0   0.0
0.0   0.0   0.0
-0.0025662191360902335   -0.005558331773099419   -0.0014109566301407158
-0.005890683003194467   -0.00595901750615522   -0.0015645075058392495
-0.00587314026480667   -0.005816389108989878   -0.0019400333599288414
0.0   0.0   0.0
-0.0025662191360902335   -0.005558331773099419   -0.0014109566301407158
-0.00587314026480667   -0.005816389108989878   -0.0019400333599288414
0.0   0.0   0.0
0.0   0.0   0.0
-0.005890683003194467   -0.00595901750615522   -0.0015645075058392495
0.0   0.0   0.0
0.0   0.0   0.0
-0.005890683003194467   -0.00595901750615522   -0.0015645075058392495
-0.0025662191360902335   -0.005558331773099419   -0.0014109566301407158
0.0   0.0   0.0
-0.002513938431786808   -0.0055294076469261785   -0.0012321513002032205
0.0   0.0   0.0
0.0   0.0   0.0
-0.002513938431786808   -0.0055294076469261785   -0.0012321513002032205
0.0   0.0   0.0
0.0   0.0   0.0
-0.002513938431786808   -0.0055294076469261785   -0.0012321513002032205
-0.005888690836548925   -0.00599551286784355   -0.0011760695630268795
-0.005890683003194467   -0.00595901750615522   -0.0015645075058392495
0.0   0.0   0.0
-0.002513938431786808   -0.0055294076469261785   -0.0012321513002032205
-0.005890683003194467   -0.00595901750615522   -0.0015645075058392495
0.0   0.0   0.0
0.0   0.0   0.0
-0.0027270696983758887   -0.005307813611270403   -0.0017611689364113664
0.0   0.0   0.0
0.0   0.0   0.0
-0.0027270696983758887   -0.005307813611270403   -0.0017611689364113664
0.0003572956532882259   -0.005337134933704063   -0.0014073594886769476
0.0   0.0   0.0
0.00042275106292405227   -0.005431288943849443   -0.0014321841746147168
0.0   0.0   0.0
0.0   0.0   0.0
0.00042275106292405227   -0.005431288943849443   -0.0014321841746147168
0.0   0.0   0.0
0.0   0.0   0.0
0.00042275106292405227   -0.005431288943849443   -0.0014321841746147168
-0.0026238116586083746   -0.005489224644239365   -0.0015838018596479755
-0.0027270696983758887   -0.005307813611270403   -0.0017611689364113664
0.0   0.0   0.0
0.00042275106292405227   -0.005431288943849443   -0.0014321841746147168
-0.0027270696983758887   -0.005307813611270403   -0.0017611689364113664
0.0   0.0   0.0
0.0   0.0   0.0
-0.0026238116586083746   -0.005489224644239365   -0.0015838018596479755
0.0   0.0   0.0
0.0   0.0   0.0
-0.0026238116586083746   -0.005489224644239365   -0.0015838018596479755
0.00042275106292405227   -0.005431288943849443   -0.0014321841746147168
0.0   0.0   0.0
0.00047428316397253096   -0.005423593880521947   -0.001454513289548042
0.0   0.0   0.0
0.0   0.0   0.0
0.00047428316397253096   -0.005423593880521947   -0.001454513289548042
0.0   0.0   0.0
0.0   0.0   0.0
0.00047428316397253096   -0.005423593880521947   -0.001454513289548042
-0.0025662191360902335   -0.005558331773099419   -0.0014109566301407158
-0.0026238116586083746   -0.005489224644239365   -0.0015838018596479755
0.0   0.0   0.0
0.00047428316397253096   -0.005423593880521947   -0.001454513289548042
-0.0026238116586083746   -0.005489224644239365   -0.0015838018596479755
0.0   0.0   0.0
0.0   0.0   0.0
-0.0025662191360902335   -0.005558331773099419   -0.0014109566301407158
0.0   0.0   0.0
0.0   0.0   0.0
-0.0025662191360902335   -0.005558331773099419   -0.0014109566301407158
0.00047428316397253096   -0.005423593880521947   -0.001454513289548042
0.0   0.0   0.0
0.0005439449844102061   -0.005305678301399931   -0.001477347907212598
0.0   0.0   0.0
0.0   0.0   0.0
0.0005439449844102061   -0.005305678301399931   -0.001477347907212598
0.0   0.0   0.0
0.0   0.0   0.0
0.0005439449844102061   -0.005305678301399931   -0.001477347907212598
-0.002513938431786808   -0.0055294076469261785   -0.0012321513002032205
-0.0025662191360902335   -0.005558331773099419   -0.0014109566301407158
0.0   0.0   0.0
0.0005439449844102061   -0.005305678301399931   -0.001477347907212598
-0.0025662191360902335   -0.005558331773099419   -0.0014109566301407158
0.0   0.0   0.0
0.0   0.0   0.0
0.0003572956532882259   -0.005337134933704063   -0.0014073594886769476
0.0   0.0   0.0
0.0   0.0   0.0
0.0003572956532882259   -0.005337134933704063   -0.0014073594886769476
0.0037044942873399266   -0.005597831442433714   -0.0012320489212974033
0.0   0.0   0.0
0.003709794519585482   -0.0056279852589112755   -0.00146961570317608
0.0   0.0   0.0
0.0   0.0   0.0
0.003709794519585482   -0.0056279852589112755   -0.00146961570317608
0.0   0.0   0.0
0.0   0.0   0.0
0.003709794519585482   -0.0056279852589112755   -0.00146961570317608
0.00042275106292405227   -0.005431288943849443   -0.0014321841746147168
0.0003572956532882259   -0.005337134933704063   -0.0014073594886769476
0.0   0.0   0.0
0.003709794519585482   -0.0056279852589112755   -0.00146961570317608
0.0003572956532882259   -0.005337134933704063   -0.0014073594886769476
0.0   0.0   0.0
0.0   0.0   0.0
0.00042275106292405227   -0.005431288943849443   -0.0014321841746147168
0.0   0.0   0.0
0.0   0.0   0.0
0.00042275106292405227   -0.005431288943849443   -0.0014321841746147168
0.003709794519585482   -0.0056279852589112755   -0.00146961570317608
0.0   0.0   0.0
0.0036927969111664465   -0.005547610534238428   -0.0016973914550908378
0.0   0.0   0.0
0.0   0.0   0.0
0.0036927969111664465   -0.005547610534238428   -0.0016973914550908378
0.0   0.0   0.0
0.0   0.0   0.0
0.0036927969111664465   -0.005547610534238428   -0.0016973914550908378
0.00047428316397253096   -0.005423593880521947   -0.001454513289548042
0.00042275106292405227   -0.005431288943849443   -0.0014321841746147168
0.0   0.0   0.0
0.0036927969111664465   -0.005547610534238428   -0.0016973914550908378
0.00042275106292405227   -0.005431288943849443   -0.0014321841746147168
0.0   0.0   0.0
0.0   0.0   0.0
0.00047428316397253096   -0.005423593880521947   -0.001454513289548042
0.0   0.0   0.0
0.0   0.0   0.0
0.00047428316397253096   -0.005423593880521947   -0.001454513289548042
0.0036927969111664465   -0.005547610534238428   -0.0016973914550908378
0.0   0.0   0.0
0.0037632495810860276   -0.005331989166320171   -0.0019207295981855514
0.0   0.0   0.0
0.0   0.0   0.0
0.0037632495810860276   -0.005331989166320171   -0.0019207295981855514
0.0   0.0   0.0
0.0   0.0   0.0
0.0037632495810860276   -0.005331989166320171   -0.0019207295981855514
0.0005439449844102061   -0.005305678301399931   -0.001477347907212598
0.00047428316397253096   -0.005423593880521947   -0.001454513289548042
0.0   0.0   0.0
0.0037632495810860276   -0.005331989166320171   -0.0019207295981855514
0.00047428316397253096   -0.005423593880521947   -0.001454513289548042
0.0   0.0   0.0
0.0   0.0   0.0
0.0037044942873399266   -0.005597831442433714   -0.0012320489212974033
0.0   0.0   0.0
0.0   0.0   0.0
0.0037044942873399266   -0.005597831442433714   -0.0012320489212974033
0.008356620073948967   -0.0062581764074638654   -0.0011616710224075974
0.0   0.0   0.0
0.00784654313276162   -0.006190241595696338   -0.0016999183334051034
0.0   0.0   0.0
0.0   0.0   0.0
0.00784654313276162   -0.006190241595696338   -0.0016999183334051034
0.0   0.0   0.0
0.0   0.0   0.0
0.00784654313276162   -0.006190241595696338   -0.0016999183334051034
0.003709794519585482   -0.0056279852589112755   -0.00146961570317608
0.0037044942873399266   -0.005597831442433714   -0.0012320489212974033
0.0   0.0   0.0
0.00784654313276162   -0.006190241595696338   -0.0016999183334051034
0.0037044942873399266   -0.005597831442433714   -0.0012320489212974033
0.0   0.0   0.0
0.0   0.0   0.0
0.003709794519585482   -0.0056279852589112755   -0.00146961570317608
0.0   0.0   0.0
0.0   0.0   0.0
0.003709794519585482   -0.0056279852589112755   -0.00146961570317608
0.00784654313276162   -0.006190241595696338   -0.0016999183334051034
0.0   0.0   0.0
0.007610825292306102   -0.006061530927327642   -0.002154975421875124
0.0   0.0   0.0
0.0   0.0   0.0
0.007610825292306102   -0.006061530927327642   -0.002154975421875124
0.0   0.0   0.0
0.0   0.0   0.0
0.007610825292306102   -0.006061530927327642   -0.002154975421875124
0.0036927969111664465   -0.005547610534238428   -0.0016973914550908378
0.003709794519585482   -0.0056279852589112755   -0.00146961570317608
0.0   0.0   0.0
0.007610825292306102   -0.006061530927327642   -0.002154975421875124
0.003709794519585482   -0.0056279852589112755   -0.00146961570317608
0.0   0.0   0.0
0.0   0.0   0.0
0.0036927969111664465   -0.005547610534238428   -0.0016973914550908378
0.0   0.0   0.0
0.0   0.0   0.0
0.0036927969111664465   -0.005547610534238428   -0.0016973914550908378
0.007610825292306102   -0.006061530927327642   -0.002154975421875124
0.0   0.0   0.0
0.007260682926483484   -0.005731899867715044   -0.002636304014684864
0.0   0.0   0.0
0.0   0.0   0.0
0.007260682926483484   -0.005731899867715044   -0.002636304014684864
0.0   0.0   0.0
0.0   0.0   0.0
0.007260682926483484   -0.005731899867715044   -0.002636304014684864
0.0037632495810860276   -0.005331989166320171   -0.0019207295981855514
0.0036927969111664465   -0.005547610534238428   -0.0016973914550908378
0.0   0.0   0.0
0.007260682926483484   -0.005731899867715044   -0.002636304014684864
0.0036927969111664465   -0.005547610534238428   -0.0016973914550908378
0.0   0.0   0.0
-0.009412611319381628   -0.006164528971033425   -0.003152443019079563
-0.017589001867942954   -0.017223828734850878   -0.0042467677939446195
-0.005990711370595615   -0.005537853124330625   -0.0023159891062238796
-0.009851863300293487   -0.006567938826938538   -0.0025305650564782485
-0.017589001867942954   -0.017223828734850878   -0.0042467677939446195
-0.011226758450138522   -0.0166599207050699   -0.0034947413315957942
-0.005990711370595615   -0.005537853124330625   -0.0023159891062238796
-0.01124147692416904   -0.016945066197944836   -0.003146802308547905
-0.009851863300293487   -0.006567938826938538   -0.0025305650564782485
-0.00587314026480667   -0.005816389108989878   -0.0019400333599288414
-0.01124147692416904   -0.016945066197944836   -0.003146802308547905
-0.005990711370595615   -0.005537853124330625   -0.0023159891062238796
-0.009851863300293487   -0.006567938826938538   -0.0025305650564782485
-0.01124147692416904   -0.016945066197944836   -0.003146802308547905
-0.018117912686136772   -0.017621566278439815   -0.0036815519917248515
-0.017589001867942954   -0.017223828734850878   -0.0042467677939446195
-0.009851863300293487   -0.006567938826938538   -0.0025305650564782485
-0.01124147692416904   -0.016945066197944836   -0.003146802308547905
-0.017589001867942954   -0.017223828734850878   -0.0042467677939446195
-0.005990711370595615   -0.005537853124330625   -0.0023159891062238796
-0.009851863300293487   -0.006567938826938538   -0.0025305650564782485
-0.018117912686136772   -0.017621566278439815   -0.0036815519917248515
-0.00587314026480667   -0.005816389108989878   -0.0019400333599288414
-0.010160795305652635   -0.006764055383488332   -0.0019344973430561142
-0.018117912686136772   -0.017621566278439815   -0.0036815519917248515
-0.01124147692416904   -0.016945066197944836   -0.003146802308547905
-0.00587314026480667   -0.005816389108989878   -0.0019400333599288414
-0.011287313929036846   -0.017118760532962223   -0.0028123527038288773
-0.010160795305652635   -0.006764055383488332   -0.0019344973430561142
-0.005890683003194467   -0.00595901750615522   -0.0015645075058392495
-0.011287313929036846   -0.017118760532962223   -0.0028123527038288773
-0.00587314026480667   -0.005816389108989878   -0.0019400333599288414
-0.010160795305652635   -0.006764055383488332   -0.0019344973430561142
-0.011287313929036846   -0.017118760532962223   -0.0028123527038288773
-0.018486009733041465   -0.01784606420369218   -0.0031279787142708005
-0.018117912686136772   -0.017621566278439815   -0.0036815519917248515
-0.010160795305652635   -0.006764055383488332   -0.0019344973430561142
-0.011287313929036846   -0.017118760532962223   -0.0028123527038288773
-0.018117912686136772   -0.017621566278439815   -0.0036815519917248515
-0.00587314026480667   -0.005816389108989878   -0.0019400333599288414
-0.010160795305652635   -0.006764055383488332   -0.0019344973430561142
-0.018486009733041465   -0.01784606420369218   -0.0031279787142708005
-0.005890683003194467   -0.00595901750615522   -0.0015645075058392495
-0.01082534796297548   -0.0069121963962835405   -0.0012428361087586867
-0.018486009733041465   -0.01784606420369218   -0.0031279787142708005
-0.011287313929036846   -0.017118760532962223   -0.0028123527038288773
-0.005890683003194467   -0.00595901750615522   -0.0015645075058392495
-0.01125530785172566   -0.017208675987306785   -0.0024992021489641646
-0.01082534796297548   -0.0069121963962835405   -0.0012428361087586867
-0.005888690836548925   -0.00599551286784355   -0.0011760695630268795
-0.01125530785172566   -0.017208675987306785   -0.0024992021489641646
-0.005890683003194467   -0.00595901750615522   -0.0015645075058392495
-0.01082534796297548   -0.0069121963962835405   -0.0012428361087586867
-0.01125530785172566   -0.017208675987306785   -0.0024992021489641646
-0.018921152448580548   -0.017976206688519028   -0.002624120528315463
-0.018486009733041465   -0.01784606420369218   -0.0031279787142708005
-0.01082534796297548   -0.0069121963962835405   -0.0012428361087586867
-0.01125530785172566   -0.017208675987306785   -0.0024992021489641646
-0.018486009733041465   -0.01784606420369218   -0.0031279787142708005
-0.005890683003194467   -0.00595901750615522   -0.0015645075058392495
-0.005990711370595615   -0.005537853124330625   -0.0023159891062238796
-0.011226758450138522   -0.0166599207050699   -0.0034947413315957942
-0.0027270696983758887   -0.005307813611270403   -0.0017611689364113664
-0.00587314026480667   -0.005816389108989878   -0.0019400333599288414
-0.011226758450138522   -0.0166599207050699   -0.0034947413315957942
-0.005206663168964349   -0.01639753657156616   -0.002981249297249061
-0.0027270696983758887   -0.005307813611270403   -0.0017611689364113664
-0.00516323153311505   -0.016579138886928454   -0.0028030854802008546
-0.00587314026480667   -0.005816389108989878   -0.0019400333599288414
-0.0026238116586083746   -0.005489224644239365   -0.0015838018596479755
-0.00516323153311505   -0.016579138886928454   -0.0028030854802008546
-0.0027270696983758887   -0.005307813611270403   -0.0017611689364113664
-0.00587314026480667   -0.005816389108989878   -0.0019400333599288414
-0.00516323153311505   -0.016579138886928454   -0.0028030854802008546
-0.01124147692416904   -0.016945066197944836   -0.003146802308547905
-0.011226758450138522   -0.0166599207050699   -0.0034947413315957942
-0.00587314026480667   -0.005816389108989878   -0.0019400333599288414
-0.00516323153311505   -0.016579138886928454   -0.0028030854802008546
-0.011226758450138522   -0.0166599207050699   -0.0034947413315957942
-0.0027270696983758887   -0.005307813611270403   -0.0017611689364113664
-0.00587314026480667   -0.005816389108989878   -0.0019400333599288414
-0.01124147692416904   -0.016945066197944836   -0.003146802308547905
-0.0026238116586083746   -0.005489224644239365   -0.0015838018596479755
-0.005890683003194467   -0.00595901750615522   -0.0015645075058392495
-0.01124147692416904   -0.016945066197944836   -0.003146802308547905
-0.00516323153311505   -0.016579138886928454   -0.0028030854802008546
-0.0026238116586083746   -0.005489224644239365   -0.0015838018596479755
-0.0051249116991738475   -0.01666716658098382   -0.0026415135982215967
-0.005890683003194467   -0.00595901750615522   -0.0015645075058392495
-0.0025662191360902335   -0.005558331773099419   -0.0014109566301407158
-0.0051249116991738475   -0.01666716658098382   -0.0026415135982215967
-0.0026238116586083746   -0.005489224644239365   -0.0015838018596479755
-0.005890683003194467   -0.00595901750615522   -0.0015645075058392495
-0.0051249116991738475   -0.01666716658098382   -0.0026415135982215967
-0.011287313929036846   -0.017118760532962223   -0.0028123527038288773
-0.01124147692416904   -0.016945066197944836   -0.003146802308547905
-0.005890683003194467   -0.00595901750615522   -0.0015645075058392495
-0.0051249116991738475   -0.01666716658098382   -0.0026415135982215967
-0.01124147692416904   -0.016945066197944836   -0.003146802308547905
-0.0026238116586083746   -0.005489224644239365   -0.0015838018596479755
-0.005890683003194467   -0.00595901750615522   -0.0015645075058392495
-0.011287313929036846   -0.017118760532962223   -0.0028123527038288773
-0.0025662191360902335   -0.005558331773099419   -0.0014109566301407158
-0.005888690836548925   -0.00599551286784355   -0.0011760695630268795
-0.011287313929036846   -0.017118760532962223   -0.0028123527038288773
-0.0051249116991738475   -0.01666716658098382   -0.0026415135982215967
-0.0025662191360902335   -0.005558331773099419   -0.0014109566301407158
-0.005067032874938073   -0.01666494157877852   -0.0025007717098076217
-0.005888690836548925   -0.00599551286784355   -0.0011760695630268795
-0.002513938431786808   -0.0055294076469261785   -0.0012321513002032205
-0.005067032874938073   -0.01666494157877852   -0.0025007717098076217
-0.0025662191360902335   -0.005558331773099419   -0.0014109566301407158
-0.005888690836548925   -0.00599551286784355   -0.0011760695630268795
-0.005067032874938073   -0.01666494157877852   -0.0025007717098076217
-0.01125530785172566   -0.017208675987306785   -0.0024992021489641646
-0.011287313929036846   -0.017118760532962223   -0.0028123527038288773
-0.005888690836548925   -0.00599551286784355   -0.0011760695630268795
-0.005067032874938073   -0.01666494157877852   -0.0025007717098076217
-0.011287313929036846   -0.017118760532962223   -0.0028123527038288773
-0.0025662191360902335   -0.005558331773099419   -0.0014109566301407158
-0.0027270696983758887   -0.005307813611270403   -0.0017611689364113664
-0.005206663168964349   -0.01639753657156616   -0.002981249297249061
0.0003572956532882259   -0.005337134933704063   -0.0014073594886769476
-0.0026238116586083746   -0.005489224644239365   -0.0015838018596479755
-0.005206663168964349   -0.01639753657156616   -0.002981249297249061
0.0005994851496427715   -0.016405259484227618   -0.0026563096507659033
0.0003572956532882259   -0.005337134933704063   -0.0014073594886769476
0.0006531275076086227   -0.016491479614354574   -0.0026447878415495566
-0.0026238116586083746   -0.005489224644239365   -0.0015838018596479755
0.00042275106292405227   -0.005431288943849443   -0.0014321841746147168
0.0006531275076086227   -0.016491479614354574   -0.0026447878415495566
0.0003572956532882259   -0.005337134933704063   -0.0014073594886769476
-0.0026238116586083746   -0.005489224644239365   -0.0015838018596479755
0.0006531275076086227   -0.016491479614354574   -0.0026447878415495566
-0.00516323153311505   -0.016579138886928454   -0.0028030854802008546
-0.005206663168964349   -0.01639753657156616   -0.002981249297249061
-0.0026238116586083746   -0.005489224644239365   -0.0015838018596479755
0.0006531275076086227   -0.016491479614354574   -0.0026447878415495566
-0.005206663168964349   -0.01639753657156616   -0.002981249297249061
0.0003572956532882259   -0.005337134933704063   -0.0014073594886769476
-0.0026238116586083746   -0.005489224644239365   -0.0015838018596479755
-0.00516323153311505   -0.016579138886928454   -0.0028030854802008546
0.00042275106292405227   -0.005431288943849443   -0.0014321841746147168
-0.0025662191360902335   -0.005558331773099419   -0.0014109566301407158
-0.00516323153311505   -0.016579138886928454   -0.0028030854802008546
0.0006531275076086227   -0.016491479614354574   -0.0026447878415495566
0.00042275106292405227   -0.005431288943849443   -0.0014321841746147168
0.000688748482836282   -0.016486323839680548   -0.0026521032789641867
-0.0025662191360902335   -0.005558331773099419   -0.0014109566301407158
0.00047428316397253096   -0.005423593880521947   -0.001454513289548042
0.000688748482836282   -0.016486323839680548   -0.0026521032789641867
0.00042275106292405227   -0.005431288943849443   -0.0014321841746147168
-0.0025662191360902335   -0.005558331773099419   -0.0014109566301407158
0.000688748482836282   -0.016486323839680548   -0.0026521032789641867
-0.0051249116991738475   -0.01666716658098382   -0.0026415135982215967
-0.00516323153311505   -0.016579138886928454   -0.0028030854802008546
-0.0025662191360902335   -0.005558331773099419   -0.0014109566301407158
0.000688748482836282   -0.016486323839680548   -0.0026521032789641867
-0.00516323153311505   -0.016579138886928454   -0.0028030854802008546
0.00042275106292405227   -0.005431288943849443   -0.0014321841746147168
-0.0025662191360902335   -0.005558331773099419   -0.0014109566301407158
-0.0051249116991738475   -0.01666716658098382   -0.0026415135982215967
0.00047428316397253096   -0.005423593880521947   -0.001454513289548042
-0.002513938431786808   -0.0055294076469261785   -0.0012321513002032205
-0.0051249116991738475   -0.01666716658098382   -0.0026415135982215967
0.000688748482836282   -0.016486323839680548   -0.0026521032789641867
0.00047428316397253096   -0.005423593880521947   -0.001454513289548042
0.0007270753704806062   -0.016386996535427245   -0.002678555696416051
-0.002513938431786808   -0.0055294076469261785   -0.0012321513002032205
0.0005439449844102061   -0.005305678301399931   -0.001477347907212598
0.0007270753704806062   -0.016386996535427245   -0.002678555696416051
0.00047428316397253096   -0.005423593880521947   -0.001454513289548042
-0.002513938431786808   -0.0055294076469261785   -0.0012321513002032205
0.0007270753704806062   -0.016386996535427245   -0.002678555696416051
-0.005067032874938073   -0.01666494157877852   -0.0025007717098076217
-0.0051249116991738475   -0.01666716658098382   -0.0026415135982215967
-0.002513938431786808   -0.0055294076469261785   -0.0012321513002032205
0.0007270753704806062   -0.016386996535427245   -0.002678555696416051
-0.0051249116991738475   -0.01666716658098382   -0.0026415135982215967
0.00047428316397253096   -0.005423593880521947   -0.001454513289548042
0.0003572956532882259   -0.005337134933704063   -0.0014073594886769476
0.0005994851496427715   -0.016405259484227618   -0.0026563096507659033
0.0037044942873399266   -0.005597831442433714   -0.0012320489212974033
0.00042275106292405227   -0.005431288943849443   -0.0014321841746147168
0.0005994851496427715   -0.016405259484227618   -0.0026563096507659033
0.006751550747464405   -0.016673310659085186   -0.002504271316514129
0.0037044942873399266   -0.005597831442433714   -0.0012320489212974033
0.006781085170030846   -0.016672929245549042   -0.0026648057886130925
0.00042275106292405227   -0.005431288943849443   -0.0014321841746147168
0.003709794519585482   -0.0056279852589112755   -0.00146961570317608
0.006781085170030846   -0.016672929245549042   -0.0026648057886130925
0.0037044942873399266   -0.005597831442433714   -0.0012320489212974033
0.00042275106292405227   -0.005431288943849443   -0.0014321841746147168
0.006781085170030846   -0.016672929245549042   -0.0026648057886130925
0.0006531275076086227   -0.016491479614354574   -0.0026447878415495566
0.0005994851496427715   -0.016405259484227618   -0.0026563096507659033
0.00042275106292405227   -0.005431288943849443   -0.0014321841746147168
0.006781085170030846   -0.016672929245549042   -0.0026648057886130925
0.0005994851496427715   -0.016405259484227618   -0.0026563096507659033
0.0037044942873399266   -0.005597831442433714   -0.0012320489212974033
0.00042275106292405227   -0.005431288943849443   -0.0014321841746147168
0.0006531275076086227   -0.016491479614354574   -0.0026447878415495566
0.003709794519585482   -0.0056279852589112755   -0.00146961570317608
0.00047428316397253096   -0.005423593880521947   -0.001454513289548042
0.0006531275076086227   -0.016491479614354574   -0.0026447878415495566
0.006781085170030846   -0.016672929245549042   -0.0026648057886130925
0.003709794519585482   -0.0056279852589112755   -0.00146961570317608
0.006748125530479593   -0.016582903841393094   -0.002846653776503765
0.00047428316397253096   -0.005423593880521947   -0.001454513289548042
0.0036927969111664465   -0.005547610534238428   -0.0016973914550908378
0.006748125530479593   -0.016582903841393094   -0.002846653776503765
0.003709794519585482   -0.0056279852589112755   -0.00146961570317608
0.00047428316397253096   -0.005423593880521947   -0.001454513289548042
0.006748125530479593   -0.016582903841393094   -0.002846653776503765
0.000688748482836282   -0.016486323839680548   -0.0026521032789641867
0.0006531275076086227   -0.016491479614354574   -0.0026447878415495566
0.00047428316397253096   -0.005423593880521947   -0.001454513289548042
0.006748125530479593   -0.016582903841393094   -0.002846653776503765
0.0006531275076086227   -0.016491479614354574   -0.0026447878415495566
0.003709794519585482   -0.0056279852589112755   -0.00146961570317608
0.00047428316397253096   -0.005423593880521947   -0.001454513289548042
0.000688748482836282   -0.016486323839680548   -0.0026521032789641867
0.0036927969111664465   -0.005547610534238428   -0.0016973914550908378
0.0005439449844102061   -0.005305678301399931   -0.001477347907212598
0.000688748482836282   -0.016486323839680548   -0.0026521032789641867
0.006748125530479593   -0.016582903841393094   -0.002846653776503765
0.0036927969111664465   -0.005547610534238428   -0.0016973914550908378
0.006728648433133526   -0.016378554382016765   -0.0030430927598124958
0.0005439449844102061   -0.005305678301399931   -0.001477347907212598
0.0037632495810860276   -0.005331989166320171   -0.0019207295981855514
0.006728648433133526   -0.016378554382016765   -0.0030430927598124958
0.0036927969111664465   -0.005547610534238428   -0.0016973914550908378
0.0005439449844102061   -0.005305678301399931   -0.001477347907212598
0.006728648433133526   -0.016378554382016765   -0.0030430927598124958
0.0007270753704806062   -0.016386996535427245   -0.002678555696416051
0.000688748482836282   -0.016486323839680548   -0.0026521032789641867
0.0005439449844102061   -0.005305678301399931   -0.001477347907212598
0.006728648433133526   -0.016378554382016765   -0.0030430927598124958
0.000688748482836282   -0.016486323839680548   -0.0026521032789641867
0.0036927969111664465   -0.005547610534238428   -0.0016973914550908378
0.0037044942873399266   -0.005597831442433714   -0.0012320489212974033
0.006751550747464405   -0.016673310659085186   -0.002504271316514129
0.008356620073948967   -0.0062581764074638654   -0.0011616710224075974
0.003709794519585482   -0.0056279852589112755   -0.00146961570317608
0.006751550747464405   -0.016673310659085186   -0.002504271316514129
0.01417323370251861   -0.017171838274667076   -0.0024624882671023664
0.008356620073948967   -0.0062581764074638654   -0.0011616710224075974
0.013882515718470014   -0.01712550293510547   -0.0028234329558908425
0.003709794519585482   -0.0056279852589112755   -0.00146961570317608
0.00784654313276162   -0.006190241595696338   -0.0016999183334051034
0.013882515718470014   -0.01712550293510547   -0.0028234329558908425
0.008356620073948967   -0.0062581764074638654   -0.0011616710224075974
0.003709794519585482   -0.0056279852589112755   -0.00146961570317608
0.013882515718470014   -0.01712550293510547   -0.0028234329558908425
0.006781085170030846   -0.016672929245549042   -0.0026648057886130925
0.006751550747464405   -0.016673310659085186   -0.002504271316514129
0.003709794519585482   -0.0056279852589112755   -0.00146961570317608
0.013882515718470014   -0.01712550293510547   -0.0028234329558908425
0.006751550747464405   -0.016673310659085186   -0.002504271316514129
0.008356620073948967   -0.0062581764074638654   -0.0011616710224075974
0.003709794519585482   -0.0056279852589112755   -0.00146961570317608
0.006781085170030846   -0.016672929245549042   -0.0026648057886130925
0.00784654313276162   -0.006190241595696338   -0.0016999183334051034
0.0036927969111664465   -0.005547610534238428   -0.0016973914550908378
0.006781085170030846   -0.016672929245549042   -0.0026648057886130925
0.013882515718470014   -0.01712550293510547   -0.0028234329558908425
0.00784654313276162   -0.006190241595696338   -0.0016999183334051034
0.013622908262967652   -0.016986628724444966   -0.0032292417116316285
0.0036927969111664465   -0.005547610534238428   -0.0016973914550908378
0.007610825292306102   -0.006061530927327642   -0.002154975421875124
0.013622908262967652   -0.016986628724444966   -0.0032292417116316285
0.00784654313276162   -0.006190241595696338   -0.0016999183334051034
0.0036927969111664465   -0.005547610534238428   -0.0016973914550908378
0.013622908262967652   -0.016986628724444966   -0.0032292417116316285
0.006748125530479593   -0.016582903841393094   -0.002846653776503765
0.006781085170030846   -0.016672929245549042   -0.0026648057886130925
0.0036927969111664465   -0.005547610534238428   -0.0016973914550908378
0.013622908262967652   -0.016986628724444966   -0.0032292417116316285
0.006781085170030846   -0.016672929245549042   -0.0026648057886130925
0.00784654313276162   -0.006190241595696338   -0.0016999183334051034
0.0036927969111664465   -0.005547610534238428   -0.0016973914550908378
0.006748125530479593   -0.016582903841393094   -0.002846653776503765
0.007610825292306102   -0.006061530927327642   -0.002154975421875124
0.0037632495810860276   -0.005331989166320171   -0.0019207295981855514
0.006748125530479593   -0.016582903841393094   -0.002846653776503765
0.013622908262967652   -0.016986628724444966   -0.0032292417116316285
0.007610825292306102   -0.006061530927327642   -0.002154975421875124
0.013234903394582997   -0.016677130264351414   -0.0036515238354486537
0.0037632495810860276   -0.005331989166320171   -0.0019207295981855514
0.007260682926483484   -0.005731899867715044   -0.002636304014684864
0.013234903394582997   -0.016677130264351414   -0.0036515238354486537
0.007610825292306102   -0.006061530927327642   -0.002154975421875124
0.0037632495810860276   -0.005331989166320171   -0.0019207295981855514
0.013234903394582997   -0.016677130264351414   -0.0036515238354486537
0.006728648433133526   -0.016378554382016765   -0.0030430927598124958
0.006748125530479593   -0.016582903841393094   -0.002846653776503765
0.0037632495810860276   -0.005331989166320171   -0.0019207295981855514
0.013234903394582997   -0.016677130264351414   -0.0036515238354486537
0.006748125530479593   -0.016582903841393094   -0.002846653776503765
0.007610825292306102   -0.006061530927327642   -0.002154975421875124
-0.017589001867942954   -0.017223828734850878   -0.0042467677939446195
-0.024110144675684977   -0.032322777277831255   -0.004835870047264197
-0.011226758450138522   -0.0166599207050699   -0.0034947413315957942
-0.018117912686136772   -0.017621566278439815   -0.0036815519917248515
-0.024110144675684977   -0.032322777277831255   -0.004835870047264197
-0.015500053860837035   -0.03189148383513953   -0.0042253113847300515
-0.011226758450138522   -0.0166599207050699   -0.0034947413315957942
-0.015535779477622564   -0.03213782203122295   -0.003955153975604015
-0.018117912686136772   -0.017621566278439815   -0.0036815519917248515
-0.01124147692416904   -0.016945066197944836   -0.003146802308547905
-0.015535779477622564   -0.03213782203122295   -0.003955153975604015
-0.011226758450138522   -0.0166599207050699   -0.0034947413315957942
-0.018117912686136772   -0.017621566278439815   -0.0036815519917248515
-0.015535779477622564   -0.03213782203122295   -0.003955153975604015
-0.02454126271253569   -0.03265934101280139   -0.004413870283794828
-0.024110144675684977   -0.032322777277831255   -0.004835870047264197
-0.018117912686136772   -0.017621566278439815   -0.0036815519917248515
-0.015535779477622564   -0.03213782203122295   -0.003955153975604015
-0.024110144675684977   -0.032322777277831255   -0.004835870047264197
-0.011226758450138522   -0.0166599207050699   -0.0034947413315957942
-0.018117912686136772   -0.017621566278439815   -0.0036815519917248515
-0.02454126271253569   -0.03265934101280139   -0.004413870283794828
-0.01124147692416904   -0.016945066197944836   -0.003146802308547905
-0.018486009733041465   -0.01784606420369218   -0.0031279787142708005
-0.02454126271253569   -0.03265934101280139   -0.004413870283794828
-0.015535779477622564   -0.03213782203122295   -0.003955153975604015
-0.01124147692416904   -0.016945066197944836   -0.003146802308547905
-0.015577636908138369   -0.03230912253308203   -0.003704485325556551
-0.018486009733041465   -0.01784606420369218   -0.0031279787142708005
-0.011287313929036846   -0.017118760532962223   -0.0028123527038288773
-0.015577636908138369   -0.03230912253308203   -0.003704485325556551
-0.01124147692416904   -0.016945066197944836   -0.003146802308547905
-0.018486009733041465   -0.01784606420369218   -0.0031279787142708005
-0.015577636908138369   -0.03230912253308203   -0.003704485325556551
-0.024813843436603342   -0.03287024433334151   -0.0040204443573098455
-0.02454126271253569   -0.03265934101280139   -0.004413870283794828
-0.018486009733041465   -0.01784606420369218   -0.0031279787142708005
-0.015577636908138369   -0.03230912253308203   -0.003704485325556551
-0.02454126271253569   -0.03265934101280139   -0.004413870283794828
-0.01124147692416904   -0.016945066197944836   -0.003146802308547905
-0.018486009733041465   -0.01784606420369218   -0.0031279787142708005
-0.024813843436603342   -0.03287024433334151   -0.0040204443573098455
-0.011287313929036846   -0.017118760532962223   -0.0028123527038288773
-0.018921152448580548   -0.017976206688519028   -0.002624120528315463
-0.024813843436603342   -0.03287024433334151   -0.0040204443573098455
-0.015577636908138369   -0.03230912253308203   -0.003704485325556551
-0.011287313929036846   -0.017118760532962223   -0.0028123527038288773
-0.015550277007258126   -0.03242162444378788   -0.0034691576813387724
-0.018921152448580548   -0.017976206688519028   -0.002624120528315463
-0.01125530785172566   -0.017208675987306785   -0.0024992021489641646
-0.015550277007258126   -0.03242162444378788   -0.0034691576813387724
-0.011287313929036846   -0.017118760532962223   -0.0028123527038288773
-0.018921152448580548   -0.017976206688519028   -0.002624120528315463
-0.015550277007258126   -0.03242162444378788   -0.0034691576813387724
-0.02512398643507714   -0.0330216010125848   -0.0036582628770457835
-0.024813843436603342   -0.03287024433334151   -0.0040204443573098455
-0.018921152448580548   -0.017976206688519028   -0.002624120528315463
-0.015550277007258126   -0.03242162444378788   -0.0034691576813387724
-0.024813843436603342   -0.03287024433334151   -0.0040204443573098455
-0.011287313929036846   -0.017118760532962223   -0.0028123527038288773
-0.011226758450138522   -0.0166599207050699   -0.0034947413315957942
-0.015500053860837035   -0.03189148383513953   -0.0042253113847300515
-0.005206663168964349   -0.01639753657156616   -0.002981249297249061
-0.01124147692416904   -0.016945066197944836   -0.003146802308547905
-0.015500053860837035   -0.03189148383513953   -0.0042253113847300515
-0.007379541819901601   -0.031676582785467755   -0.0038010511353788593
-0.005206663168964349   -0.01639753657156616   -0.002981249297249061
-0.007362794403131869   -0.03183421792947882   -0.003648533342901726
-0.01124147692416904   -0.016945066197944836   -0.003146802308547905
-0.00516323153311505   -0.016579138886928454   -0.0028030854802008546
-0.007362794403131869   -0.03183421792947882   -0.003648533342901726
-0.005206663168964349   -0.01639753657156616   -0.002981249297249061
-0.01124147692416904   -0.016945066197944836   -0.003146802308547905
-0.007362794403131869   -0.03183421792947882   -0.003648533342901726
-0.015535779477622564   -0.03213782203122295   -0.003955153975604015
-0.015500053860837035   -0.03189148383513953   -0.0042253113847300515
-0.01124147692416904   -0.016945066197944836   -0.003146802308547905
-0.007362794403131869   -0.03183421792947882   -0.003648533342901726
-0.015500053860837035   -0.03189148383513953   -0.0042253113847300515
-0.005206663168964349   -0.01639753657156616   -0.002981249297249061
-0.01124147692416904   -0.016945066197944836   -0.003146802308547905
-0.015535779477622564   -0.03213782203122295   -0.003955153975604015
-0.00516323153311505   -0.016579138886928454   -0.0028030854802008546
-0.011287313929036846   -0.017118760532962223   -0.0028123527038288773
-0.015535779477622564   -0.03213782203122295   -0.003955153975604015
-0.007362794403131869   -0.03183421792947882   -0.003648533342901726
-0.00516323153311505   -0.016579138886928454   -0.0028030854802008546
-0.007341879800610965   -0.03192676175031847   -0.003514583845009329
-0.011287313929036846   -0.017118760532962223   -0.0028123527038288773
-0.0051249116991738475   -0.01666716658098382   -0.0026415135982215967
-0.007341879800610965   -0.03192676175031847   -0.003514583845009329
-0.00516323153311505   -0.016579138886928454   -0.0028030854802008546
-0.011287313929036846   -0.017118760532962223   -0.0028123527038288773
-0.007341879800610965   -0.03192676175031847   -0.003514583845009329
-0.015577636908138369   -0.03230912253308203   -0.003704485325556551
-0.015535779477622564   -0.03213782203122295   -0.003955153975604015
-0.011287313929036846   -0.017118760532962223   -0.0028123527038288773
-0.007341879800610965   -0.03192676175031847   -0.003514583845009329
-0.015535779477622564   -0.03213782203122295   -0.003955153975604015
-0.00516323153311505   -0.016579138886928454   -0.0028030854802008546
-0.011287313929036846   -0.017118760532962223   -0.0028123527038288773
-0.015577636908138369   -0.03230912253308203   -0.003704485325556551
-0.0051249116991738475   -0.01666716658098382   -0.0026415135982215967
-0.01125530785172566   -0.017208675987306785   -0.0024992021489641646
-0.015577636908138369   -0.03230912253308203   -0.003704485325556551
-0.007341879800610965   -0.03192676175031847   -0.003514583845009329
-0.0051249116991738475   -0.01666716658098382   -0.0026415135982215967
-0.0073064144445455555   -0.03195553761323826   -0.003399142442915057
-0.01125530785172566   -0.017208675987306785   -0.0024992021489641646
-0.005067032874938073   -0.01666494157877852   -0.0025007717098076217
-0.0073064144445455555   -0.03195553761323826   -0.003399142442915057
-0.0051249116991738475   -0.01666716658098382   -0.0026415135982215967
-0.01125530785172566   -0.017208675987306785   -0.0024992021489641646
-0.0073064144445455555   -0.03195553761323826   -0.003399142442915057
-0.015550277007258126   -0.03242162444378788   -0.0034691576813387724
-0.015577636908138369   -0.03230912253308203   -0.003704485325556551
-0.01125530785172566   -0.017208675987306785   -0.0024992021489641646
-0.0073064144445455555   -0.03195553761323826   -0.003399142442915057
-0.015577636908138369   -0.03230912253308203   -0.003704485325556551
-0.0051249116991738475   -0.01666716658098382   -0.0026415135982215967
-0.005206663168964349   -0.01639753657156616   -0.002981249297249061
-0.007379541819901601   -0.031676582785467755   -0.0038010511353788593
0.0005994851496427715   -0.016405259484227618   -0.0026563096507659033
-0.00516323153311505   -0.016579138886928454   -0.0028030854802008546
-0.007379541819901601   -0.031676582785467755   -0.0038010511353788593
0.0005032123165332017   -0.03166517185925723   -0.0035376973635789706
0.0005994851496427715   -0.016405259484227618   -0.0026563096507659033
0.0005354071130449853   -0.031735536159477815   -0.003502178005882635
-0.00516323153311505   -0.016579138886928454   -0.0028030854802008546
0.0006531275076086227   -0.016491479614354574   -0.0026447878415495566
0.0005354071130449853   -0.031735536159477815   -0.003502178005882635
0.0005994851496427715   -0.016405259484227618   -0.0026563096507659033
-0.00516323153311505   -0.016579138886928454   -0.0028030854802008546
0.0005354071130449853   -0.031735536159477815   -0.003502178005882635
-0.007362794403131869   -0.03183421792947882   -0.003648533342901726
-0.007379541819901601   -0.031676582785467755   -0.0038010511353788593
-0.00516323153311505   -0.016579138886928454   -0.0028030854802008546
0.0005354071130449853   -0.031735536159477815   -0.003502178005882635
-0.007379541819901601   -0.031676582785467755   -0.0038010511353788593
0.0005994851496427715   -0.016405259484227618   -0.0026563096507659033
-0.00516323153311505   -0.016579138886928454   -0.0028030854802008546
-0.007362794403131869   -0.03183421792947882   -0.003648533342901726
0.0006531275076086227   -0.016491479614354574   -0.0026447878415495566
-0.0051249116991738475   -0.01666716658098382   -0.0026415135982215967
-0.007362794403131869   -0.03183421792947882   -0.003648533342901726
0.0005354071130449853   -0.031735536159477815   -0.003502178005882635
0.0006531275076086227   -0.016491479614354574   -0.0026447878415495566
0.0005554284449784324   -0.031741073774140885   -0.0034847361546901253
-0.0051249116991738475   -0.01666716658098382   -0.0026415135982215967
0.000688748482836282   -0.016486323839680548   -0.0026521032789641867
0.0005554284449784324   -0.031741073774140885   -0.0034847361546901253
0.0006531275076086227   -0.016491479614354574   -0.0026447878415495566
-0.0051249116991738475   -0.01666716658098382   -0.0026415135982215967
0.0005554284449784324   -0.031741073774140885   -0.0034847361546901253
-0.007341879800610965   -0.03192676175031847   -0.003514583845009329
-0.007362794403131869   -0.03183421792947882   -0.003648533342901726
-0.0051249116991738475   -0.01666716658098382   -0.0026415135982215967
0.0005554284449784324   -0.031741073774140885   -0.0034847361546901253
-0.007362794403131869   -0.03183421792947882   -0.003648533342901726
0.0006531275076086227   -0.016491479614354574   -0.0026447878415495566
-0.0051249116991738475   -0.01666716658098382   -0.0026415135982215967
-0.007341879800610965   -0.03192676175031847   -0.003514583845009329
0.000688748482836282   -0.016486323839680548   -0.0026521032789641867
-0.005067032874938073   -0.01666494157877852   -0.0025007717098076217
-0.007341879800610965   -0.03192676175031847   -0.003514583845009329
0.0005554284449784324   -0.031741073774140885   -0.0034847361546901253
0.000688748482836282   -0.016486323839680548   -0.0026521032789641867
0.000569412142802982   -0.03168081590842836   -0.003486476850877907
-0.005067032874938073   -0.01666494157877852   -0.0025007717098076217
0.0007270753704806062   -0.016386996535427245   -0.002678555696416051
0.000569412142802982   -0.03168081590842836   -0.003486476850877907
0.000688748482836282   -0.016486323839680548   -0.0026521032789641867
-0.005067032874938073   -0.01666494157877852   -0.0025007717098076217
0.000569412142802982   -0.03168081590842836   -0.003486476850877907
-0.0073064144445455555   -0.03195553761323826   -0.003399142442915057
-0.007341879800610965   -0.03192676175031847   -0.003514583845009329
-0.005067032874938073   -0.01666494157877852   -0.0025007717098076217
0.000569412142802982   -0.03168081590842836   -0.003486476850877907
-0.007341879800610965   -0.03192676175031847   -0.003514583845009329
0.000688748482836282   -0.016486323839680548   -0.0026521032789641867
0.0005994851496427715   -0.016405259484227618   -0.0026563096507659033
0.0005032123165332017   -0.03166517185925723   -0.0035376973635789706
0.006751550747464405   -0.016673310659085186   -0.002504271316514129
0.0006531275076086227   -0.016491479614354574   -0.0026447878415495566
0.0005032123165332017   -0.03166517185925723   -0.0035376973635789706
0.008721922944822698   -0.031845170495049424   -0.0034307010857124675
0.006751550747464405   -0.016673310659085186   -0.002504271316514129
0.008749654089574146   -0.031835602322977316   -0.003514623599459867
0.0006531275076086227   -0.016491479614354574   -0.0026447878415495566
0.006781085170030846   -0.016672929245549042   -0.0026648057886130925
0.008749654089574146   -0.031835602322977316   -0.003514623599459867
0.006751550747464405   -0.016673310659085186   -0.002504271316514129
0.0006531275076086227   -0.016491479614354574   -0.0026447878415495566
0.008749654089574146   -0.031835602322977316   -0.003514623599459867
0.0005354071130449853   -0.031735536159477815   -0.003502178005882635
0.0005032123165332017   -0.03166517185925723   -0.0035376973635789706
0.0006531275076086227   -0.016491479614354574   -0.0026447878415495566
0.008749654089574146   -0.031835602322977316   -0.003514623599459867
0.0005032123165332017   -0.03166517185925723   -0.0035376973635789706
0.006751550747464405   -0.016673310659085186   -0.002504271316514129
0.0006531275076086227   -0.016491479614354574   -0.0026447878415495566
0.0005354071130449853   -0.031735536159477815   -0.003502178005882635
0.006781085170030846   -0.016672929245549042   -0.0026648057886130925
0.000688748482836282   -0.016486323839680548   -0.0026521032789641867
0.0005354071130449853   -0.031735536159477815   -0.003502178005882635
0.008749654089574146   -0.031835602322977316   -0.003514623599459867
0.006781085170030846   -0.016672929245549042   -0.0026648057886130925
0.008725574993847303   -0.03176254288893094   -0.003615295269400574
0.000688748482836282   -0.016486323839680548   -0.0026521032789641867
0.006748125530479593   -0.016582903841393094   -0.002846653776503765
0.008725574993847303   -0.03176254288893094   -0.003615295269400574
0.006781085170030846   -0.016672929245549042   -0.0026648057886130925
0.000688748482836282   -0.016486323839680548   -0.0026521032789641867
0.008725574993847303   -0.03176254288893094   -0.003615295269400574
0.0005554284449784324   -0.031741073774140885   -0.0034847361546901253
0.0005354071130449853   -0.031735536159477815   -0.003502178005882635
0.000688748482836282   -0.016486323839680548   -0.0026521032789641867
0.008725574993847303   -0.03176254288893094   -0.003615295269400574
0.0005354071130449853   -0.031735536159477815   -0.003502178005882635
0.006781085170030846   -0.016672929245549042   -0.0026648057886130925
0.000688748482836282   -0.016486323839680548   -0.0026521032789641867
0.0005554284449784324   -0.031741073774140885   -0.0034847361546901253
0.006748125530479593   -0.016582903841393094   -0.002846653776503765
0.0007270753704806062   -0.016386996535427245   -0.002678555696416051
0.0005554284449784324   -0.031741073774140885   -0.0034847361546901253
0.008725574993847303   -0.03176254288893094   -0.003615295269400574
0.006748125530479593   -0.016582903841393094   -0.002846653776503765
0.00869058330575416   -0.03161033155672382   -0.0037346953333608083
0.0007270753704806062   -0.016386996535427245   -0.002678555696416051
0.006728648433133526   -0.016378554382016765   -0.0030430927598124958
0.00869058330575416   -0.03161033155672382   -0.0037346953333608083
0.006748125530479593   -0.016582903841393094   -0.002846653776503765
0.0007270753704806062   -0.016386996535427245   -0.002678555696416051
0.00869058330575416   -0.03161033155672382   -0.0037346953333608083
0.000569412142802982   -0.03168081590842836   -0.003486476850877907
0.0005554284449784324   -0.031741073774140885   -0.0034847361546901253
0.0007270753704806062   -0.016386996535427245   -0.002678555696416051
0.00869058330575416   -0.03161033155672382   -0.0037346953333608083
0.0005554284449784324   -0.031741073774140885   -0.0034847361546901253
0.006748125530479593   -0.016582903841393094   -0.002846653776503765
0.006751550747464405   -0.016673310659085186   -0.002504271316514129
0.008721922944822698   -0.031845170495049424   -0.0034307010857124675
0.01417323370251861   -0.017171838274667076   -0.0024624882671023664
0.006781085170030846   -0.016672929245549042   -0.0026648057886130925
0.008721922944822698   -0.031845170495049424   -0.0034307010857124675
0.018080808804762594   -0.03217202277101265   -0.00343157127195481
0.01417323370251861   -0.017171838274667076   -0.0024624882671023664
0.01792078114258761   -0.03211649020621665   -0.0036504873609210942
0.006781085170030846   -0.016672929245549042   -0.0026648057886130925
0.013882515718470014   -0.01712550293510547   -0.0028234329558908425
0.01792078114258761   -0.03211649020621665   -0.0036504873609210942
0.01417323370251861   -0.017171838274667076   -0.0024624882671023664
0.006781085170030846   -0.016672929245549042   -0.0026648057886130925
0.01792078114258761   -0.03211649020621665   -0.0036504873609210942
0.008749654089574146   -0.031835602322977316   -0.003514623599459867
0.008721922944822698   -0.031845170495049424   -0.0034307010857124675
0.006781085170030846   -0.016672929245549042   -0.0026648057886130925
0.01792078114258761   -0.03211649020621665   -0.0036504873609210942
0.008721922944822698   -0.031845170495049424   -0.0034307010857124675
0.01417323370251861   -0.017171838274667076   -0.0024624882671023664
0.006781085170030846   -0.016672929245549042   -0.0026648057886130925
0.008749654089574146   -0.031835602322977316   -0.003514623599459867
0.013882515718470014   -0.01712550293510547   -0.0028234329558908425
0.006748125530479593   -0.016582903841393094   -0.002846653776503765
0.008749654089574146   -0.031835602322977316   -0.003514623599459867
0.01792078114258761   -0.03211649020621665   -0.0036504873609210942
0.013882515718470014   -0.01712550293510547   -0.0028234329558908425
0.017761424951074196   -0.032003898680919705   -0.003899604952192005
0.006748125530479593   -0.016582903841393094   -0.002846653776503765
0.013622908262967652   -0.016986628724444966   -0.0032292417116316285
0.017761424951074196   -0.032003898680919705   -0.003899604952192005
0.013882515718470014   -0.01712550293510547   -0.0028234329558908425
0.006748125530479593   -0.016582903841393094   -0.002846653776503765
0.017761424951074196   -0.032003898680919705   -0.003899604952192005
0.008725574993847303   -0.03176254288893094   -0.003615295269400574
0.008749654089574146   -0.031835602322977316   -0.003514623599459867
0.006748125530479593   -0.016582903841393094   -0.002846653776503765
0.017761424951074196   -0.032003898680919705   -0.003899604952192005
0.008749654089574146   -0.031835602322977316   -0.003514623599459867
0.013882515718470014   -0.01712550293510547   -0.0028234329558908425
0.006748125530479593   -0.016582903841393094   -0.002846653776503765
0.008725574993847303   -0.03176254288893094   -0.003615295269400574
0.013622908262967652   -0.016986628724444966   -0.0032292417116316285
0.006728648433133526   -0.016378554382016765   -0.0030430927598124958
0.008725574993847303   -0.03176254288893094   -0.003615295269400574
0.017761424951074196   -0.032003898680919705   -0.003899604952192005
0.013622908262967652   -0.016986628724444966   -0.0032292417116316285
0.017480081994405514   -0.03176715143271914   -0.004178955516964185
0.006728648433133526   -0.016378554382016765   -0.0030430927598124958
0.013234903394582997   -0.016677130264351414   -0.0036515238354486537
0.017480081994405514   -0.03176715143271914   -0.004178955516964185
0.013622908262967652   -0.016986628724444966   -0.0032292417116316285
0.006728648433133526   -0.016378554382016765   -0.0030430927598124958
0.017480081994405514   -0.03176715143271914   -0.004178955516964185
0.00869058330575416   -0.03161033155672382   -0.0037346953333608083
0.008725574993847303   -0.03176254288893094   -0.003615295269400574
0.006728648433133526   -0.016378554382016765   -0.0030430927598124958
0.017480081994405514   -0.03176715143271914   -0.004178955516964185
0.008725574993847303   -0.03176254288893094   -0.003615295269400574
0.013622908262967652   -0.016986628724444966   -0.0032292417116316285
-0.024110144675684977   -0.032322777277831255   -0.004835870047264197
-0.028802921919687634   -0.05023890006484017   -0.005155721473058868
-0.015500053860837035   -0.03189148383513953   -0.0042253113847300515
-0.02454126271253569   -0.03265934101280139   -0.004413870283794828
-0.028802921919687634   -0.05023890006484017   -0.005155721473058868
-0.018692818234257155   -0.04996416111750157   -0.004657369285933479
-0.015500053860837035   -0.03189148383513953   -0.0042253113847300515
-0.018716971905032753   -0.05017627776091345   -0.0044638340813520005
-0.02454126271253569   -0.03265934101280139   -0.004413870283794828
-0.015535779477622564   -0.03213782203122295   -0.003955153975604015
-0.018716971905032753   -0.05017627776091345   -0.0044638340813520005
-0.015500053860837035   -0.03189148383513953   -0.0042253113847300515
-0.02454126271253569   -0.03265934101280139   -0.004413870283794828
-0.018716971905032753   -0.05017627776091345   -0.0044638340813520005
-0.029094284722344765   -0.050525784991535344   -0.00487510803964434
-0.028802921919687634   -0.05023890006484017   -0.005155721473058868
-0.02454126271253569   -0.03265934101280139   -0.004413870283794828
-0.018716971905032753   -0.05017627776091345   -0.0044638340813520005
-0.028802921919687634   -0.05023890006484017   -0.005155721473058868
-0.015500053860837035   -0.03189148383513953   -0.0042253113847300515
-0.02454126271253569   -0.03265934101280139   -0.004413870283794828
-0.029094284722344765   -0.050525784991535344   -0.00487510803964434
-0.015535779477622564   -0.03213782203122295   -0.003955153975604015
-0.024813843436603342   -0.03287024433334151   -0.0040204443573098455
-0.029094284722344765   -0.050525784991535344   -0.00487510803964434
-0.018716971905032753   -0.05017627776091345   -0.0044638340813520005
-0.015535779477622564   -0.03213782203122295   -0.003955153975604015
-0.01873473760572061   -0.05034430755751954   -0.004289555637052453
-0.024813843436603342   -0.03287024433334151   -0.0040204443573098455
-0.015577636908138369   -0.03230912253308203   -0.003704485325556551
-0.01873473760572061   -0.05034430755751954   -0.004289555637052453
-0.015535779477622564   -0.03213782203122295   -0.003955153975604015
-0.024813843436603342   -0.03287024433334151   -0.0040204443573098455
-0.01873473760572061   -0.05034430755751954   -0.004289555637052453
-0.029262288987327262   -0.05072860062996979   -0.004621350935534662
-0.029094284722344765   -0.050525784991535344   -0.00487510803964434
-0.024813843436603342   -0.03287024433334151   -0.0040204443573098455
-0.01873473760572061   -0.05034430755751954   -0.004289555637052453
-0.029094284722344765   -0.050525784991535344   -0.00487510803964434
-0.015535779477622564   -0.03213782203122295   -0.003955153975604015
-0.024813843436603342   -0.03287024433334151   -0.0040204443573098455
-0.029262288987327262   -0.05072860062996979   -0.004621350935534662
-0.015577636908138369   -0.03230912253308203   -0.003704485325556551
-0.02512398643507714   -0.0330216010125848   -0.0036582628770457835
-0.029262288987327262   -0.05072860062996979   -0.004621350935534662
-0.01873473760572061   -0.05034430755751954   -0.004289555637052453
-0.015577636908138369   -0.03230912253308203   -0.003704485325556551
-0.01869766470886388   -0.050482170477578685   -0.0041319845617365895
-0.02512398643507714   -0.0330216010125848   -0.0036582628770457835
-0.015550277007258126   -0.03242162444378788   -0.0034691576813387724
-0.01869766470886388   -0.050482170477578685   -0.0041319845617365895
-0.015577636908138369   -0.03230912253308203   -0.003704485325556551
-0.02512398643507714   -0.0330216010125848   -0.0036582628770457835
-0.01869766470886388   -0.050482170477578685   -0.0041319845617365895
-0.029435479551433868   -0.05091012834354593   -0.0043976328929343795
-0.029262288987327262   -0.05072860062996979   -0.004621350935534662
-0.02512398643507714   -0.0330216010125848   -0.0036582628770457835
-0.01869766470886388   -0.050482170477578685   -0.0041319845617365895
-0.029262288987327262   -0.05072860062996979   -0.004621350935534662
-0.015577636908138369   -0.03230912253308203   -0.003704485325556551
-0.015500053860837035   -0.03189148383513953   -0.0042253113847300515
-0.018692818234257155   -0.04996416111750157   -0.004657369285933479
-0.007379541819901601   -0.031676582785467755   -0.0038010511353788593
-0.015535779477622564   -0.03213782203122295   -0.003955153975604015
-0.018692818234257155   -0.04996416111750157   -0.004657369285933479
-0.009213470782575122   -0.04982236815493484   -0.0043122385196168135
-0.007379541819901601   -0.031676582785467755   -0.0038010511353788593
-0.00919758977710998   -0.049955584570648075   -0.0041846479213837615
-0.015535779477622564   -0.03213782203122295   -0.003955153975604015
-0.007362794403131869   -0.03183421792947882   -0.003648533342901726
-0.00919758977710998   -0.049955584570648075   -0.0041846479213837615
-0.007379541819901601   -0.031676582785467755   -0.0038010511353788593
-0.015535779477622564   -0.03213782203122295   -0.003955153975604015
-0.00919758977710998   -0.049955584570648075   -0.0041846479213837615
-0.018716971905032753   -0.05017627776091345   -0.0044638340813520005
-0.018692818234257155   -0.04996416111750157   -0.004657369285933479
-0.015535779477622564   -0.03213782203122295   -0.003955153975604015
-0.00919758977710998   -0.049955584570648075   -0.0041846479213837615
-0.018692818234257155   -0.04996416111750157   -0.004657369285933479
-0.007379541819901601   -0.031676582785467755   -0.0038010511353788593
-0.015535779477622564   -0.03213782203122295   -0.003955153975604015
-0.018716971905032753   -0.05017627776091345   -0.0044638340813520005
-0.007362794403131869   -0.03183421792947882   -0.003648533342901726
-0.015577636908138369   -0.03230912253308203   -0.003704485325556551
-0.018716971905032753   -0.05017627776091345   -0.0044638340813520005
-0.00919758977710998   -0.049955584570648075   -0.0041846479213837615
-0.007362794403131869   -0.03183421792947882   -0.003648533342901726
-0.009175280433805928   -0.05005187104926358   -0.004076032907965544
-0.015577636908138369   -0.03230912253308203   -0.003704485325556551
-0.007341879800610965   -0.03192676175031847   -0.003514583845009329
-0.009175280433805928   -0.05005187104926358   -0.004076032907965544
-0.007362794403131869   -0.03183421792947882   -0.003648533342901726
-0.015577636908138369   -0.03230912253308203   -0.003704485325556551
-0.009175280433805928   -0.05005187104926358   -0.004076032907965544
-0.01873473760572061   -0.05034430755751954   -0.004289555637052453
-0.018716971905032753   -0.05017627776091345   -0.0044638340813520005
-0.015577636908138369   -0.03230912253308203   -0.003704485325556551
-0.009175280433805928   -0.05005187104926358   -0.004076032907965544
-0.018716971905032753   -0.05017627776091345   -0.0044638340813520005
-0.007362794403131869   -0.03183421792947882   -0.003648533342901726
-0.015577636908138369   -0.03230912253308203   -0.003704485325556551
-0.01873473760572061   -0.05034430755751954   -0.004289555637052453
-0.007341879800610965   -0.03192676175031847   -0.003514583845009329
-0.015550277007258126   -0.03242162444378788   -0.0034691576813387724
-0.01873473760572061   -0.05034430755751954   -0.004289555637052453
-0.009175280433805928   -0.05005187104926358   -0.004076032907965544
-0.007341879800610965   -0.03192676175031847   -0.003514583845009329
-0.00914122531119078   -0.050111857021619306   -0.003986701934882069
-0.015550277007258126   -0.03242162444378788   -0.0034691576813387724
-0.0073064144445455555   -0.03195553761323826   -0.003399142442915057
-0.00914122531119078   -0.050111857021619306   -0.003986701934882069
-0.007341879800610965   -0.03192676175031847   -0.003514583845009329
-0.015550277007258126   -0.03242162444378788   -0.0034691576813387724
-0.00914122531119078   -0.050111857021619306   -0.003986701934882069
-0.01869766470886388   -0.050482170477578685   -0.0041319845617365895
-0.01873473760572061   -0.05034430755751954   -0.004289555637052453
-0.015550277007258126   -0.03242162444378788   -0.0034691576813387724
-0.00914122531119078   -0.050111857021619306   -0.003986701934882069
-0.01873473760572061   -0.05034430755751954   -0.004289555637052453
-0.007341879800610965   -0.03192676175031847   -0.003514583845009329
-0.007379541819901601   -0.031676582785467755   -0.0038010511353788593
-0.009213470782575122   -0.04982236815493484   -0.0043122385196168135
0.0005032123165332017   -0.03166517185925723   -0.0035376973635789706
-0.007362794403131869   -0.03183421792947882   -0.003648533342901726
-0.009213470782575122   -0.04982236815493484   -0.0043122385196168135
8.857736923995731e-06   -0.04979811088751735   -0.00411091068812767
0.0005032123165332017   -0.03166517185925723   -0.0035376973635789706
4.015523090358404e-05   -0.04985205186217777   -0.004049757645753047
-0.007362794403131869   -0.03183421792947882   -0.003648533342901726
0.0005354071130449853   -0.031735536159477815   -0.003502178005882635
4.015523090358404e-05   -0.04985205186217777   -0.004049757645753047
0.0005032123165332017   -0.03166517185925723   -0.0035376973635789706
-0.007362794403131869   -0.03183421792947882   -0.003648533342901726
4.015523090358404e-05   -0.04985205186217777   -0.004049757645753047
-0.00919758977710998   -0.049955584570648075   -0.0041846479213837615
-0.009213470782575122   -0.04982236815493484   -0.0043122385196168135
-0.007362794403131869   -0.03183421792947882   -0.003648533342901726
4.015523090358404e-05   -0.04985205186217777   -0.004049757645753047
-0.009213470782575122   -0.04982236815493484   -0.0043122385196168135
0.0005032123165332017   -0.03166517185925723   -0.0035376973635789706
-0.007362794403131869   -0.03183421792947882   -0.003648533342901726
-0.00919758977710998   -0.049955584570648075   -0.0041846479213837615
0.0005354071130449853   -0.031735536159477815   -0.003502178005882635
-0.007341879800610965   -0.03192676175031847   -0.003514583845009329
-0.00919758977710998   -0.049955584570648075   -0.0041846479213837615
4.015523090358404e-05   -0.04985205186217777   -0.004049757645753047
0.0005354071130449853   -0.031735536159477815   -0.003502178005882635
6.196808233708618e-05   -0.049868810300075506   -0.004007333921683206
-0.007341879800610965   -0.03192676175031847   -0.003514583845009329
0.0005554284449784324   -0.031741073774140885   -0.0034847361546901253
6.196808233708618e-05   -0.049868810300075506   -0.004007333921683206
0.0005354071130449853   -0.031735536159477815   -0.003502178005882635
-0.007341879800610965   -0.03192676175031847   -0.003514583845009329
6.196808233708618e-05   -0.049868810300075506   -0.004007333921683206
-0.009175280433805928   -0.05005187104926358   -0.004076032907965544
-0.00919758977710998   -0.049955584570648075   -0.0041846479213837615
-0.007341879800610965   -0.03192676175031847   -0.003514583845009329
6.196808233708618e-05   -0.049868810300075506   -0.004007333921683206
-0.00919758977710998   -0.049955584570648075   -0.0041846479213837615
0.0005354071130449853   -0.031735536159477815   -0.003502178005882635
-0.007341879800610965   -0.03192676175031847   -0.003514583845009329
-0.009175280433805928   -0.05005187104926358   -0.004076032907965544
0.0005554284449784324   -0.031741073774140885   -0.0034847361546901253
-0.0073064144445455555   -0.03195553761323826   -0.003399142442915057
-0.009175280433805928   -0.05005187104926358   -0.004076032907965544
6.196808233708618e-05   -0.049868810300075506   -0.004007333921683206
0.0005554284449784324   -0.031741073774140885   -0.0034847361546901253
7.519205128708463e-05   -0.049847877732907324   -0.003984473200280788
-0.0073064144445455555   -0.03195553761323826   -0.003399142442915057
0.000569412142802982   -0.03168081590842836   -0.003486476850877907
7.519205128708463e-05   -0.049847877732907324   -0.003984473200280788
0.0005554284449784324   -0.031741073774140885   -0.0034847361546901253
-0.0073064144445455555   -0.03195553761323826   -0.003399142442915057
7.519205128708463e-05   -0.049847877732907324   -0.003984473200280788
-0.00914122531119078   -0.050111857021619306   -0.003986701934882069
-0.009175280433805928   -0.05005187104926358   -0.004076032907965544
-0.0073064144445455555   -0.03195553761323826   -0.003399142442915057
7.519205128708463e-05   -0.049847877732907324   -0.003984473200280788
-0.009175280433805928   -0.05005187104926358   -0.004076032907965544
0.0005554284449784324   -0.031741073774140885   -0.0034847361546901253
0.0005032123165332017   -0.03166517185925723   -0.0035376973635789706
8.857736923995731e-06   -0.04979811088751735   -0.00411091068812767
0.008721922944822698   -0.031845170495049424   -0.0034307010857124675
0.0005354071130449853   -0.031735536159477815   -0.003502178005882635
8.857736923995731e-06   -0.04979811088751735   -0.00411091068812767
0.009548229534251869   -0.049881388645280786   -0.0040525133096172335
0.008721922944822698   -0.031845170495049424   -0.0034307010857124675
0.009586764691275057   -0.04986071367871297   -0.004059210950612929
0.0005354071130449853   -0.031735536159477815   -0.003502178005882635
0.008749654089574146   -0.031835602322977316   -0.003514623599459867
0.009586764691275057   -0.04986071367871297   -0.004059210950612929
0.008721922944822698   -0.031845170495049424   -0.0034307010857124675
0.0005354071130449853   -0.031735536159477815   -0.003502178005882635
0.009586764691275057   -0.04986071367871297   -0.004059210950612929
4.015523090358404e-05   -0.04985205186217777   -0.004049757645753047
8.857736923995731e-06   -0.04979811088751735   -0.00411091068812767
0.0005354071130449853   -0.031735536159477815   -0.003502178005882635
0.009586764691275057   -0.04986071367871297   -0.004059210950612929
8.857736923995731e-06   -0.04979811088751735   -0.00411091068812767
0.008721922944822698   -0.031845170495049424   -0.0034307010857124675
0.0005354071130449853   -0.031735536159477815   -0.003502178005882635
4.015523090358404e-05   -0.04985205186217777   -0.004049757645753047
0.008749654089574146   -0.031835602322977316   -0.003514623599459867
0.0005554284449784324   -0.031741073774140885   -0.0034847361546901253
4.015523090358404e-05   -0.04985205186217777   -0.004049757645753047
0.009586764691275057   -0.04986071367871297   -0.004059210950612929
0.008749654089574146   -0.031835602322977316   -0.003514623599459867
0.009588003437484904   -0.049805639347703184   -0.004083633978764284
0.0005554284449784324   -0.031741073774140885   -0.0034847361546901253
0.008725574993847303   -0.03176254288893094   -0.003615295269400574
0.009588003437484904   -0.049805639347703184   -0.004083633978764284
0.008749654089574146   -0.031835602322977316   -0.003514623599459867
0.0005554284449784324   -0.031741073774140885   -0.0034847361546901253
0.009588003437484904   -0.049805639347703184   -0.004083633978764284
6.196808233708618e-05   -0.049868810300075506   -0.004007333921683206
4.015523090358404e-05   -0.04985205186217777   -0.004049757645753047
0.0005554284449784324   -0.031741073774140885   -0.0034847361546901253
0.009588003437484904   -0.049805639347703184   -0.004083633978764284
4.015523090358404e-05   -0.04985205186217777   -0.004049757645753047
0.008749654089574146   -0.031835602322977316   -0.003514623599459867
0.0005554284449784324   -0.031741073774140885   -0.0034847361546901253
6.196808233708618e-05   -0.049868810300075506   -0.004007333921683206
0.008725574993847303   -0.03176254288893094   -0.003615295269400574
0.000569412142802982   -0.03168081590842836   -0.003486476850877907
6.196808233708618e-05   -0.049868810300075506   -0.004007333921683206
0.009588003437484904   -0.049805639347703184   -0.004083633978764284
0.008725574993847303   -0.03176254288893094   -0.003615295269400574
0.009565365753909112   -0.04970232085378215   -0.004126451730827012
0.000569412142802982   -0.03168081590842836   -0.003486476850877907
0.00869058330575416   -0.03161033155672382   -0.0037346953333608083
0.009565365753909112   -0.04970232085378215   -0.004126451730827012
0.008725574993847303   -0.03176254288893094   -0.003615295269400574
0.000569412142802982   -0.03168081590842836   -0.003486476850877907
0.009565365753909112   -0.04970232085378215   -0.004126451730827012
7.519205128708463e-05   -0.049847877732907324   -0.003984473200280788
6.196808233708618e-05   -0.049868810300075506   -0.004007333921683206
0.000569412142802982   -0.03168081590842836   -0.003486476850877907
0.009565365753909112   -0.04970232085378215   -0.004126451730827012
6.196808233708618e-05   -0.049868810300075506   -0.004007333921683206
0.008725574993847303   -0.03176254288893094   -0.003615295269400574
0.008721922944822698   -0.031845170495049424   -0.0034307010857124675
0.009548229534251869   -0.049881388645280786   -0.0040525133096172335
0.018080808804762594   -0.03217202277101265   -0.00343157127195481
0.008749654089574146   -0.031835602322977316   -0.003514623599459867
0.009548229534251869   -0.049881388645280786   -0.0040525133096172335
0.02008221514066834   -0.05003472385772386   -0.0041055393331408145
0.018080808804762594   -0.03217202277101265   -0.00343157127195481
0.020060989315261107   -0.0499635792818198   -0.00418563721567844
0.008749654089574146   -0.031835602322977316   -0.003514623599459867
0.01792078114258761   -0.03211649020621665   -0.0036504873609210942
0.020060989315261107   -0.0499635792818198   -0.00418563721567844
0.018080808804762594   -0.03217202277101265   -0.00343157127195481
0.008749654089574146   -0.031835602322977316   -0.003514623599459867
0.020060989315261107   -0.0499635792818198   -0.00418563721567844
0.009586764691275057   -0.04986071367871297   -0.004059210950612929
0.009548229534251869   -0.049881388645280786   -0.0040525133096172335
0.008749654089574146   -0.031835602322977316   -0.003514623599459867
0.020060989315261107   -0.0499635792818198   -0.00418563721567844
0.009548229534251869   -0.049881388645280786   -0.0040525133096172335
0.018080808804762594   -0.03217202277101265   -0.00343157127195481
0.008749654089574146   -0.031835602322977316   -0.003514623599459867
0.009586764691275057   -0.04986071367871297   -0.004059210950612929
0.01792078114258761   -0.03211649020621665   -0.0036504873609210942
0.008725574993847303   -0.03176254288893094   -0.003615295269400574
0.009586764691275057   -0.04986071367871297   -0.004059210950612929
0.020060989315261107   -0.0499635792818198   -0.00418563721567844
0.01792078114258761   -0.03211649020621665   -0.0036504873609210942
0.02000837973121634   -0.0498736005055413   -0.004294481641061658
0.008725574993847303   -0.03176254288893094   -0.003615295269400574
0.017761424951074196   -0.032003898680919705   -0.003899604952192005
0.02000837973121634   -0.0498736005055413   -0.004294481641061658
0.01792078114258761   -0.03211649020621665   -0.0036504873609210942
0.008725574993847303   -0.03176254288893094   -0.003615295269400574
0.02000837973121634   -0.0498736005055413   -0.004294481641061658
0.009588003437484904   -0.049805639347703184   -0.004083633978764284
0.009586764691275057   -0.04986071367871297   -0.004059210950612929
0.008725574993847303   -0.03176254288893094   -0.003615295269400574
0.02000837973121634   -0.0498736005055413   -0.004294481641061658
0.009586764691275057   -0.04986071367871297   -0.004059210950612929
0.01792078114258761   -0.03211649020621665   -0.0036504873609210942
0.008725574993847303   -0.03176254288893094   -0.003615295269400574
0.009588003437484904   -0.049805639347703184   -0.004083633978764284
0.017761424951074196   -0.032003898680919705   -0.003899604952192005
0.00869058330575416   -0.03161033155672382   -0.0037346953333608083
0.009588003437484904   -0.049805639347703184   -0.004083633978764284
0.02000837973121634   -0.0498736005055413   -0.004294481641061658
0.017761424951074196   -0.032003898680919705   -0.003899604952192005
0.019868767833965337   -0.04970154790439985   -0.004431864414124324
0.00869058330575416   -0.03161033155672382   -0.0037346953333608083
0.017480081994405514   -0.03176715143271914   -0.004178955516964185
0.019868767833965337   -0.04970154790439985   -0.004431864414124324
0.017761424951074196   -0.032003898680919705   -0.003899604952192005
0.00869058330575416   -0.03161033155672382   -0.0037346953333608083
0.019868767833965337   -0.04970154790439985   -0.004431864414124324
0.009565365753909112   -0.04970232085378215   -0.004126451730827012
0.009588003437484904   -0.049805639347703184   -0.004083633978764284
0.00869058330575416   -0.03161033155672382   -0.0037346953333608083
0.019868767833965337   -0.04970154790439985   -0.004431864414124324
0.009588003437484904   -0.049805639347703184   -0.004083633978764284
0.017761424951074196   -0.032003898680919705   -0.003899604952192005
-0.028802921919687634   -0.05023890006484017   -0.005155721473058868
-0.0316492370293273   -0.06975278210542732   -0.005248372385267153
-0.018692818234257155   -0.04996416111750157   -0.004657369285933479
-0.029094284722344765   -0.050525784991535344   -0.00487510803964434
-0.0316492370293273   -0.06975278210542732   -0.005248372385267153
-0.020791311576809298   -0.06964052697698522   -0.004850936842535339
-0.018692818234257155   -0.04996416111750157   -0.004657369285933479
-0.020784425079956242   -0.06982165167991423   -0.004732119833850946
-0.029094284722344765   -0.050525784991535344   -0.00487510803964434
-0.018716971905032753   -0.05017627776091345   -0.0044638340813520005
-0.020784425079956242   -0.06982165167991423   -0.004732119833850946
-0.018692818234257155   -0.04996416111750157   -0.004657369285933479
-0.029094284722344765   -0.050525784991535344   -0.00487510803964434
-0.020784425079956242   -0.06982165167991423   -0.004732119833850946
-0.031786329855542174   -0.069996189706906   -0.005103313523877586
-0.0316492370293273   -0.06975278210542732   -0.005248372385267153
-0.029094284722344765   -0.050525784991535344   -0.00487510803964434
-0.020784425079956242   -0.06982165167991423   -0.004732119833850946
-0.0316492370293273   -0.06975278210542732   -0.005248372385267153
-0.018692818234257155   -0.04996416111750157   -0.004657369285933479
-0.029094284722344765   -0.050525784991535344   -0.00487510803964434
-0.031786329855542174   -0.069996189706906   -0.005103313523877586
-0.018716971905032753   -0.05017627776091345   -0.0044638340813520005
-0.029262288987327262   -0.05072860062996979   -0.004621350935534662
-0.031786329855542174   -0.069996189706906   -0.005103313523877586
-0.020784425079956242   -0.06982165167991423   -0.004732119833850946
-0.018716971905032753   -0.05017627776091345   -0.0044638340813520005
-0.020757943115665197   -0.06998859152094565   -0.004633027216131158
-0.029262288987327262   -0.05072860062996979   -0.004621350935534662
-0.01873473760572061   -0.05034430755751954   -0.004289555637052453
-0.020757943115665197   -0.06998859152094565   -0.004633027216131158
-0.018716971905032753   -0.05017627776091345   -0.0044638340813520005
-0.029262288987327262   -0.05072860062996979   -0.004621350935534662
-0.020757943115665197   -0.06998859152094565   -0.004633027216131158
-0.03183112131443834   -0.07019453938139023   -0.004986649027163155
-0.031786329855542174   -0.069996189706906   -0.005103313523877586
-0.029262288987327262   -0.05072860062996979   -0.004621350935534662
-0.020757943115665197   -0.06998859152094565   -0.004633027216131158
-0.031786329855542174   -0.069996189706906   -0.005103313523877586
-0.018716971905032753   -0.05017627776091345   -0.0044638340813520005
-0.029262288987327262   -0.05072860062996979   -0.004621350935534662
-0.03183112131443834   -0.07019453938139023   -0.004986649027163155
-0.01873473760572061   -0.05034430755751954   -0.004289555637052453
-0.029435479551433868   -0.05091012834354593   -0.0043976328929343795
-0.03183112131443834   -0.07019453938139023   -0.004986649027163155
-0.020757943115665197   -0.06998859152094565   -0.004633027216131158
-0.01873473760572061   -0.05034430755751954   -0.004289555637052453
-0.020690583680223536   -0.0701540577564672   -0.004552289485212556
-0.029435479551433868   -0.05091012834354593   -0.0043976328929343795
-0.01869766470886388   -0.050482170477578685   -0.0041319845617365895
-0.020690583680223536   -0.0701540577564672   -0.004552289485212556
-0.01873473760572061   -0.05034430755751954   -0.004289555637052453
-0.029435479551433868   -0.05091012834354593   -0.0043976328929343795
-0.020690583680223536   -0.0701540577564672   -0.004552289485212556
-0.031847379699605945   -0.07040973139337144   -0.004900803520405269
-0.03183112131443834   -0.07019453938139023   -0.004986649027163155
-0.029435479551433868   -0.05091012834354593   -0.0043976328929343795
-0.020690583680223536   -0.0701540577564672   -0.004552289485212556
-0.03183112131443834   -0.07019453938139023   -0.004986649027163155
-0.01873473760572061   -0.05034430755751954   -0.004289555637052453
-0.018692818234257155   -0.04996416111750157   -0.004657369285933479
-0.020791311576809298   -0.06964052697698522   -0.004850936842535339
-0.009213470782575122   -0.04982236815493484   -0.0043122385196168135
-0.018716971905032753   -0.05017627776091345   -0.0044638340813520005
-0.020791311576809298   -0.06964052697698522   -0.004850936842535339
-0.010704734324962497   -0.0695763956639673   -0.004580319445747252
-0.009213470782575122   -0.04982236815493484   -0.0043122385196168135
-0.010668408898425958   -0.06968613536483433   -0.0044769433146589635
-0.018716971905032753   -0.05017627776091345   -0.0044638340813520005
-0.00919758977710998   -0.049955584570648075   -0.0041846479213837615
-0.010668408898425958   -0.06968613536483433   -0.0044769433146589635
-0.009213470782575122   -0.04982236815493484   -0.0043122385196168135
-0.018716971905032753   -0.05017627776091345   -0.0044638340813520005
-0.010668408898425958   -0.06968613536483433   -0.0044769433146589635
-0.020784425079956242   -0.06982165167991423   -0.004732119833850946
-0.020791311576809298   -0.06964052697698522   -0.004850936842535339
-0.018716971905032753   -0.05017627776091345   -0.0044638340813520005
-0.010668408898425958   -0.06968613536483433   -0.0044769433146589635
-0.020791311576809298   -0.06964052697698522   -0.004850936842535339
-0.009213470782575122   -0.04982236815493484   -0.0043122385196168135
-0.018716971905032753   -0.05017627776091345   -0.0044638340813520005
-0.020784425079956242   -0.06982165167991423   -0.004732119833850946
-0.00919758977710998   -0.049955584570648075   -0.0041846479213837615
-0.01873473760572061   -0.05034430755751954   -0.004289555637052453
-0.020784425079956242   -0.06982165167991423   -0.004732119833850946
-0.010668408898425958   -0.06968613536483433   -0.0044769433146589635
-0.00919758977710998   -0.049955584570648075   -0.0041846479213837615
-0.010623537025524914   -0.0697867476036698   -0.004393314705444001
-0.01873473760572061   -0.05034430755751954   -0.004289555637052453
-0.009175280433805928   -0.05005187104926358   -0.004076032907965544
-0.010623537025524914   -0.0697867476036698   -0.004393314705444001
-0.00919758977710998   -0.049955584570648075   -0.0041846479213837615
-0.01873473760572061   -0.05034430755751954   -0.004289555637052453
-0.010623537025524914   -0.0697867476036698   -0.004393314705444001
-0.020757943115665197   -0.06998859152094565   -0.004633027216131158
-0.020784425079956242   -0.06982165167991423   -0.004732119833850946
-0.01873473760572061   -0.05034430755751954   -0.004289555637052453
-0.010623537025524914   -0.0697867476036698   -0.004393314705444001
-0.020784425079956242   -0.06982165167991423   -0.004732119833850946
-0.00919758977710998   -0.049955584570648075   -0.0041846479213837615
-0.01873473760572061   -0.05034430755751954   -0.004289555637052453
-0.020757943115665197   -0.06998859152094565   -0.004633027216131158
-0.009175280433805928   -0.05005187104926358   -0.004076032907965544
-0.01869766470886388   -0.050482170477578685   -0.0041319845617365895
-0.020757943115665197   -0.06998859152094565   -0.004633027216131158
-0.010623537025524914   -0.0697867476036698   -0.004393314705444001
-0.009175280433805928   -0.05005187104926358   -0.004076032907965544
-0.010569369731197991   -0.06987856066681082   -0.0043299017495082096
-0.01869766470886388   -0.050482170477578685   -0.0041319845617365895
-0.00914122531119078   -0.050111857021619306   -0.003986701934882069
-0.010569369731197991   -0.06987856066681082   -0.0043299017495082096
-0.009175280433805928   -0.05005187104926358   -0.004076032907965544
-0.01869766470886388   -0.050482170477578685   -0.0041319845617365895
-0.010569369731197991   -0.06987856066681082   -0.0043299017495082096
-0.020690583680223536   -0.0701540577564672   -0.004552289485212556
-0.020757943115665197   -0.06998859152094565   -0.004633027216131158
-0.01869766470886388   -0.050482170477578685   -0.0041319845617365895
-0.010569369731197991   -0.06987856066681082   -0.0043299017495082096
-0.020757943115665197   -0.06998859152094565   -0.004633027216131158
-0.009175280433805928   -0.05005187104926358   -0.004076032907965544
-0.009213470782575122   -0.04982236815493484   -0.0043122385196168135
-0.010704734324962497   -0.0695763956639673   -0.004580319445747252
8.857736923995731e-06   -0.04979811088751735   -0.00411091068812767
-0.00919758977710998   -0.049955584570648075   -0.0041846479213837615
-0.010704734324962497   -0.0695763956639673   -0.004580319445747252
-0.0008910165848968222   -0.06953985036953887   -0.004439997352188991
8.857736923995731e-06   -0.04979811088751735   -0.00411091068812767
-0.0008397657730386284   -0.06957693840999882   -0.004353079602248308
-0.00919758977710998   -0.049955584570648075   -0.0041846479213837615
4.015523090358404e-05   -0.04985205186217777   -0.004049757645753047
-0.0008397657730386284   -0.06957693840999882   -0.004353079602248308
8.857736923995731e-06   -0.04979811088751735   -0.00411091068812767
-0.00919758977710998   -0.049955584570648075   -0.0041846479213837615
-0.0008397657730386284   -0.06957693840999882   -0.004353079602248308
-0.010668408898425958   -0.06968613536483433   -0.0044769433146589635
-0.010704734324962497   -0.0695763956639673   -0.004580319445747252
-0.00919758977710998   -0.049955584570648075   -0.0041846479213837615
-0.0008397657730386284   -0.06957693840999882   -0.004353079602248308
-0.010704734324962497   -0.0695763956639673   -0.004580319445747252
8.857736923995731e-06   -0.04979811088751735   -0.00411091068812767
-0.00919758977710998   -0.049955584570648075   -0.0041846479213837615
-0.010668408898425958   -0.06968613536483433   -0.0044769433146589635
4.015523090358404e-05   -0.04985205186217777   -0.004049757645753047
-0.009175280433805928   -0.05005187104926358   -0.004076032907965544
-0.010668408898425958   -0.06968613536483433   -0.0044769433146589635
-0.0008397657730386284   -0.06957693840999882   -0.004353079602248308
4.015523090358404e-05   -0.04985205186217777   -0.004049757645753047
-0.0007955554767023834   -0.06960425999647381   -0.004285733370136165
-0.009175280433805928   -0.05005187104926358   -0.004076032907965544
6.196808233708618e-05   -0.049868810300075506   -0.004007333921683206
-0.0007955554767023834   -0.06960425999647381   -0.004285733370136165
4.015523090358404e-05   -0.04985205186217777   -0.004049757645753047
-0.009175280433805928   -0.05005187104926358   -0.004076032907965544
-0.0007955554767023834   -0.06960425999647381   -0.004285733370136165
-0.010623537025524914   -0.0697867476036698   -0.004393314705444001
-0.010668408898425958   -0.06968613536483433   -0.0044769433146589635
-0.009175280433805928   -0.05005187104926358   -0.004076032907965544
-0.0007955554767023834   -0.06960425999647381   -0.004285733370136165
-0.010668408898425958   -0.06968613536483433   -0.0044769433146589635
4.015523090358404e-05   -0.04985205186217777   -0.004049757645753047
-0.009175280433805928   -0.05005187104926358   -0.004076032907965544
-0.010623537025524914   -0.0697867476036698   -0.004393314705444001
6.196808233708618e-05   -0.049868810300075506   -0.004007333921683206
-0.00914122531119078   -0.050111857021619306   -0.003986701934882069
-0.010623537025524914   -0.0697867476036698   -0.004393314705444001
-0.0007955554767023834   -0.06960425999647381   -0.004285733370136165
6.196808233708618e-05   -0.049868810300075506   -0.004007333921683206
-0.0007621942572222746   -0.0696216792686777   -0.004238675802188744
-0.00914122531119078   -0.050111857021619306   -0.003986701934882069
7.519205128708463e-05   -0.049847877732907324   -0.003984473200280788
-0.0007621942572222746   -0.0696216792686777   -0.004238675802188744
6.196808233708618e-05   -0.049868810300075506   -0.004007333921683206
-0.00914122531119078   -0.050111857021619306   -0.003986701934882069
-0.0007621942572222746   -0.0696216792686777   -0.004238675802188744
-0.010569369731197991   -0.06987856066681082   -0.0043299017495082096
-0.010623537025524914   -0.0697867476036698   -0.004393314705444001
-0.00914122531119078   -0.050111857021619306   -0.003986701934882069
-0.0007621942572222746   -0.0696216792686777   -0.004238675802188744
-0.010623537025524914   -0.0697867476036698   -0.004393314705444001
6.196808233708618e-05   -0.049868810300075506   -0.004007333921683206
8.857736923995731e-06   -0.04979811088751735   -0.00411091068812767
-0.0008910165848968222   -0.06953985036953887   -0.004439997352188991
0.009548229534251869   -0.049881388645280786   -0.0040525133096172335
4.015523090358404e-05   -0.04985205186217777   -0.004049757645753047
-0.0008910165848968222   -0.06953985036953887   -0.004439997352188991
0.009222520829913637   -0.06952460577490444   -0.004431145412283101
0.009548229534251869   -0.049881388645280786   -0.0040525133096172335
0.009290745599393085   -0.06949136154543327   -0.00436151822433333
4.015523090358404e-05   -0.04985205186217777   -0.004049757645753047
0.009586764691275057   -0.04986071367871297   -0.004059210950612929
0.009290745599393085   -0.06949136154543327   -0.00436151822433333
0.009548229534251869   -0.049881388645280786   -0.0040525133096172335
4.015523090358404e-05   -0.04985205186217777   -0.004049757645753047
0.009290745599393085   -0.06949136154543327   -0.00436151822433333
-0.0008397657730386284   -0.06957693840999882   -0.004353079602248308
-0.0008910165848968222   -0.06953985036953887   -0.004439997352188991
4.015523090358404e-05   -0.04985205186217777   -0.004049757645753047
0.009290745599393085   -0.06949136154543327   -0.00436151822433333
-0.0008910165848968222   -0.06953985036953887   -0.004439997352188991
0.009548229534251869   -0.049881388645280786   -0.0040525133096172335
4.015523090358404e-05   -0.04985205186217777   -0.004049757645753047
-0.0008397657730386284   -0.06957693840999882   -0.004353079602248308
0.009586764691275057   -0.04986071367871297   -0.004059210950612929
6.196808233708618e-05   -0.049868810300075506   -0.004007333921683206
-0.0008397657730386284   -0.06957693840999882   -0.004353079602248308
0.009290745599393085   -0.06949136154543327   -0.00436151822433333
0.009586764691275057   -0.04986071367871297   -0.004059210950612929
0.009335864648251375   -0.069452363068109   -0.00431090608601947
6.196808233708618e-05   -0.049868810300075506   -0.004007333921683206
0.009588003437484904   -0.049805639347703184   -0.004083633978764284
0.009335864648251375   -0.069452363068109   -0.00431090608601947
0.009586764691275057   -0.04986071367871297   -0.004059210950612929
6.196808233708618e-05   -0.049868810300075506   -0.004007333921683206
0.009335864648251375   -0.069452363068109   -0.00431090608601947
-0.0007955554767023834   -0.06960425999647381   -0.004285733370136165
-0.0008397657730386284   -0.06957693840999882   -0.004353079602248308
6.196808233708618e-05   -0.049868810300075506   -0.004007333921683206
0.009335864648251375   -0.069452363068109   -0.00431090608601947
-0.0008397657730386284   -0.06957693840999882   -0.004353079602248308
0.009586764691275057   -0.04986071367871297   -0.004059210950612929
6.196808233708618e-05   -0.049868810300075506   -0.004007333921683206
-0.0007955554767023834   -0.06960425999647381   -0.004285733370136165
0.009588003437484904   -0.049805639347703184   -0.004083633978764284
7.519205128708463e-05   -0.049847877732907324   -0.003984473200280788
-0.0007955554767023834   -0.06960425999647381   -0.004285733370136165
0.009335864648251375   -0.069452363068109   -0.00431090608601947
0.009588003437484904   -0.049805639347703184   -0.004083633978764284
0.009343898122494206   -0.06939473788371416   -0.004278915726230074
7.519205128708463e-05   -0.049847877732907324   -0.003984473200280788
0.009565365753909112   -0.04970232085378215   -0.004126451730827012
0.009343898122494206   -0.06939473788371416   -0.004278915726230074
0.009588003437484904   -0.049805639347703184   -0.004083633978764284
7.519205128708463e-05   -0.049847877732907324   -0.003984473200280788
0.009343898122494206   -0.06939473788371416   -0.004278915726230074
-0.0007621942572222746   -0.0696216792686777   -0.004238675802188744
-0.0007955554767023834   -0.06960425999647381   -0.004285733370136165
7.519205128708463e-05   -0.049847877732907324   -0.003984473200280788
0.009343898122494206   -0.06939473788371416   -0.004278915726230074
-0.0007955554767023834   -0.06960425999647381   -0.004285733370136165
0.009588003437484904   -0.049805639347703184   -0.004083633978764284
0.009548229534251869   -0.049881388645280786   -0.0040525133096172335
0.009222520829913637   -0.06952460577490444   -0.004431145412283101
0.02008221514066834   -0.05003472385772386   -0.0041055393331408145
0.009586764691275057   -0.04986071367871297   -0.004059210950612929
0.009222520829913637   -0.06952460577490444   -0.004431145412283101
0.020183764912845136   -0.06950388694985134   -0.00454035134625458
0.02008221514066834   -0.05003472385772386   -0.0041055393331408145
0.020317897469132644   -0.06941510637509424   -0.00448381355040942
0.009586764691275057   -0.04986071367871297   -0.004059210950612929
0.020060989315261107   -0.0499635792818198   -0.00418563721567844
0.020317897469132644   -0.06941510637509424   -0.00448381355040942
0.02008221514066834   -0.05003472385772386   -0.0041055393331408145
0.009586764691275057   -0.04986071367871297   -0.004059210950612929
0.020317897469132644   -0.06941510637509424   -0.00448381355040942
0.009290745599393085   -0.06949136154543327   -0.00436151822433333
0.009222520829913637   -0.06952460577490444   -0.004431145412283101
0.009586764691275057   -0.04986071367871297   -0.004059210950612929
0.020317897469132644   -0.06941510637509424   -0.00448381355040942
0.009222520829913637   -0.06952460577490444   -0.004431145412283101
0.02008221514066834   -0.05003472385772386   -0.0041055393331408145
0.009586764691275057   -0.04986071367871297   -0.004059210950612929
0.009290745599393085   -0.06949136154543327   -0.00436151822433333
0.020060989315261107   -0.0499635792818198   -0.00418563721567844
0.009588003437484904   -0.049805639347703184   -0.004083633978764284
0.009290745599393085   -0.06949136154543327   -0.00436151822433333
0.020317897469132644   -0.06941510637509424   -0.00448381355040942
0.020060989315261107   -0.0499635792818198   -0.00418563721567844
0.02038792828092376   -0.06934484630535054   -0.004456151921545022
0.009588003437484904   -0.049805639347703184   -0.004083633978764284
0.02000837973121634   -0.0498736005055413   -0.004294481641061658
0.02038792828092376   -0.06934484630535054   -0.004456151921545022
0.020060989315261107   -0.0499635792818198   -0.00418563721567844
0.009588003437484904   -0.049805639347703184   -0.004083633978764284
0.02038792828092376   -0.06934484630535054   -0.004456151921545022
0.009335864648251375   -0.069452363068109   -0.00431090608601947
0.009290745599393085   -0.06949136154543327   -0.00436151822433333
0.009588003437484904   -0.049805639347703184   -0.004083633978764284
0.02038792828092376   -0.06934484630535054   -0.004456151921545022
0.009290745599393085   -0.06949136154543327   -0.00436151822433333
0.020060989315261107   -0.0499635792818198   -0.00418563721567844
0.009588003437484904   -0.049805639347703184   -0.004083633978764284
0.009335864648251375   -0.069452363068109   -0.00431090608601947
0.02000837973121634   -0.0498736005055413   -0.004294481641061658
0.009565365753909112   -0.04970232085378215   -0.004126451730827012
0.009335864648251375   -0.069452363068109   -0.00431090608601947
0.02038792828092376   -0.06934484630535054   -0.004456151921545022
0.02000837973121634   -0.0498736005055413   -0.004294481641061658
0.020402879772206683   -0.0692316516324382   -0.004457857788516153
0.009565365753909112   -0.04970232085378215   -0.004126451730827012
0.019868767833965337   -0.04970154790439985   -0.004431864414124324
0.020402879772206683   -0.0692316516324382   -0.004457857788516153
0.02000837973121634   -0.0498736005055413   -0.004294481641061658
0.009565365753909112   -0.04970232085378215   -0.004126451730827012
0.020402879772206683   -0.0692316516324382   -0.004457857788516153
0.009343898122494206   -0.06939473788371416   -0.004278915726230074
0.009335864648251375   -0.069452363068109   -0.00431090608601947
0.009565365753909112   -0.04970232085378215   -0.004126451730827012
0.020402879772206683   -0.0692316516324382   -0.004457857788516153
0.009335864648251375   -0.069452363068109   -0.00431090608601947
0.02000837973121634   -0.0498736005055413   -0.004294481641061658
-0.0316492370293273   -0.06975278210542732   -0.005248372385267153
-0.03264666578478578   -0.08962929502125108   -0.0051580532837983755
-0.020791311576809298   -0.06964052697698522   -0.004850936842535339
-0.031786329855542174   -0.069996189706906   -0.005103313523877586
-0.03264666578478578   -0.08962929502125108   -0.0051580532837983755
-0.021796532067972163   -0.08968099143298205   -0.004863777456418935
-0.020791311576809298   -0.06964052697698522   -0.004850936842535339
-0.02173896888911814   -0.08983043354047529   -0.004818645315053297
-0.031786329855542174   -0.069996189706906   -0.005103313523877586
-0.020784425079956242   -0.06982165167991423   -0.004732119833850946
-0.02173896888911814   -0.08983043354047529   -0.004818645315053297
-0.020791311576809298   -0.06964052697698522   -0.004850936842535339
-0.031786329855542174   -0.069996189706906   -0.005103313523877586
-0.02173896888911814   -0.08983043354047529   -0.004818645315053297
-0.03261049961580504   -0.08982918779215804   -0.005148183368825578
-0.03264666578478578   -0.08962929502125108   -0.0051580532837983755
-0.031786329855542174   -0.069996189706906   -0.005103313523877586
-0.02173896888911814   -0.08983043354047529   -0.004818645315053297
-0.03264666578478578   -0.08962929502125108   -0.0051580532837983755
-0.020791311576809298   -0.06964052697698522   -0.004850936842535339
-0.031786329855542174   -0.069996189706906   -0.005103313523877586
-0.03261049961580504   -0.08982918779215804   -0.005148183368825578
-0.020784425079956242   -0.06982165167991423   -0.004732119833850946
-0.03183112131443834   -0.07019453938139023   -0.004986649027163155
-0.03261049961580504   -0.08982918779215804   -0.005148183368825578
-0.02173896888911814   -0.08983043354047529   -0.004818645315053297
-0.020784425079956242   -0.06982165167991423   -0.004732119833850946
-0.021648629002673087   -0.08999582243553991   -0.004793883022520899
-0.03183112131443834   -0.07019453938139023   -0.004986649027163155
-0.020757943115665197   -0.06998859152094565   -0.004633027216131158
-0.021648629002673087   -0.08999582243553991   -0.004793883022520899
-0.020784425079956242   -0.06982165167991423   -0.004732119833850946
-0.03183112131443834   -0.07019453938139023   -0.004986649027163155
-0.021648629002673087   -0.08999582243553991   -0.004793883022520899
-0.032511824994993235   -0.0900230483654562   -0.005168758445020759
-0.03261049961580504   -0.08982918779215804   -0.005148183368825578
-0.03183112131443834   -0.07019453938139023   -0.004986649027163155
-0.021648629002673087   -0.08999582243553991   -0.004793883022520899
-0.03261049961580504   -0.08982918779215804   -0.005148183368825578
-0.020784425079956242   -0.06982165167991423   -0.004732119833850946
-0.03183112131443834   -0.07019453938139023   -0.004986649027163155
-0.032511824994993235   -0.0900230483654562   -0.005168758445020759
-0.020757943115665197   -0.06998859152094565   -0.004633027216131158
-0.031847379699605945   -0.07040973139337144   -0.004900803520405269
-0.032511824994993235   -0.0900230483654562   -0.005168758445020759
-0.021648629002673087   -0.08999582243553991   -0.004793883022520899
-0.020757943115665197   -0.06998859152094565   -0.004633027216131158
-0.021531305391401735   -0.09018853287135808   -0.004789173821715938
-0.031847379699605945   -0.07040973139337144   -0.004900803520405269
-0.020690583680223536   -0.0701540577564672   -0.004552289485212556
-0.021531305391401735   -0.09018853287135808   -0.004789173821715938
-0.020757943115665197   -0.06998859152094565   -0.004633027216131158
-0.031847379699605945   -0.07040973139337144   -0.004900803520405269
-0.021531305391401735   -0.09018853287135808   -0.004789173821715938
-0.03235094910453627   -0.09027256713403387   -0.005221300513406954
-0.032511824994993235   -0.0900230483654562   -0.005168758445020759
-0.031847379699605945   -0.07040973139337144   -0.004900803520405269
-0.021531305391401735   -0.09018853287135808   -0.004789173821715938
-0.032511824994993235   -0.0900230483654562   -0.005168758445020759
-0.020757943115665197   -0.06998859152094565   -0.004633027216131158
-0.020791311576809298   -0.06964052697698522   -0.004850936842535339
-0.021796532067972163   -0.08968099143298205   -0.004863777456418935
-0.010704734324962497   -0.0695763956639673   -0.004580319445747252
-0.020784425079956242   -0.06982165167991423   -0.004732119833850946
-0.021796532067972163   -0.08968099143298205   -0.004863777456418935
-0.011858604151644114   -0.0896924109002488   -0.0046681299953166885
-0.010704734324962497   -0.0695763956639673   -0.004580319445747252
-0.011781208978084219   -0.08977824107461847   -0.004588292396808925
-0.020784425079956242   -0.06982165167991423   -0.004732119833850946
-0.010668408898425958   -0.06968613536483433   -0.0044769433146589635
-0.011781208978084219   -0.08977824107461847   -0.004588292396808925
-0.010704734324962497   -0.0695763956639673   -0.004580319445747252
-0.020784425079956242   -0.06982165167991423   -0.004732119833850946
-0.011781208978084219   -0.08977824107461847   -0.004588292396808925
-0.02173896888911814   -0.08983043354047529   -0.004818645315053297
-0.021796532067972163   -0.08968099143298205   -0.004863777456418935
-0.020784425079956242   -0.06982165167991423   -0.004732119833850946
-0.011781208978084219   -0.08977824107461847   -0.004588292396808925
-0.021796532067972163   -0.08968099143298205   -0.004863777456418935
-0.010704734324962497   -0.0695763956639673   -0.004580319445747252
-0.020784425079956242   -0.06982165167991423   -0.004732119833850946
-0.02173896888911814   -0.08983043354047529   -0.004818645315053297
-0.010668408898425958   -0.06968613536483433   -0.0044769433146589635
-0.020757943115665197   -0.06998859152094565   -0.004633027216131158
-0.02173896888911814   -0.08983043354047529   -0.004818645315053297
-0.011781208978084219   -0.08977824107461847   -0.004588292396808925
-0.010668408898425958   -0.06968613536483433   -0.0044769433146589635
-0.011693633651797871   -0.08988243046244515   -0.0045289068570772886
-0.020757943115665197   -0.06998859152094565   -0.004633027216131158
-0.010623537025524914   -0.0697867476036698   -0.004393314705444001
-0.011693633651797871   -0.08988243046244515   -0.0045289068570772886
-0.010668408898425958   -0.06968613536483433   -0.0044769433146589635
-0.020757943115665197   -0.06998859152094565   -0.004633027216131158
-0.011693633651797871   -0.08988243046244515   -0.0045289068570772886
-0.021648629002673087   -0.08999582243553991   -0.004793883022520899
-0.02173896888911814   -0.08983043354047529   -0.004818645315053297
-0.020757943115665197   -0.06998859152094565   -0.004633027216131158
-0.011693633651797871   -0.08988243046244515   -0.0045289068570772886
-0.02173896888911814   -0.08983043354047529   -0.004818645315053297
-0.010668408898425958   -0.06968613536483433   -0.0044769433146589635
-0.020757943115665197   -0.06998859152094565   -0.004633027216131158
-0.021648629002673087   -0.08999582243553991   -0.004793883022520899
-0.010623537025524914   -0.0697867476036698   -0.004393314705444001
-0.020690583680223536   -0.0701540577564672   -0.004552289485212556
-0.021648629002673087   -0.08999582243553991   -0.004793883022520899
-0.011693633651797871   -0.08988243046244515   -0.0045289068570772886
-0.010623537025524914   -0.0697867476036698   -0.004393314705444001
-0.011599204099145787   -0.09000530348599436   -0.0044906295713615174
-0.020690583680223536   -0.0701540577564672   -0.004552289485212556
-0.010569369731197991   -0.06987856066681082   -0.0043299017495082096
-0.011599204099145787   -0.09000530348599436   -0.0044906295713615174
-0.010623537025524914   -0.0697867476036698   -0.004393314705444001
-0.020690583680223536   -0.0701540577564672   -0.004552289485212556
-0.011599204099145787   -0.09000530348599436   -0.0044906295713615174
-0.021531305391401735   -0.09018853287135808   -0.004789173821715938
-0.021648629002673087   -0.08999582243553991   -0.004793883022520899
-0.020690583680223536   -0.0701540577564672   -0.004552289485212556
-0.011599204099145787   -0.09000530348599436   -0.0044906295713615174
-0.021648629002673087   -0.08999582243553991   -0.004793883022520899
-0.010623537025524914   -0.0697867476036698   -0.004393314705444001
-0.010704734324962497   -0.0695763956639673   -0.004580319445747252
-0.011858604151644114   -0.0896924109002488   -0.0046681299953166885
-0.0008910165848968222   -0.06953985036953887   -0.004439997352188991
-0.010668408898425958   -0.06968613536483433   -0.0044769433146589635
-0.011858604151644114   -0.0896924109002488   -0.0046681299953166885
-0.0022020074332256574   -0.0896399652662828   -0.0045877496373836835
-0.0008910165848968222   -0.06953985036953887   -0.004439997352188991
-0.0021103656052934966   -0.0896601047892331   -0.004474931456052798
-0.010668408898425958   -0.06968613536483433   -0.0044769433146589635
-0.0008397657730386284   -0.06957693840999882   -0.004353079602248308
-0.0021103656052934966   -0.0896601047892331   -0.004474931456052798
-0.0008910165848968222   -0.06953985036953887   -0.004439997352188991
-0.010668408898425958   -0.06968613536483433   -0.0044769433146589635
-0.0021103656052934966   -0.0896601047892331   -0.004474931456052798
-0.011781208978084219   -0.08977824107461847   -0.004588292396808925
-0.011858604151644114   -0.0896924109002488   -0.0046681299953166885
-0.010668408898425958   -0.06968613536483433   -0.0044769433146589635
-0.0021103656052934966   -0.0896601047892331   -0.004474931456052798
-0.011858604151644114   -0.0896924109002488   -0.0046681299953166885
-0.0008910165848968222   -0.06953985036953887   -0.004439997352188991
-0.010668408898425958   -0.06968613536483433   -0.0044769433146589635
-0.011781208978084219   -0.08977824107461847   -0.004588292396808925
-0.0008397657730386284   -0.06957693840999882   -0.004353079602248308
-0.010623537025524914   -0.0697867476036698   -0.004393314705444001
-0.011781208978084219   -0.08977824107461847   -0.004588292396808925
-0.0021103656052934966   -0.0896601047892331   -0.004474931456052798
-0.0008397657730386284   -0.06957693840999882   -0.004353079602248308
-0.0020237170241750703   -0.08969715031375843   -0.004382414964777381
-0.010623537025524914   -0.0697867476036698   -0.004393314705444001
-0.0007955554767023834   -0.06960425999647381   -0.004285733370136165
-0.0020237170241750703   -0.08969715031375843   -0.004382414964777381
-0.0008397657730386284   -0.06957693840999882   -0.004353079602248308
-0.010623537025524914   -0.0697867476036698   -0.004393314705444001
-0.0020237170241750703   -0.08969715031375843   -0.004382414964777381
-0.011693633651797871   -0.08988243046244515   -0.0045289068570772886
-0.011781208978084219   -0.08977824107461847   -0.004588292396808925
-0.010623537025524914   -0.0697867476036698   -0.004393314705444001
-0.0020237170241750703   -0.08969715031375843   -0.004382414964777381
-0.011781208978084219   -0.08977824107461847   -0.004588292396808925
-0.0008397657730386284   -0.06957693840999882   -0.004353079602248308
-0.010623537025524914   -0.0697867476036698   -0.004393314705444001
-0.011693633651797871   -0.08988243046244515   -0.0045289068570772886
-0.0007955554767023834   -0.06960425999647381   -0.004285733370136165
-0.010569369731197991   -0.06987856066681082   -0.0043299017495082096
-0.011693633651797871   -0.08988243046244515   -0.0045289068570772886
-0.0020237170241750703   -0.08969715031375843   -0.004382414964777381
-0.0007955554767023834   -0.06960425999647381   -0.004285733370136165
-0.0019503192769105375   -0.08975195466065913   -0.004310912321573987
-0.010569369731197991   -0.06987856066681082   -0.0043299017495082096
-0.0007621942572222746   -0.0696216792686777   -0.004238675802188744
-0.0019503192769105375   -0.08975195466065913   -0.004310912321573987
-0.0007955554767023834   -0.06960425999647381   -0.004285733370136165
-0.010569369731197991   -0.06987856066681082   -0.0043299017495082096
-0.0019503192769105375   -0.08975195466065913   -0.004310912321573987
-0.011599204099145787   -0.09000530348599436   -0.0044906295713615174
-0.011693633651797871   -0.08988243046244515   -0.0045289068570772886
-0.010569369731197991   -0.06987856066681082   -0.0043299017495082096
-0.0019503192769105375   -0.08975195466065913   -0.004310912321573987
-0.011693633651797871   -0.08988243046244515   -0.0045289068570772886
-0.0007955554767023834   -0.06960425999647381   -0.004285733370136165
-0.0008910165848968222   -0.06953985036953887   -0.004439997352188991
-0.0022020074332256574   -0.0896399652662828   -0.0045877496373836835
0.009222520829913637   -0.06952460577490444   -0.004431145412283101
-0.0008397657730386284   -0.06957693840999882   -0.004353079602248308
-0.0022020074332256574   -0.0896399652662828   -0.0045877496373836835
0.0077460353030679675   -0.08952327542447741   -0.0046264138991033
0.009222520829913637   -0.06952460577490444   -0.004431145412283101
0.007863046500675965   -0.08947753296348375   -0.004481222643098788
-0.0008397657730386284   -0.06957693840999882   -0.004353079602248308
0.009290745599393085   -0.06949136154543327   -0.00436151822433333
0.007863046500675965   -0.08947753296348375   -0.004481222643098788
0.009222520829913637   -0.06952460577490444   -0.004431145412283101
-0.0008397657730386284   -0.06957693840999882   -0.004353079602248308
0.007863046500675965   -0.08947753296348375   -0.004481222643098788
-0.0021103656052934966   -0.0896601047892331   -0.004474931456052798
-0.0022020074332256574   -0.0896399652662828   -0.0045877496373836835
-0.0008397657730386284   -0.06957693840999882   -0.004353079602248308
0.007863046500675965   -0.08947753296348375   -0.004481222643098788
-0.0022020074332256574   -0.0896399652662828   -0.0045877496373836835
0.009222520829913637   -0.06952460577490444   -0.004431145412283101
-0.0008397657730386284   -0.06957693840999882   -0.004353079602248308
-0.0021103656052934966   -0.0896601047892331   -0.004474931456052798
0.009290745599393085   -0.06949136154543327   -0.00436151822433333
-0.0007955554767023834   -0.06960425999647381   -0.004285733370136165
-0.0021103656052934966   -0.0896601047892331   -0.004474931456052798
0.007863046500675965   -0.08947753296348375   -0.004481222643098788
0.009290745599393085   -0.06949136154543327   -0.00436151822433333
0.007971015745542449   -0.08945376434611599   -0.004356275938281611
-0.0007955554767023834   -0.06960425999647381   -0.004285733370136165
0.009335864648251375   -0.069452363068109   -0.00431090608601947
0.007971015745542449   -0.08945376434611599   -0.004356275938281611
0.009290745599393085   -0.06949136154543327   -0.00436151822433333
-0.0007955554767023834   -0.06960425999647381   -0.004285733370136165
0.007971015745542449   -0.08945376434611599   -0.004356275938281611
-0.0020237170241750703   -0.08969715031375843   -0.004382414964777381
-0.0021103656052934966   -0.0896601047892331   -0.004474931456052798
-0.0007955554767023834   -0.06960425999647381   -0.004285733370136165
0.007971015745542449   -0.08945376434611599   -0.004356275938281611
-0.0021103656052934966   -0.0896601047892331   -0.004474931456052798
0.009290745599393085   -0.06949136154543327   -0.00436151822433333
-0.0007955554767023834   -0.06960425999647381   -0.004285733370136165
-0.0020237170241750703   -0.08969715031375843   -0.004382414964777381
0.009335864648251375   -0.069452363068109   -0.00431090608601947
-0.0007621942572222746   -0.0696216792686777   -0.004238675802188744
-0.0020237170241750703   -0.08969715031375843   -0.004382414964777381
0.007971015745542449   -0.08945376434611599   -0.004356275938281611
0.009335864648251375   -0.069452363068109   -0.00431090608601947
0.008028473797245085   -0.08944035655375353   -0.004250252201366302
-0.0007621942572222746   -0.0696216792686777   -0.004238675802188744
0.009343898122494206   -0.06939473788371416   -0.004278915726230074
0.008028473797245085   -0.08944035655375353   -0.004250252201366302
0.009335864648251375   -0.069452363068109   -0.00431090608601947
-0.0007621942572222746   -0.0696216792686777   -0.004238675802188744
0.008028473797245085   -0.08944035655375353   -0.004250252201366302
-0.0019503192769105375   -0.08975195466065913   -0.004310912321573987
-0.0020237170241750703   -0.08969715031375843   -0.004382414964777381
-0.0007621942572222746   -0.0696216792686777   -0.004238675802188744
0.008028473797245085   -0.08944035655375353   -0.004250252201366302
-0.0020237170241750703   -0.08969715031375843   -0.004382414964777381
0.009335864648251375   -0.069452363068109   -0.00431090608601947
0.009222520829913637   -0.06952460577490444   -0.004431145412283101
0.0077460353030679675   -0.08952327542447741   -0.0046264138991033
0.020183764912845136   -0.06950388694985134   -0.00454035134625458
0.009290745599393085   -0.06949136154543327   -0.00436151822433333
0.0077460353030679675   -0.08952327542447741   -0.0046264138991033
0.01839925749764978   -0.08932741398889604   -0.004790193679637966
0.020183764912845136   -0.06950388694985134   -0.00454035134625458
0.018705402458488955   -0.08922199441402197   -0.004599849758671512
0.009290745599393085   -0.06949136154543327   -0.00436151822433333
0.020317897469132644   -0.06941510637509424   -0.00448381355040942
0.018705402458488955   -0.08922199441402197   -0.004599849758671512
0.020183764912845136   -0.06950388694985134   -0.00454035134625458
0.009290745599393085   -0.06949136154543327   -0.00436151822433333
0.018705402458488955   -0.08922199441402197   -0.004599849758671512
0.007863046500675965   -0.08947753296348375   -0.004481222643098788
0.0077460353030679675   -0.08952327542447741   -0.0046264138991033
0.009290745599393085   -0.06949136154543327   -0.00436151822433333
0.018705402458488955   -0.08922199441402197   -0.004599849758671512
0.0077460353030679675   -0.08952327542447741   -0.0046264138991033
0.020183764912845136   -0.06950388694985134   -0.00454035134625458
0.009290745599393085   -0.06949136154543327   -0.00436151822433333
0.007863046500675965   -0.08947753296348375   -0.004481222643098788
0.020317897469132644   -0.06941510637509424   -0.00448381355040942
0.009335864648251375   -0.069452363068109   -0.00431090608601947
0.007863046500675965   -0.08947753296348375   -0.004481222643098788
0.018705402458488955   -0.08922199441402197   -0.004599849758671512
0.020317897469132644   -0.06941510637509424   -0.00448381355040942
0.018915341434498842   -0.08917089670901372   -0.004438319415125612
0.009335864648251375   -0.069452363068109   -0.00431090608601947
0.02038792828092376   -0.06934484630535054   -0.004456151921545022
0.018915341434498842   -0.08917089670901372   -0.004438319415125612
0.020317897469132644   -0.06941510637509424   -0.00448381355040942
0.009335864648251375   -0.069452363068109   -0.00431090608601947
0.018915341434498842   -0.08917089670901372   -0.004438319415125612
0.007971015745542449   -0.08945376434611599   -0.004356275938281611
0.007863046500675965   -0.08947753296348375   -0.004481222643098788
0.009335864648251375   -0.069452363068109   -0.00431090608601947
0.018915341434498842   -0.08917089670901372   -0.004438319415125612
0.007863046500675965   -0.08947753296348375   -0.004481222643098788
0.020317897469132644   -0.06941510637509424   -0.00448381355040942
0.009335864648251375   -0.069452363068109   -0.00431090608601947
0.007971015745542449   -0.08945376434611599   -0.004356275938281611
0.02038792828092376   -0.06934484630535054   -0.004456151921545022
0.009343898122494206   -0.06939473788371416   -0.004278915726230074
0.007971015745542449   -0.08945376434611599   -0.004356275938281611
0.018915341434498842   -0.08917089670901372   -0.004438319415125612
0.02038792828092376   -0.06934484630535054   -0.004456151921545022
0.019101195328155043   -0.08911499989067423   -0.004306794506947398
0.009343898122494206   -0.06939473788371416   -0.004278915726230074
0.020402879772206683   -0.0692316516324382   -0.004457857788516153
0.019101195328155043   -0.08911499989067423   -0.004306794506947398
0.02038792828092376   -0.06934484630535054   -0.004456151921545022
0.009343898122494206   -0.06939473788371416   -0.004278915726230074
0.019101195328155043   -0.08911499989067423   -0.004306794506947398
0.008028473797245085   -0.08944035655375353   -0.004250252201366302
0.007971015745542449   -0.08945376434611599   -0.004356275938281611
0.009343898122494206   -0.06939473788371416   -0.004278915726230074
0.019101195328155043   -0.08911499989067423   -0.004306794506947398
0.007971015745542449   -0.08945376434611599   -0.004356275938281611
0.02038792828092376   -0.06934484630535054   -0.004456151921545022
-0.03264666578478578   -0.08962929502125108   -0.0051580532837983755
-0.031776908755283925   -0.10861931649072647   -0.004930207825442696
-0.021796532067972163   -0.08968099143298205   -0.004863777456418935
-0.03261049961580504   -0.08982918779215804   -0.005148183368825578
-0.031776908755283925   -0.10861931649072647   -0.004930207825442696
-0.02170832651857851   -0.10883819745330636   -0.004752648235339307
-0.021796532067972163   -0.08968099143298205   -0.004863777456418935
-0.02158120917527775   -0.10894987465109979   -0.004779345775394942
-0.03261049961580504   -0.08982918779215804   -0.005148183368825578
-0.02173896888911814   -0.08983043354047529   -0.004818645315053297
-0.02158120917527775   -0.10894987465109979   -0.004779345775394942
-0.021796532067972163   -0.08968099143298205   -0.004863777456418935
-0.03261049961580504   -0.08982918779215804   -0.005148183368825578
-0.02158120917527775   -0.10894987465109979   -0.004779345775394942
-0.03154750497295852   -0.1087700846380677   -0.005056029870571208
-0.031776908755283925   -0.10861931649072647   -0.004930207825442696
-0.03261049961580504   -0.08982918779215804   -0.005148183368825578
-0.02158120917527775   -0.10894987465109979   -0.004779345775394942
-0.031776908755283925   -0.10861931649072647   -0.004930207825442696
-0.021796532067972163   -0.08968099143298205   -0.004863777456418935
-0.03261049961580504   -0.08982918779215804   -0.005148183368825578
-0.03154750497295852   -0.1087700846380677   -0.005056029870571208
-0.02173896888911814   -0.08983043354047529   -0.004818645315053297
-0.032511824994993235   -0.0900230483654562   -0.005168758445020759
-0.03154750497295852   -0.1087700846380677   -0.005056029870571208
-0.02158120917527775   -0.10894987465109979   -0.004779345775394942
-0.02173896888911814   -0.08983043354047529   -0.004818645315053297
-0.021408936167463644   -0.10910862718582208   -0.004826966214175386
-0.032511824994993235   -0.0900230483654562   -0.005168758445020759
-0.021648629002673087   -0.08999582243553991   -0.004793883022520899
-0.021408936167463644   -0.10910862718582208   -0.004826966214175386
-0.02173896888911814   -0.08983043354047529   -0.004818645315053297
-0.032511824994993235   -0.0900230483654562   -0.005168758445020759
-0.021408936167463644   -0.10910862718582208   -0.004826966214175386
-0.031285295604445595   -0.10895481938177033   -0.005214764360977682
-0.03154750497295852   -0.1087700846380677   -0.005056029870571208
-0.032511824994993235   -0.0900230483654562   -0.005168758445020759
-0.021408936167463644   -0.10910862718582208   -0.004826966214175386
-0.03154750497295852   -0.1087700846380677   -0.005056029870571208
-0.02173896888911814   -0.08983043354047529   -0.004818645315053297
-0.032511824994993235   -0.0900230483654562   -0.005168758445020759
-0.031285295604445595   -0.10895481938177033   -0.005214764360977682
-0.021648629002673087   -0.08999582243553991   -0.004793883022520899
-0.03235094910453627   -0.09027256713403387   -0.005221300513406954
-0.031285295604445595   -0.10895481938177033   -0.005214764360977682
-0.021408936167463644   -0.10910862718582208   -0.004826966214175386
-0.021648629002673087   -0.08999582243553991   -0.004793883022520899
-0.021224012581625522   -0.10932412748089751   -0.004896138463057803
-0.03235094910453627   -0.09027256713403387   -0.005221300513406954
-0.021531305391401735   -0.09018853287135808   -0.004789173821715938
-0.021224012581625522   -0.10932412748089751   -0.004896138463057803
-0.021648629002673087   -0.08999582243553991   -0.004793883022520899
-0.03235094910453627   -0.09027256713403387   -0.005221300513406954
-0.021224012581625522   -0.10932412748089751   -0.004896138463057803
-0.030927990557014604   -0.1092358655024571   -0.005407000446256634
-0.031285295604445595   -0.10895481938177033   -0.005214764360977682
-0.03235094910453627   -0.09027256713403387   -0.005221300513406954
-0.021224012581625522   -0.10932412748089751   -0.004896138463057803
-0.031285295604445595   -0.10895481938177033   -0.005214764360977682
-0.021648629002673087   -0.08999582243553991   -0.004793883022520899
-0.021796532067972163   -0.08968099143298205   -0.004863777456418935
-0.02170832651857851   -0.10883819745330636   -0.004752648235339307
-0.011858604151644114   -0.0896924109002488   -0.0046681299953166885
-0.02173896888911814   -0.08983043354047529   -0.004818645315053297
-0.02170832651857851   -0.10883819745330636   -0.004752648235339307
-0.012684910998933123   -0.10892510078876806   -0.0046389291706783525
-0.011858604151644114   -0.0896924109002488   -0.0046681299953166885
-0.012546390256054979   -0.10898326956265973   -0.004580810687878509
-0.02173896888911814   -0.08983043354047529   -0.004818645315053297
-0.011781208978084219   -0.08977824107461847   -0.004588292396808925
-0.012546390256054979   -0.10898326956265973   -0.004580810687878509
-0.011858604151644114   -0.0896924109002488   -0.0046681299953166885
-0.02173896888911814   -0.08983043354047529   -0.004818645315053297
-0.012546390256054979   -0.10898326956265973   -0.004580810687878509
-0.02158120917527775   -0.10894987465109979   -0.004779345775394942
-0.02170832651857851   -0.10883819745330636   -0.004752648235339307
-0.02173896888911814   -0.08983043354047529   -0.004818645315053297
-0.012546390256054979   -0.10898326956265973   -0.004580810687878509
-0.02170832651857851   -0.10883819745330636   -0.004752648235339307
-0.011858604151644114   -0.0896924109002488   -0.0046681299953166885
-0.02173896888911814   -0.08983043354047529   -0.004818645315053297
-0.02158120917527775   -0.10894987465109979   -0.004779345775394942
-0.011781208978084219   -0.08977824107461847   -0.004588292396808925
-0.021648629002673087   -0.08999582243553991   -0.004793883022520899
-0.02158120917527775   -0.10894987465109979   -0.004779345775394942
-0.012546390256054979   -0.10898326956265973   -0.004580810687878509
-0.011781208978084219   -0.08977824107461847   -0.004588292396808925
-0.012397345539639741   -0.10908672097588103   -0.004543362418221383
-0.021648629002673087   -0.08999582243553991   -0.004793883022520899
-0.011693633651797871   -0.08988243046244515   -0.0045289068570772886
-0.012397345539639741   -0.10908672097588103   -0.004543362418221383
-0.011781208978084219   -0.08977824107461847   -0.004588292396808925
-0.021648629002673087   -0.08999582243553991   -0.004793883022520899
-0.012397345539639741   -0.10908672097588103   -0.004543362418221383
-0.021408936167463644   -0.10910862718582208   -0.004826966214175386
-0.02158120917527775   -0.10894987465109979   -0.004779345775394942
-0.021648629002673087   -0.08999582243553991   -0.004793883022520899
-0.012397345539639741   -0.10908672097588103   -0.004543362418221383
-0.02158120917527775   -0.10894987465109979   -0.004779345775394942
-0.011781208978084219   -0.08977824107461847   -0.004588292396808925
-0.021648629002673087   -0.08999582243553991   -0.004793883022520899
-0.021408936167463644   -0.10910862718582208   -0.004826966214175386
-0.011693633651797871   -0.08988243046244515   -0.0045289068570772886
-0.021531305391401735   -0.09018853287135808   -0.004789173821715938
-0.021408936167463644   -0.10910862718582208   -0.004826966214175386
-0.012397345539639741   -0.10908672097588103   -0.004543362418221383
-0.011693633651797871   -0.08988243046244515   -0.0045289068570772886
-0.012244143331210208   -0.10923677338285454   -0.004527587831242757
-0.021531305391401735   -0.09018853287135808   -0.004789173821715938
-0.011599204099145787   -0.09000530348599436   -0.0044906295713615174
-0.012244143331210208   -0.10923677338285454   -0.004527587831242757
-0.011693633651797871   -0.08988243046244515   -0.0045289068570772886
-0.021531305391401735   -0.09018853287135808   -0.004789173821715938
-0.012244143331210208   -0.10923677338285454   -0.004527587831242757
-0.021224012581625522   -0.10932412748089751   -0.004896138463057803
-0.021408936167463644   -0.10910862718582208   -0.004826966214175386
-0.021531305391401735   -0.09018853287135808   -0.004789173821715938
-0.012244143331210208   -0.10923677338285454   -0.004527587831242757
-0.021408936167463644   -0.10910862718582208   -0.004826966214175386
-0.011693633651797871   -0.08988243046244515   -0.0045289068570772886
-0.011858604151644114   -0.0896924109002488   -0.0046681299953166885
-0.012684910998933123   -0.10892510078876806   -0.0046389291706783525
-0.0022020074332256574   -0.0896399652662828   -0.0045877496373836835
-0.011781208978084219   -0.08977824107461847   -0.004588292396808925
-0.012684910998933123   -0.10892510078876806   -0.0046389291706783525
-0.003935096364509391   -0.10885896920319814   -0.004619593149089472
-0.0022020074332256574   -0.0896399652662828   -0.0045877496373836835
-0.0037818691152156432   -0.10886058045488683   -0.0044795679624506785
-0.011781208978084219   -0.08977824107461847   -0.004588292396808925
-0.0021103656052934966   -0.0896601047892331   -0.004474931456052798
-0.0037818691152156432   -0.10886058045488683   -0.0044795679624506785
-0.0022020074332256574   -0.0896399652662828   -0.0045877496373836835
-0.011781208978084219   -0.08977824107461847   -0.004588292396808925
-0.0037818691152156432   -0.10886058045488683   -0.0044795679624506785
-0.012546390256054979   -0.10898326956265973   -0.004580810687878509
-0.012684910998933123   -0.10892510078876806   -0.0046389291706783525
-0.011781208978084219   -0.08977824107461847   -0.004588292396808925
-0.0037818691152156432   -0.10886058045488683   -0.0044795679624506785
-0.012684910998933123   -0.10892510078876806   -0.0046389291706783525
-0.0022020074332256574   -0.0896399652662828   -0.0045877496373836835
-0.011781208978084219   -0.08977824107461847   -0.004588292396808925
-0.012546390256054979   -0.10898326956265973   -0.004580810687878509
-0.0021103656052934966   -0.0896601047892331   -0.004474931456052798
-0.011693633651797871   -0.08988243046244515   -0.0045289068570772886
-0.012546390256054979   -0.10898326956265973   -0.004580810687878509
-0.0037818691152156432   -0.10886058045488683   -0.0044795679624506785
-0.0021103656052934966   -0.0896601047892331   -0.004474931456052798
-0.0036326818002232445   -0.10890412776389871   -0.004360259119462067
-0.011693633651797871   -0.08988243046244515   -0.0045289068570772886
-0.0020237170241750703   -0.08969715031375843   -0.004382414964777381
-0.0036326818002232445   -0.10890412776389871   -0.004360259119462067
-0.0021103656052934966   -0.0896601047892331   -0.004474931456052798
-0.011693633651797871   -0.08988243046244515   -0.0045289068570772886
-0.0036326818002232445   -0.10890412776389871   -0.004360259119462067
-0.012397345539639741   -0.10908672097588103   -0.004543362418221383
-0.012546390256054979   -0.10898326956265973   -0.004580810687878509
-0.011693633651797871   -0.08988243046244515   -0.0045289068570772886
-0.0036326818002232445   -0.10890412776389871   -0.004360259119462067
-0.012546390256054979   -0.10898326956265973   -0.004580810687878509
-0.0021103656052934966   -0.0896601047892331   -0.004474931456052798
-0.011693633651797871   -0.08988243046244515   -0.0045289068570772886
-0.012397345539639741   -0.10908672097588103   -0.004543362418221383
-0.0020237170241750703   -0.08969715031375843   -0.004382414964777381
-0.011599204099145787   -0.09000530348599436   -0.0044906295713615174
-0.012397345539639741   -0.10908672097588103   -0.004543362418221383
-0.0036326818002232445   -0.10890412776389871   -0.004360259119462067
-0.0020237170241750703   -0.08969715031375843   -0.004382414964777381
-0.003499642749128979   -0.10899324348661556   -0.004262389080272691
-0.011599204099145787   -0.09000530348599436   -0.0044906295713615174
-0.0019503192769105375   -0.08975195466065913   -0.004310912321573987
-0.003499642749128979   -0.10899324348661556   -0.004262389080272691
-0.0020237170241750703   -0.08969715031375843   -0.004382414964777381
-0.011599204099145787   -0.09000530348599436   -0.0044906295713615174
-0.003499642749128979   -0.10899324348661556   -0.004262389080272691
-0.012244143331210208   -0.10923677338285454   -0.004527587831242757
-0.012397345539639741   -0.10908672097588103   -0.004543362418221383
-0.011599204099145787   -0.09000530348599436   -0.0044906295713615174
-0.003499642749128979   -0.10899324348661556   -0.004262389080272691
-0.012397345539639741   -0.10908672097588103   -0.004543362418221383
-0.0020237170241750703   -0.08969715031375843   -0.004382414964777381
-0.0022020074332256574   -0.0896399652662828   -0.0045877496373836835
-0.003935096364509391   -0.10885896920319814   -0.004619593149089472
0.0077460353030679675   -0.08952327542447741   -0.0046264138991033
-0.0021103656052934966   -0.0896601047892331   -0.004474931456052798
-0.003935096364509391   -0.10885896920319814   -0.004619593149089472
0.00511776615830811   -0.10864444432925262   -0.004702058877255461
0.0077460353030679675   -0.08952327542447741   -0.0046264138991033
0.005305081337821237   -0.10858569034748784   -0.004480925439291311
-0.0021103656052934966   -0.0896601047892331   -0.004474931456052798
0.007863046500675965   -0.08947753296348375   -0.004481222643098788
0.005305081337821237   -0.10858569034748784   -0.004480925439291311
0.0077460353030679675   -0.08952327542447741   -0.0046264138991033
-0.0021103656052934966   -0.0896601047892331   -0.004474931456052798
0.005305081337821237   -0.10858569034748784   -0.004480925439291311
-0.0037818691152156432   -0.10886058045488683   -0.0044795679624506785
-0.003935096364509391   -0.10885896920319814   -0.004619593149089472
-0.0021103656052934966   -0.0896601047892331   -0.004474931456052798
0.005305081337821237   -0.10858569034748784   -0.004480925439291311
-0.003935096364509391   -0.10885896920319814   -0.004619593149089472
0.0077460353030679675   -0.08952327542447741   -0.0046264138991033
-0.0021103656052934966   -0.0896601047892331   -0.004474931456052798
-0.0037818691152156432   -0.10886058045488683   -0.0044795679624506785
0.007863046500675965   -0.08947753296348375   -0.004481222643098788
-0.0020237170241750703   -0.08969715031375843   -0.004382414964777381
-0.0037818691152156432   -0.10886058045488683   -0.0044795679624506785
0.005305081337821237   -0.10858569034748784   -0.004480925439291311
0.007863046500675965   -0.08947753296348375   -0.004481222643098788
0.005497048288305984   -0.10857483352183732   -0.004281842377736817
-0.0020237170241750703   -0.08969715031375843   -0.004382414964777381
0.007971015745542449   -0.08945376434611599   -0.004356275938281611
0.005497048288305984   -0.10857483352183732   -0.004281842377736817
0.007863046500675965   -0.08947753296348375   -0.004481222643098788
-0.0020237170241750703   -0.08969715031375843   -0.004382414964777381
0.005497048288305984   -0.10857483352183732   -0.004281842377736817
-0.0036326818002232445   -0.10890412776389871   -0.004360259119462067
-0.0037818691152156432   -0.10886058045488683   -0.0044795679624506785
-0.0020237170241750703   -0.08969715031375843   -0.004382414964777381
0.005497048288305984   -0.10857483352183732   -0.004281842377736817
-0.0037818691152156432   -0.10886058045488683   -0.0044795679624506785
0.007863046500675965   -0.08947753296348375   -0.004481222643098788
-0.0020237170241750703   -0.08969715031375843   -0.004382414964777381
-0.0036326818002232445   -0.10890412776389871   -0.004360259119462067
0.007971015745542449   -0.08945376434611599   -0.004356275938281611
-0.0019503192769105375   -0.08975195466065913   -0.004310912321573987
-0.0036326818002232445   -0.10890412776389871   -0.004360259119462067
0.005497048288305984   -0.10857483352183732   -0.004281842377736817
0.007971015745542449   -0.08945376434611599   -0.004356275938281611
0.0056245327952808045   -0.10860301445349618   -0.004101904152673947
-0.0019503192769105375   -0.08975195466065913   -0.004310912321573987
0.008028473797245085   -0.08944035655375353   -0.004250252201366302
0.0056245327952808045   -0.10860301445349618   -0.004101904152673947
0.007971015745542449   -0.08945376434611599   -0.004356275938281611
-0.0019503192769105375   -0.08975195466065913   -0.004310912321573987
0.0056245327952808045   -0.10860301445349618   -0.004101904152673947
-0.003499642749128979   -0.10899324348661556   -0.004262389080272691
-0.0036326818002232445   -0.10890412776389871   -0.004360259119462067
-0.0019503192769105375   -0.08975195466065913   -0.004310912321573987
0.0056245327952808045   -0.10860301445349618   -0.004101904152673947
-0.0036326818002232445   -0.10890412776389871   -0.004360259119462067
0.007971015745542449   -0.08945376434611599   -0.004356275938281611
0.0077460353030679675   -0.08952327542447741   -0.0046264138991033
0.00511776615830811   -0.10864444432925262   -0.004702058877255461
0.01839925749764978   -0.08932741398889604   -0.004790193679637966
0.007863046500675965   -0.08947753296348375   -0.004481222643098788
0.00511776615830811   -0.10864444432925262   -0.004702058877255461
0.014751636691792028   -0.10827571624643412   -0.004915879994096856
0.01839925749764978   -0.08932741398889604   -0.004790193679637966
0.015249878228238638   -0.10815434314520546   -0.004594268847463118
0.007863046500675965   -0.08947753296348375   -0.004481222643098788
0.018705402458488955   -0.08922199441402197   -0.004599849758671512
0.015249878228238638   -0.10815434314520546   -0.004594268847463118
0.01839925749764978   -0.08932741398889604   -0.004790193679637966
0.007863046500675965   -0.08947753296348375   -0.004481222643098788
0.015249878228238638   -0.10815434314520546   -0.004594268847463118
0.005305081337821237   -0.10858569034748784   -0.004480925439291311
0.00511776615830811   -0.10864444432925262   -0.004702058877255461
0.007863046500675965   -0.08947753296348375   -0.004481222643098788
0.015249878228238638   -0.10815434314520546   -0.004594268847463118
0.00511776615830811   -0.10864444432925262   -0.004702058877255461
0.01839925749764978   -0.08932741398889604   -0.004790193679637966
0.007863046500675965   -0.08947753296348375   -0.004481222643098788
0.005305081337821237   -0.10858569034748784   -0.004480925439291311
0.018705402458488955   -0.08922199441402197   -0.004599849758671512
0.007971015745542449   -0.08945376434611599   -0.004356275938281611
0.005305081337821237   -0.10858569034748784   -0.004480925439291311
0.015249878228238638   -0.10815434314520546   -0.004594268847463118
0.018705402458488955   -0.08922199441402197   -0.004599849758671512
0.01561859402300548   -0.10812106653923569   -0.004301966259235586
0.007971015745542449   -0.08945376434611599   -0.004356275938281611
0.018915341434498842   -0.08917089670901372   -0.004438319415125612
0.01561859402300548   -0.10812106653923569   -0.004301966259235586
0.018705402458488955   -0.08922199441402197   -0.004599849758671512
0.007971015745542449   -0.08945376434611599   -0.004356275938281611
0.01561859402300548   -0.10812106653923569   -0.004301966259235586
0.005497048288305984   -0.10857483352183732   -0.004281842377736817
0.005305081337821237   -0.10858569034748784   -0.004480925439291311
0.007971015745542449   -0.08945376434611599   -0.004356275938281611
0.01561859402300548   -0.10812106653923569   -0.004301966259235586
0.005305081337821237   -0.10858569034748784   -0.004480925439291311
0.018705402458488955   -0.08922199441402197   -0.004599849758671512
0.007971015745542449   -0.08945376434611599   -0.004356275938281611
0.005497048288305984   -0.10857483352183732   -0.004281842377736817
0.018915341434498842   -0.08917089670901372   -0.004438319415125612
0.008028473797245085   -0.08944035655375353   -0.004250252201366302
0.005497048288305984   -0.10857483352183732   -0.004281842377736817
0.01561859402300548   -0.10812106653923569   -0.004301966259235586
0.018915341434498842   -0.08917089670901372   -0.004438319415125612
0.01599198666494812   -0.10812066105960298   -0.004040296387195907
0.008028473797245085   -0.08944035655375353   -0.004250252201366302
0.019101195328155043   -0.08911499989067423   -0.004306794506947398
0.01599198666494812   -0.10812066105960298   -0.004040296387195907
0.018915341434498842   -0.08917089670901372   -0.004438319415125612
0.008028473797245085   -0.08944035655375353   -0.004250252201366302
0.01599198666494812   -0.10812066105960298   -0.004040296387195907
0.0056245327952808045   -0.10860301445349618   -0.004101904152673947
0.005497048288305984   -0.10857483352183732   -0.004281842377736817
0.008028473797245085   -0.08944035655375353   -0.004250252201366302
0.01599198666494812   -0.10812066105960298   -0.004040296387195907
0.005497048288305984   -0.10857483352183732   -0.004281842377736817
0.018915341434498842   -0.08917089670901372   -0.004438319415125612
-0.031776908755283925   -0.10861931649072647   -0.004930207825442696
-0.02899874205849725   -0.12543040984963907   -0.004596553856731714
-0.02170832651857851   -0.10883819745330636   -0.004752648235339307
-0.03154750497295852   -0.1087700846380677   -0.005056029870571208
-0.02899874205849725   -0.12543040984963907   -0.004596553856731714
-0.02052272488672161   -0.1258259716797947   -0.004567695583482336
-0.02170832651857851   -0.10883819745330636   -0.004752648235339307
-0.020310715152608506   -0.12588323109679705   -0.004661132909034646
-0.03154750497295852   -0.1087700846380677   -0.005056029870571208
-0.02158120917527775   -0.10894987465109979   -0.004779345775394942
-0.020310715152608506   -0.12588323109679705   -0.004661132909034646
-0.02170832651857851   -0.10883819745330636   -0.004752648235339307
-0.03154750497295852   -0.1087700846380677   -0.005056029870571208
-0.020310715152608506   -0.12588323109679705   -0.004661132909034646
-0.028557676810518285   -0.1255154407406832   -0.004857894287842474
-0.02899874205849725   -0.12543040984963907   -0.004596553856731714
-0.03154750497295852   -0.1087700846380677   -0.005056029870571208
-0.020310715152608506   -0.12588323109679705   -0.004661132909034646
-0.02899874205849725   -0.12543040984963907   -0.004596553856731714
-0.02170832651857851   -0.10883819745330636   -0.004752648235339307
-0.03154750497295852   -0.1087700846380677   -0.005056029870571208
-0.028557676810518285   -0.1255154407406832   -0.004857894287842474
-0.02158120917527775   -0.10894987465109979   -0.004779345775394942
-0.031285295604445595   -0.10895481938177033   -0.005214764360977682
-0.028557676810518285   -0.1255154407406832   -0.004857894287842474
-0.020310715152608506   -0.12588323109679705   -0.004661132909034646
-0.02158120917527775   -0.10894987465109979   -0.004779345775394942
-0.020044447412537983   -0.12602018121262643   -0.004775839559994533
-0.031285295604445595   -0.10895481938177033   -0.005214764360977682
-0.021408936167463644   -0.10910862718582208   -0.004826966214175386
-0.020044447412537983   -0.12602018121262643   -0.004775839559994533
-0.02158120917527775   -0.10894987465109979   -0.004779345775394942
-0.031285295604445595   -0.10895481938177033   -0.005214764360977682
-0.020044447412537983   -0.12602018121262643   -0.004775839559994533
-0.02811746655758588   -0.12567615107184757   -0.005153870880035528
-0.028557676810518285   -0.1255154407406832   -0.004857894287842474
-0.031285295604445595   -0.10895481938177033   -0.005214764360977682
-0.020044447412537983   -0.12602018121262643   -0.004775839559994533
-0.028557676810518285   -0.1255154407406832   -0.004857894287842474
-0.02158120917527775   -0.10894987465109979   -0.004779345775394942
-0.031285295604445595   -0.10895481938177033   -0.005214764360977682
-0.02811746655758588   -0.12567615107184757   -0.005153870880035528
-0.021408936167463644   -0.10910862718582208   -0.004826966214175386
-0.030927990557014604   -0.1092358655024571   -0.005407000446256634
-0.02811746655758588   -0.12567615107184757   -0.005153870880035528
-0.020044447412537983   -0.12602018121262643   -0.004775839559994533
-0.021408936167463644   -0.10910862718582208   -0.004826966214175386
-0.01978167541256909   -0.1262445960029362   -0.0049116166340058
-0.030927990557014604   -0.1092358655024571   -0.005407000446256634
-0.021224012581625522   -0.10932412748089751   -0.004896138463057803
-0.01978167541256909   -0.1262445960029362   -0.0049116166340058
-0.021408936167463644   -0.10910862718582208   -0.004826966214175386
-0.030927990557014604   -0.1092358655024571   -0.005407000446256634
-0.01978167541256909   -0.1262445960029362   -0.0049116166340058
-0.027553510067145504   -0.12597582552506645   -0.005483824291318406
-0.02811746655758588   -0.12567615107184757   -0.005153870880035528
-0.030927990557014604   -0.1092358655024571   -0.005407000446256634
-0.01978167541256909   -0.1262445960029362   -0.0049116166340058
-0.02811746655758588   -0.12567615107184757   -0.005153870880035528
-0.021408936167463644   -0.10910862718582208   -0.004826966214175386
-0.02170832651857851   -0.10883819745330636   -0.004752648235339307
-0.02052272488672161   -0.1258259716797947   -0.004567695583482336
-0.012684910998933123   -0.10892510078876806   -0.0046389291706783525
-0.02158120917527775   -0.10894987465109979   -0.004779345775394942
-0.02052272488672161   -0.1258259716797947   -0.004567695583482336
-0.013186829395304628   -0.12601177192387597   -0.004556088619202167
-0.012684910998933123   -0.10892510078876806   -0.0046389291706783525
-0.01296921464979009   -0.12603062826048844   -0.004514401783042221
-0.02158120917527775   -0.10894987465109979   -0.004779345775394942
-0.012546390256054979   -0.10898326956265973   -0.004580810687878509
-0.01296921464979009   -0.12603062826048844   -0.004514401783042221
-0.012684910998933123   -0.10892510078876806   -0.0046389291706783525
-0.02158120917527775   -0.10894987465109979   -0.004779345775394942
-0.01296921464979009   -0.12603062826048844   -0.004514401783042221
-0.020310715152608506   -0.12588323109679705   -0.004661132909034646
-0.02052272488672161   -0.1258259716797947   -0.004567695583482336
-0.02158120917527775   -0.10894987465109979   -0.004779345775394942
-0.01296921464979009   -0.12603062826048844   -0.004514401783042221
-0.02052272488672161   -0.1258259716797947   -0.004567695583482336
-0.012684910998933123   -0.10892510078876806   -0.0046389291706783525
-0.02158120917527775   -0.10894987465109979   -0.004779345775394942
-0.020310715152608506   -0.12588323109679705   -0.004661132909034646
-0.012546390256054979   -0.10898326956265973   -0.004580810687878509
-0.021408936167463644   -0.10910862718582208   -0.004826966214175386
-0.020310715152608506   -0.12588323109679705   -0.004661132909034646
-0.01296921464979009   -0.12603062826048844   -0.004514401783042221
-0.012546390256054979   -0.10898326956265973   -0.004580810687878509
-0.012744647561968109   -0.12612062000473384   -0.004493355087326943
-0.021408936167463644   -0.10910862718582208   -0.004826966214175386
-0.012397345539639741   -0.10908672097588103   -0.004543362418221383
-0.012744647561968109   -0.12612062000473384   -0.004493355087326943
-0.012546390256054979   -0.10898326956265973   -0.004580810687878509
-0.021408936167463644   -0.10910862718582208   -0.004826966214175386
-0.012744647561968109   -0.12612062000473384   -0.004493355087326943
-0.020044447412537983   -0.12602018121262643   -0.004775839559994533
-0.020310715152608506   -0.12588323109679705   -0.004661132909034646
-0.021408936167463644   -0.10910862718582208   -0.004826966214175386
-0.012744647561968109   -0.12612062000473384   -0.004493355087326943
-0.020310715152608506   -0.12588323109679705   -0.004661132909034646
-0.012546390256054979   -0.10898326956265973   -0.004580810687878509
-0.021408936167463644   -0.10910862718582208   -0.004826966214175386
-0.020044447412537983   -0.12602018121262643   -0.004775839559994533
-0.012397345539639741   -0.10908672097588103   -0.004543362418221383
-0.021224012581625522   -0.10932412748089751   -0.004896138463057803
-0.020044447412537983   -0.12602018121262643   -0.004775839559994533
-0.012744647561968109   -0.12612062000473384   -0.004493355087326943
-0.012397345539639741   -0.10908672097588103   -0.004543362418221383
-0.012520467762131334   -0.12628598695046753   -0.004492668501767864
-0.021224012581625522   -0.10932412748089751   -0.004896138463057803
-0.012244143331210208   -0.10923677338285454   -0.004527587831242757
-0.012520467762131334   -0.12628598695046753   -0.004492668501767864
-0.012397345539639741   -0.10908672097588103   -0.004543362418221383
-0.021224012581625522   -0.10932412748089751   -0.004896138463057803
-0.012520467762131334   -0.12628598695046753   -0.004492668501767864
-0.01978167541256909   -0.1262445960029362   -0.0049116166340058
-0.020044447412537983   -0.12602018121262643   -0.004775839559994533
-0.021224012581625522   -0.10932412748089751   -0.004896138463057803
-0.012520467762131334   -0.12628598695046753   -0.004492668501767864
-0.020044447412537983   -0.12602018121262643   -0.004775839559994533
-0.012397345539639741   -0.10908672097588103   -0.004543362418221383
-0.012684910998933123   -0.10892510078876806   -0.0046389291706783525
-0.013186829395304628   -0.12601177192387597   -0.004556088619202167
-0.003935096364509391   -0.10885896920319814   -0.004619593149089472
-0.012546390256054979   -0.10898326956265973   -0.004580810687878509
-0.013186829395304628   -0.12601177192387597   -0.004556088619202167
-0.006094818276005312   -0.1259790514823181   -0.004608310668325536
-0.003935096364509391   -0.10885896920319814   -0.004619593149089472
-0.0058564441408469285   -0.12595481572170034   -0.004436251101813341
-0.012546390256054979   -0.10898326956265973   -0.004580810687878509
-0.0037818691152156432   -0.10886058045488683   -0.0044795679624506785
-0.0058564441408469285   -0.12595481572170034   -0.004436251101813341
-0.003935096364509391   -0.10885896920319814   -0.004619593149089472
-0.012546390256054979   -0.10898326956265973   -0.004580810687878509
-0.0058564441408469285   -0.12595481572170034   -0.004436251101813341
-0.01296921464979009   -0.12603062826048844   -0.004514401783042221
-0.013186829395304628   -0.12601177192387597   -0.004556088619202167
-0.012546390256054979   -0.10898326956265973   -0.004580810687878509
-0.0058564441408469285   -0.12595481572170034   -0.004436251101813341
-0.013186829395304628   -0.12601177192387597   -0.004556088619202167
-0.003935096364509391   -0.10885896920319814   -0.004619593149089472
-0.012546390256054979   -0.10898326956265973   -0.004580810687878509
-0.01296921464979009   -0.12603062826048844   -0.004514401783042221
-0.0037818691152156432   -0.10886058045488683   -0.0044795679624506785
-0.012397345539639741   -0.10908672097588103   -0.004543362418221383
-0.01296921464979009   -0.12603062826048844   -0.004514401783042221
-0.0058564441408469285   -0.12595481572170034   -0.004436251101813341
-0.0037818691152156432   -0.10886058045488683   -0.0044795679624506785
-0.005625155093829006   -0.1259948469526445   -0.004286190752641576
-0.012397345539639741   -0.10908672097588103   -0.004543362418221383
-0.0036326818002232445   -0.10890412776389871   -0.004360259119462067
-0.005625155093829006   -0.1259948469526445   -0.004286190752641576
-0.0037818691152156432   -0.10886058045488683   -0.0044795679624506785
-0.012397345539639741   -0.10908672097588103   -0.004543362418221383
-0.005625155093829006   -0.1259948469526445   -0.004286190752641576
-0.012744647561968109   -0.12612062000473384   -0.004493355087326943
-0.01296921464979009   -0.12603062826048844   -0.004514401783042221
-0.012397345539639741   -0.10908672097588103   -0.004543362418221383
-0.005625155093829006   -0.1259948469526445   -0.004286190752641576
-0.01296921464979009   -0.12603062826048844   -0.004514401783042221
-0.0037818691152156432   -0.10886058045488683   -0.0044795679624506785
-0.012397345539639741   -0.10908672097588103   -0.004543362418221383
-0.012744647561968109   -0.12612062000473384   -0.004493355087326943
-0.0036326818002232445   -0.10890412776389871   -0.004360259119462067
-0.012244143331210208   -0.10923677338285454   -0.004527587831242757
-0.012744647561968109   -0.12612062000473384   -0.004493355087326943
-0.005625155093829006   -0.1259948469526445   -0.004286190752641576
-0.0036326818002232445   -0.10890412776389871   -0.004360259119462067
-0.005416245510457575   -0.12610857019170355   -0.004156216381815309
-0.012244143331210208   -0.10923677338285454   -0.004527587831242757
-0.003499642749128979   -0.10899324348661556   -0.004262389080272691
-0.005416245510457575   -0.12610857019170355   -0.004156216381815309
-0.0036326818002232445   -0.10890412776389871   -0.004360259119462067
-0.012244143331210208   -0.10923677338285454   -0.004527587831242757
-0.005416245510457575   -0.12610857019170355   -0.004156216381815309
-0.012520467762131334   -0.12628598695046753   -0.004492668501767864
-0.012744647561968109   -0.12612062000473384   -0.004493355087326943
-0.012244143331210208   -0.10923677338285454   -0.004527587831242757
-0.005416245510457575   -0.12610857019170355   -0.004156216381815309
-0.012744647561968109   -0.12612062000473384   -0.004493355087326943
-0.0036326818002232445   -0.10890412776389871   -0.004360259119462067
-0.003935096364509391   -0.10885896920319814   -0.004619593149089472
-0.006094818276005312   -0.1259790514823181   -0.004608310668325536
0.00511776615830811   -0.10864444432925262   -0.004702058877255461
-0.0037818691152156432   -0.10886058045488683   -0.0044795679624506785
-0.006094818276005312   -0.1259790514823181   -0.004608310668325536
0.0013319968031834536   -0.12572001330520316   -0.004735984187755307
0.00511776615830811   -0.10864444432925262   -0.004702058877255461
0.0016218745931776092   -0.12564098143618277   -0.0044340296171466054
-0.0037818691152156432   -0.10886058045488683   -0.0044795679624506785
0.005305081337821237   -0.10858569034748784   -0.004480925439291311
0.0016218745931776092   -0.12564098143618277   -0.0044340296171466054
0.00511776615830811   -0.10864444432925262   -0.004702058877255461
-0.0037818691152156432   -0.10886058045488683   -0.0044795679624506785
0.0016218745931776092   -0.12564098143618277   -0.0044340296171466054
-0.0058564441408469285   -0.12595481572170034   -0.004436251101813341
-0.006094818276005312   -0.1259790514823181   -0.004608310668325536
-0.0037818691152156432   -0.10886058045488683   -0.0044795679624506785
0.0016218745931776092   -0.12564098143618277   -0.0044340296171466054
-0.006094818276005312   -0.1259790514823181   -0.004608310668325536
0.00511776615830811   -0.10864444432925262   -0.004702058877255461
-0.0037818691152156432   -0.10886058045488683   -0.0044795679624506785
-0.0058564441408469285   -0.12595481572170034   -0.004436251101813341
0.005305081337821237   -0.10858569034748784   -0.004480925439291311
-0.0036326818002232445   -0.10890412776389871   -0.004360259119462067
-0.0058564441408469285   -0.12595481572170034   -0.004436251101813341
0.0016218745931776092   -0.12564098143618277   -0.0044340296171466054
0.005305081337821237   -0.10858569034748784   -0.004480925439291311
0.0019271862335480318   -0.12563381109734953   -0.004159976123465436
-0.0036326818002232445   -0.10890412776389871   -0.004360259119462067
0.005497048288305984   -0.10857483352183732   -0.004281842377736817
0.0019271862335480318   -0.12563381109734953   -0.004159976123465436
0.005305081337821237   -0.10858569034748784   -0.004480925439291311
-0.0036326818002232445   -0.10890412776389871   -0.004360259119462067
0.0019271862335480318   -0.12563381109734953   -0.004159976123465436
-0.005625155093829006   -0.1259948469526445   -0.004286190752641576
-0.0058564441408469285   -0.12595481572170034   -0.004436251101813341
-0.0036326818002232445   -0.10890412776389871   -0.004360259119462067
0.0019271862335480318   -0.12563381109734953   -0.004159976123465436
-0.0058564441408469285   -0.12595481572170034   -0.004436251101813341
0.005305081337821237   -0.10858569034748784   -0.004480925439291311
-0.0036326818002232445   -0.10890412776389871   -0.004360259119462067
-0.005625155093829006   -0.1259948469526445   -0.004286190752641576
0.005497048288305984   -0.10857483352183732   -0.004281842377736817
-0.003499642749128979   -0.10899324348661556   -0.004262389080272691
-0.005625155093829006   -0.1259948469526445   -0.004286190752641576
0.0019271862335480318   -0.12563381109734953   -0.004159976123465436
0.005497048288305984   -0.10857483352183732   -0.004281842377736817
0.0021504850871128444   -0.1256952577126745   -0.003905140721387077
-0.003499642749128979   -0.10899324348661556   -0.004262389080272691
0.0056245327952808045   -0.10860301445349618   -0.004101904152673947
0.0021504850871128444   -0.1256952577126745   -0.003905140721387077
0.005497048288305984   -0.10857483352183732   -0.004281842377736817
-0.003499642749128979   -0.10899324348661556   -0.004262389080272691
0.0021504850871128444   -0.1256952577126745   -0.003905140721387077
-0.005416245510457575   -0.12610857019170355   -0.004156216381815309
-0.005625155093829006   -0.1259948469526445   -0.004286190752641576
-0.003499642749128979   -0.10899324348661556   -0.004262389080272691
0.0021504850871128444   -0.1256952577126745   -0.003905140721387077
-0.005625155093829006   -0.1259948469526445   -0.004286190752641576
0.005497048288305984   -0.10857483352183732   -0.004281842377736817
0.00511776615830811   -0.10864444432925262   -0.004702058877255461
0.0013319968031834536   -0.12572001330520316   -0.004735984187755307
0.014751636691792028   -0.10827571624643412   -0.004915879994096856
0.005305081337821237   -0.10858569034748784   -0.004480925439291311
0.0013319968031834536   -0.12572001330520316   -0.004735984187755307
0.0092545557857279   -0.12521002089967873   -0.005009803792547476
0.014751636691792028   -0.10827571624643412   -0.004915879994096856
0.009987355428689556   -0.12505819364461043   -0.004547751003399963
0.005305081337821237   -0.10858569034748784   -0.004480925439291311
0.015249878228238638   -0.10815434314520546   -0.004594268847463118
0.009987355428689556   -0.12505819364461043   -0.004547751003399963
0.014751636691792028   -0.10827571624643412   -0.004915879994096856
0.005305081337821237   -0.10858569034748784   -0.004480925439291311
0.009987355428689556   -0.12505819364461043   -0.004547751003399963
0.0016218745931776092   -0.12564098143618277   -0.0044340296171466054
0.0013319968031834536   -0.12572001330520316   -0.004735984187755307
0.005305081337821237   -0.10858569034748784   -0.004480925439291311
0.009987355428689556   -0.12505819364461043   -0.004547751003399963
0.0013319968031834536   -0.12572001330520316   -0.004735984187755307
0.014751636691792028   -0.10827571624643412   -0.004915879994096856
0.005305081337821237   -0.10858569034748784   -0.004480925439291311
0.0016218745931776092   -0.12564098143618277   -0.0044340296171466054
0.015249878228238638   -0.10815434314520546   -0.004594268847463118
0.005497048288305984   -0.10857483352183732   -0.004281842377736817
0.0016218745931776092   -0.12564098143618277   -0.0044340296171466054
0.009987355428689556   -0.12505819364461043   -0.004547751003399963
0.015249878228238638   -0.10815434314520546   -0.004594268847463118
0.010549107435161523   -0.12503190922288204   -0.004120292378837541
0.005497048288305984   -0.10857483352183732   -0.004281842377736817
0.01561859402300548   -0.10812106653923569   -0.004301966259235586
0.010549107435161523   -0.12503190922288204   -0.004120292378837541
0.015249878228238638   -0.10815434314520546   -0.004594268847463118
0.005497048288305984   -0.10857483352183732   -0.004281842377736817
0.010549107435161523   -0.12503190922288204   -0.004120292378837541
0.0019271862335480318   -0.12563381109734953   -0.004159976123465436
0.0016218745931776092   -0.12564098143618277   -0.0044340296171466054
0.005497048288305984   -0.10857483352183732   -0.004281842377736817
0.010549107435161523   -0.12503190922288204   -0.004120292378837541
0.0016218745931776092   -0.12564098143618277   -0.0044340296171466054
0.015249878228238638   -0.10815434314520546   -0.004594268847463118
0.005497048288305984   -0.10857483352183732   -0.004281842377736817
0.0019271862335480318   -0.12563381109734953   -0.004159976123465436
0.01561859402300548   -0.10812106653923569   -0.004301966259235586
0.0056245327952808045   -0.10860301445349618   -0.004101904152673947
0.0019271862335480318   -0.12563381109734953   -0.004159976123465436
0.010549107435161523   -0.12503190922288204   -0.004120292378837541
0.01561859402300548   -0.10812106653923569   -0.004301966259235586
0.011130497993696257   -0.1250767117410919   -0.0037309312857398517
0.0056245327952808045   -0.10860301445349618   -0.004101904152673947
0.01599198666494812   -0.10812066105960298   -0.004040296387195907
0.011130497993696257   -0.1250767117410919   -0.0037309312857398517
0.01561859402300548   -0.10812106653923569   -0.004301966259235586
0.0056245327952808045   -0.10860301445349618   -0.004101904152673947
0.011130497993696257   -0.1250767117410919   -0.0037309312857398517
0.0021504850871128444   -0.1256952577126745   -0.003905140721387077
0.0019271862335480318   -0.12563381109734953   -0.004159976123465436
0.0056245327952808045   -0.10860301445349618   -0.004101904152673947
0.011130497993696257   -0.1250767117410919   -0.0037309312857398517
0.0019271862335480318   -0.12563381109734953   -0.004159976123465436
0.01561859402300548   -0.10812106653923569   -0.004301966259235586
-0.02899874205849725   -0.12543040984963907   -0.004596553856731714
-0.02427467703828787   -0.13862975602741365   -0.004169448289060551
-0.02052272488672161   -0.1258259716797947   -0.004567695583482336
-0.028557676810518285   -0.1255154407406832   -0.004857894287842474
-0.02427467703828787   -0.13862975602741365   -0.004169448289060551
-0.018244060927875796   -0.13921630550967795   -0.004345548605220812
-0.02052272488672161   -0.1258259716797947   -0.004567695583482336
-0.017937911469308485   -0.1391858188281935   -0.0044893898055857325
-0.028557676810518285   -0.1255154407406832   -0.004857894287842474
-0.020310715152608506   -0.12588323109679705   -0.004661132909034646
-0.017937911469308485   -0.1391858188281935   -0.0044893898055857325
-0.02052272488672161   -0.1258259716797947   -0.004567695583482336
-0.028557676810518285   -0.1255154407406832   -0.004857894287842474
-0.017937911469308485   -0.1391858188281935   -0.0044893898055857325
-0.02361588159613135   -0.1386130662339136   -0.004557330715361044
-0.02427467703828787   -0.13862975602741365   -0.004169448289060551
-0.028557676810518285   -0.1255154407406832   -0.004857894287842474
-0.017937911469308485   -0.1391858188281935   -0.0044893898055857325
-0.02427467703828787   -0.13862975602741365   -0.004169448289060551
-0.02052272488672161   -0.1258259716797947   -0.004567695583482336
-0.028557676810518285   -0.1255154407406832   -0.004857894287842474
-0.02361588159613135   -0.1386130662339136   -0.004557330715361044
-0.020310715152608506   -0.12588323109679705   -0.004661132909034646
-0.02811746655758588   -0.12567615107184757   -0.005153870880035528
-0.02361588159613135   -0.1386130662339136   -0.004557330715361044
-0.017937911469308485   -0.1391858188281935   -0.0044893898055857325
-0.020310715152608506   -0.12588323109679705   -0.004661132909034646
-0.017578017432146268   -0.13926976076628522   -0.004654996250003022
-0.02811746655758588   -0.12567615107184757   -0.005153870880035528
-0.020044447412537983   -0.12602018121262643   -0.004775839559994533
-0.017578017432146268   -0.13926976076628522   -0.004654996250003022
-0.020310715152608506   -0.12588323109679705   -0.004661132909034646
-0.02811746655758588   -0.12567615107184757   -0.005153870880035528
-0.017578017432146268   -0.13926976076628522   -0.004654996250003022
-0.023008420752695696   -0.1387168592244913   -0.004975852587179128
-0.02361588159613135   -0.1386130662339136   -0.004557330715361044
-0.02811746655758588   -0.12567615107184757   -0.005153870880035528
-0.017578017432146268   -0.13926976076628522   -0.004654996250003022
-0.02361588159613135   -0.1386130662339136   -0.004557330715361044
-0.020310715152608506   -0.12588323109679705   -0.004661132909034646
-0.02811746655758588   -0.12567615107184757   -0.005153870880035528
-0.023008420752695696   -0.1387168592244913   -0.004975852587179128
-0.020044447412537983   -0.12602018121262643   -0.004775839559994533
-0.027553510067145504   -0.12597582552506645   -0.005483824291318406
-0.023008420752695696   -0.1387168592244913   -0.004975852587179128
-0.017578017432146268   -0.13926976076628522   -0.004654996250003022
-0.020044447412537983   -0.12602018121262643   -0.004775839559994533
-0.017251512693937883   -0.13947001572274556   -0.004840971964491821
-0.027553510067145504   -0.12597582552506645   -0.005483824291318406
-0.01978167541256909   -0.1262445960029362   -0.0049116166340058
-0.017251512693937883   -0.13947001572274556   -0.004840971964491821
-0.020044447412537983   -0.12602018121262643   -0.004775839559994533
-0.027553510067145504   -0.12597582552506645   -0.005483824291318406
-0.017251512693937883   -0.13947001572274556   -0.004840971964491821
-0.022267654253916545   -0.1389946634240741   -0.0054231875554281005
-0.023008420752695696   -0.1387168592244913   -0.004975852587179128
-0.027553510067145504   -0.12597582552506645   -0.005483824291318406
-0.017251512693937883   -0.13947001572274556   -0.004840971964491821
-0.023008420752695696   -0.1387168592244913   -0.004975852587179128
-0.020044447412537983   -0.12602018121262643   -0.004775839559994533
-0.02052272488672161   -0.1258259716797947   -0.004567695583482336
-0.018244060927875796   -0.13921630550967795   -0.004345548605220812
-0.013186829395304628   -0.12601177192387597   -0.004556088619202167
-0.020310715152608506   -0.12588323109679705   -0.004661132909034646
-0.018244060927875796   -0.13921630550967795   -0.004345548605220812
-0.01332096808288549   -0.1395977890310168   -0.0044833195022469
-0.013186829395304628   -0.12601177192387597   -0.004556088619202167
-0.013006637094492767   -0.13954923081239962   -0.004439287173011275
-0.020310715152608506   -0.12588323109679705   -0.004661132909034646
-0.01296921464979009   -0.12603062826048844   -0.004514401783042221
-0.013006637094492767   -0.13954923081239962   -0.004439287173011275
-0.013186829395304628   -0.12601177192387597   -0.004556088619202167
-0.020310715152608506   -0.12588323109679705   -0.004661132909034646
-0.013006637094492767   -0.13954923081239962   -0.004439287173011275
-0.017937911469308485   -0.1391858188281935   -0.0044893898055857325
-0.018244060927875796   -0.13921630550967795   -0.004345548605220812
-0.020310715152608506   -0.12588323109679705   -0.004661132909034646
-0.013006637094492767   -0.13954923081239962   -0.004439287173011275
-0.018244060927875796   -0.13921630550967795   -0.004345548605220812
-0.013186829395304628   -0.12601177192387597   -0.004556088619202167
-0.020310715152608506   -0.12588323109679705   -0.004661132909034646
-0.017937911469308485   -0.1391858188281935   -0.0044893898055857325
-0.01296921464979009   -0.12603062826048844   -0.004514401783042221
-0.020044447412537983   -0.12602018121262643   -0.004775839559994533
-0.017937911469308485   -0.1391858188281935   -0.0044893898055857325
-0.013006637094492767   -0.13954923081239962   -0.004439287173011275
-0.01296921464979009   -0.12603062826048844   -0.004514401783042221
-0.01269683501738284   -0.1395993868432811   -0.004416382012892705
-0.020044447412537983   -0.12602018121262643   -0.004775839559994533
-0.012744647561968109   -0.12612062000473384   -0.004493355087326943
-0.01269683501738284   -0.1395993868432811   -0.004416382012892705
-0.01296921464979009   -0.12603062826048844   -0.004514401783042221
-0.020044447412537983   -0.12602018121262643   -0.004775839559994533
-0.01269683501738284   -0.1395993868432811   -0.004416382012892705
-0.017578017432146268   -0.13926976076628522   -0.004654996250003022
-0.017937911469308485   -0.1391858188281935   -0.0044893898055857325
-0.020044447412537983   -0.12602018121262643   -0.004775839559994533
-0.01269683501738284   -0.1395993868432811   -0.004416382012892705
-0.017937911469308485   -0.1391858188281935   -0.0044893898055857325
-0.01296921464979009   -0.12603062826048844   -0.004514401783042221
-0.020044447412537983   -0.12602018121262643   -0.004775839559994533
-0.017578017432146268   -0.13926976076628522   -0.004654996250003022
-0.012744647561968109   -0.12612062000473384   -0.004493355087326943
-0.01978167541256909   -0.1262445960029362   -0.0049116166340058
-0.017578017432146268   -0.13926976076628522   -0.004654996250003022
-0.01269683501738284   -0.1395993868432811   -0.004416382012892705
-0.012744647561968109   -0.12612062000473384   -0.004493355087326943
-0.012411895272465839   -0.13975158303137356   -0.00441904891307702
-0.01978167541256909   -0.1262445960029362   -0.0049116166340058
-0.012520467762131334   -0.12628598695046753   -0.004492668501767864
-0.012411895272465839   -0.13975158303137356   -0.00441904891307702
-0.012744647561968109   -0.12612062000473384   -0.004493355087326943
-0.01978167541256909   -0.1262445960029362   -0.0049116166340058
-0.012411895272465839   -0.13975158303137356   -0.00441904891307702
-0.017251512693937883   -0.13947001572274556   -0.004840971964491821
-0.017578017432146268   -0.13926976076628522   -0.004654996250003022
-0.01978167541256909   -0.1262445960029362   -0.0049116166340058
-0.012411895272465839   -0.13975158303137356   -0.00441904891307702
-0.017578017432146268   -0.13926976076628522   -0.004654996250003022
-0.012744647561968109   -0.12612062000473384   -0.004493355087326943
-0.013186829395304628   -0.12601177192387597   -0.004556088619202167
-0.01332096808288549   -0.1395977890310168   -0.0044833195022469
-0.006094818276005312   -0.1259790514823181   -0.004608310668325536
-0.01296921464979009   -0.12603062826048844   -0.004514401783042221
-0.01332096808288549   -0.1395977890310168   -0.0044833195022469
-0.008606105866896868   -0.13980024603360883   -0.004645678199722632
-0.006094818276005312   -0.1259790514823181   -0.004608310668325536
-0.008251721202088834   -0.1397304551155635   -0.004424547879771526
-0.01296921464979009   -0.12603062826048844   -0.004514401783042221
-0.0058564441408469285   -0.12595481572170034   -0.004436251101813341
-0.008251721202088834   -0.1397304551155635   -0.004424547879771526
-0.006094818276005312   -0.1259790514823181   -0.004608310668325536
-0.01296921464979009   -0.12603062826048844   -0.004514401783042221
-0.008251721202088834   -0.1397304551155635   -0.004424547879771526
-0.013006637094492767   -0.13954923081239962   -0.004439287173011275
-0.01332096808288549   -0.1395977890310168   -0.0044833195022469
-0.01296921464979009   -0.12603062826048844   -0.004514401783042221
-0.008251721202088834   -0.1397304551155635   -0.004424547879771526
-0.01332096808288549   -0.1395977890310168   -0.0044833195022469
-0.006094818276005312   -0.1259790514823181   -0.004608310668325536
-0.01296921464979009   -0.12603062826048844   -0.004514401783042221
-0.013006637094492767   -0.13954923081239962   -0.004439287173011275
-0.0058564441408469285   -0.12595481572170034   -0.004436251101813341
-0.012744647561968109   -0.12612062000473384   -0.004493355087326943
-0.013006637094492767   -0.13954923081239962   -0.004439287173011275
-0.008251721202088834   -0.1397304551155635   -0.004424547879771526
-0.0058564441408469285   -0.12595481572170034   -0.004436251101813341
-0.007913994690415404   -0.1397473542932494   -0.004222044578342843
-0.012744647561968109   -0.12612062000473384   -0.004493355087326943
-0.005625155093829006   -0.1259948469526445   -0.004286190752641576
-0.007913994690415404   -0.1397473542932494   -0.004222044578342843
-0.0058564441408469285   -0.12595481572170034   -0.004436251101813341
-0.012744647561968109   -0.12612062000473384   -0.004493355087326943
-0.007913994690415404   -0.1397473542932494   -0.004222044578342843
-0.01269683501738284   -0.1395993868432811   -0.004416382012892705
-0.013006637094492767   -0.13954923081239962   -0.004439287173011275
-0.012744647561968109   -0.12612062000473384   -0.004493355087326943
-0.007913994690415404   -0.1397473542932494   -0.004222044578342843
-0.013006637094492767   -0.13954923081239962   -0.004439287173011275
-0.0058564441408469285   -0.12595481572170034   -0.004436251101813341
-0.012744647561968109   -0.12612062000473384   -0.004493355087326943
-0.01269683501738284   -0.1395993868432811   -0.004416382012892705
-0.005625155093829006   -0.1259948469526445   -0.004286190752641576
-0.012520467762131334   -0.12628598695046753   -0.004492668501767864
-0.01269683501738284   -0.1395993868432811   -0.004416382012892705
-0.007913994690415404   -0.1397473542932494   -0.004222044578342843
-0.005625155093829006   -0.1259948469526445   -0.004286190752641576
-0.007633290551229489   -0.1398680419158756   -0.004049917747535795
-0.012520467762131334   -0.12628598695046753   -0.004492668501767864
-0.005416245510457575   -0.12610857019170355   -0.004156216381815309
-0.007633290551229489   -0.1398680419158756   -0.004049917747535795
-0.005625155093829006   -0.1259948469526445   -0.004286190752641576
-0.012520467762131334   -0.12628598695046753   -0.004492668501767864
-0.007633290551229489   -0.1398680419158756   -0.004049917747535795
-0.012411895272465839   -0.13975158303137356   -0.00441904891307702
-0.01269683501738284   -0.1395993868432811   -0.004416382012892705
-0.012520467762131334   -0.12628598695046753   -0.004492668501767864
-0.007633290551229489   -0.1398680419158756   -0.004049917747535795
-0.01269683501738284   -0.1395993868432811   -0.004416382012892705
-0.005625155093829006   -0.1259948469526445   -0.004286190752641576
-0.006094818276005312   -0.1259790514823181   -0.004608310668325536
-0.008606105866896868   -0.13980024603360883   -0.004645678199722632
0.0013319968031834536   -0.12572001330520316   -0.004735984187755307
-0.0058564441408469285   -0.12595481572170034   -0.004436251101813341
-0.008606105866896868   -0.13980024603360883   -0.004645678199722632
-0.003589112230619447   -0.13975345152041074   -0.004836547692607915
0.0013319968031834536   -0.12572001330520316   -0.004735984187755307
-0.003134118261034311   -0.13964411310518077   -0.004446104099226684
-0.0058564441408469285   -0.12595481572170034   -0.004436251101813341
0.0016218745931776092   -0.12564098143618277   -0.0044340296171466054
-0.003134118261034311   -0.13964411310518077   -0.004446104099226684
0.0013319968031834536   -0.12572001330520316   -0.004735984187755307
-0.0058564441408469285   -0.12595481572170034   -0.004436251101813341
-0.003134118261034311   -0.13964411310518077   -0.004446104099226684
-0.008251721202088834   -0.1397304551155635   -0.004424547879771526
-0.008606105866896868   -0.13980024603360883   -0.004645678199722632
-0.0058564441408469285   -0.12595481572170034   -0.004436251101813341
-0.003134118261034311   -0.13964411310518077   -0.004446104099226684
-0.008606105866896868   -0.13980024603360883   -0.004645678199722632
0.0013319968031834536   -0.12572001330520316   -0.004735984187755307
-0.0058564441408469285   -0.12595481572170034   -0.004436251101813341
-0.008251721202088834   -0.1397304551155635   -0.004424547879771526
0.0016218745931776092   -0.12564098143618277   -0.0044340296171466054
-0.005625155093829006   -0.1259948469526445   -0.004286190752641576
-0.008251721202088834   -0.1397304551155635   -0.004424547879771526
-0.003134118261034311   -0.13964411310518077   -0.004446104099226684
0.0016218745931776092   -0.12564098143618277   -0.0044340296171466054
-0.0026693493756128716   -0.1396245763814653   -0.004075615895570098
-0.005625155093829006   -0.1259948469526445   -0.004286190752641576
0.0019271862335480318   -0.12563381109734953   -0.004159976123465436
-0.0026693493756128716   -0.1396245763814653   -0.004075615895570098
0.0016218745931776092   -0.12564098143618277   -0.0044340296171466054
-0.005625155093829006   -0.1259948469526445   -0.004286190752641576
-0.0026693493756128716   -0.1396245763814653   -0.004075615895570098
-0.007913994690415404   -0.1397473542932494   -0.004222044578342843
-0.008251721202088834   -0.1397304551155635   -0.004424547879771526
-0.005625155093829006   -0.1259948469526445   -0.004286190752641576
-0.0026693493756128716   -0.1396245763814653   -0.004075615895570098
-0.008251721202088834   -0.1397304551155635   -0.004424547879771526
0.0016218745931776092   -0.12564098143618277   -0.0044340296171466054
-0.005625155093829006   -0.1259948469526445   -0.004286190752641576
-0.007913994690415404   -0.1397473542932494   -0.004222044578342843
0.0019271862335480318   -0.12563381109734953   -0.004159976123465436
-0.005416245510457575   -0.12610857019170355   -0.004156216381815309
-0.007913994690415404   -0.1397473542932494   -0.004222044578342843
-0.0026693493756128716   -0.1396245763814653   -0.004075615895570098
0.0019271862335480318   -0.12563381109734953   -0.004159976123465436
-0.0023248590225786485   -0.13971437893377978   -0.0037393428973445065
-0.005416245510457575   -0.12610857019170355   -0.004156216381815309
0.0021504850871128444   -0.1256952577126745   -0.003905140721387077
-0.0023248590225786485   -0.13971437893377978   -0.0037393428973445065
0.0019271862335480318   -0.12563381109734953   -0.004159976123465436
-0.005416245510457575   -0.12610857019170355   -0.004156216381815309
-0.0023248590225786485   -0.13971437893377978   -0.0037393428973445065
-0.007633290551229489   -0.1398680419158756   -0.004049917747535795
-0.007913994690415404   -0.1397473542932494   -0.004222044578342843
-0.005416245510457575   -0.12610857019170355   -0.004156216381815309
-0.0023248590225786485   -0.13971437893377978   -0.0037393428973445065
-0.007913994690415404   -0.1397473542932494   -0.004222044578342843
0.0019271862335480318   -0.12563381109734953   -0.004159976123465436
0.0013319968031834536   -0.12572001330520316   -0.004735984187755307
-0.003589112230619447   -0.13975345152041074   -0.004836547692607915
0.0092545557857279   -0.12521002089967873   -0.005009803792547476
0.0016218745931776092   -0.12564098143618277   -0.0044340296171466054
-0.003589112230619447   -0.13975345152041074   -0.004836547692607915
0.0018170698148216406   -0.1392728691130703   -0.005229013462201578
0.0092545557857279   -0.12521002089967873   -0.005009803792547476
0.0028743297442129965   -0.13903451873717976   -0.004590107242676892
0.0016218745931776092   -0.12564098143618277   -0.0044340296171466054
0.009987355428689556   -0.12505819364461043   -0.004547751003399963
0.0028743297442129965   -0.13903451873717976   -0.004590107242676892
0.0092545557857279   -0.12521002089967873   -0.005009803792547476
0.0016218745931776092   -0.12564098143618277   -0.0044340296171466054
0.0028743297442129965   -0.13903451873717976   -0.004590107242676892
-0.003134118261034311   -0.13964411310518077   -0.004446104099226684
-0.003589112230619447   -0.13975345152041074   -0.004836547692607915
0.0016218745931776092   -0.12564098143618277   -0.0044340296171466054
0.0028743297442129965   -0.13903451873717976   -0.004590107242676892
-0.003589112230619447   -0.13975345152041074   -0.004836547692607915
0.0092545557857279   -0.12521002089967873   -0.005009803792547476
0.0016218745931776092   -0.12564098143618277   -0.0044340296171466054
-0.003134118261034311   -0.13964411310518077   -0.004446104099226684
0.009987355428689556   -0.12505819364461043   -0.004547751003399963
0.0019271862335480318   -0.12563381109734953   -0.004159976123465436
-0.003134118261034311   -0.13964411310518077   -0.004446104099226684
0.0028743297442129965   -0.13903451873717976   -0.004590107242676892
0.009987355428689556   -0.12505819364461043   -0.004547751003399963
0.0037053792197015633   -0.13898604279547352   -0.00399047978704147
0.0019271862335480318   -0.12563381109734953   -0.004159976123465436
0.010549107435161523   -0.12503190922288204   -0.004120292378837541
0.0037053792197015633   -0.13898604279547352   -0.00399047978704147
0.009987355428689556   -0.12505819364461043   -0.004547751003399963
0.0019271862335480318   -0.12563381109734953   -0.004159976123465436
0.0037053792197015633   -0.13898604279547352   -0.00399047978704147
-0.0026693493756128716   -0.1396245763814653   -0.004075615895570098
-0.003134118261034311   -0.13964411310518077   -0.004446104099226684
0.0019271862335480318   -0.12563381109734953   -0.004159976123465436
0.0037053792197015633   -0.13898604279547352   -0.00399047978704147
-0.003134118261034311   -0.13964411310518077   -0.004446104099226684
0.009987355428689556   -0.12505819364461043   -0.004547751003399963
0.0019271862335480318   -0.12563381109734953   -0.004159976123465436
-0.0026693493756128716   -0.1396245763814653   -0.004075615895570098
0.010549107435161523   -0.12503190922288204   -0.004120292378837541
0.0021504850871128444   -0.1256952577126745   -0.003905140721387077
-0.0026693493756128716   -0.1396245763814653   -0.004075615895570098
0.0037053792197015633   -0.13898604279547352   -0.00399047978704147
0.010549107435161523   -0.12503190922288204   -0.004120292378837541
0.004568212321619864   -0.13902578133566895   -0.0034431743007023127
0.0021504850871128444   -0.1256952577126745   -0.003905140721387077
0.011130497993696257   -0.1250767117410919   -0.0037309312857398517
0.004568212321619864   -0.13902578133566895   -0.0034431743007023127
0.010549107435161523   -0.12503190922288204   -0.004120292378837541
0.0021504850871128444   -0.1256952577126745   -0.003905140721387077
0.004568212321619864   -0.13902578133566895   -0.0034431743007023127
-0.0023248590225786485   -0.13971437893377978   -0.0037393428973445065
-0.0026693493756128716   -0.1396245763814653   -0.004075615895570098
0.0021504850871128444   -0.1256952577126745   -0.003905140721387077
0.004568212321619864   -0.13902578133566895   -0.0034431743007023127
-0.0026693493756128716   -0.1396245763814653   -0.004075615895570098
0.010549107435161523   -0.12503190922288204   -0.004120292378837541
-0.02427467703828787   -0.13862975602741365   -0.004169448289060551
-0.017772847538040915   -0.14646998748258636   -0.003668205468338658
-0.018244060927875796   -0.13921630550967795   -0.004345548605220812
-0.02361588159613135   -0.1386130662339136   -0.004557330715361044
-0.017772847538040915   -0.14646998748258636   -0.003668205468338658
-0.014973619768727605   -0.14721243036463222   -0.004115246197392958
-0.018244060927875796   -0.13921630550967795   -0.004345548605220812
-0.014586820970105543   -0.1470650851403445   -0.004268070801429603
-0.02361588159613135   -0.1386130662339136   -0.004557330715361044
-0.017937911469308485   -0.1391858188281935   -0.0044893898055857325
-0.014586820970105543   -0.1470650851403445   -0.004268070801429603
-0.018244060927875796   -0.13921630550967795   -0.004345548605220812
-0.02361588159613135   -0.1386130662339136   -0.004557330715361044
-0.014586820970105543   -0.1470650851403445   -0.004268070801429603
-0.016951071056983992   -0.1463040738046468   -0.0041337166489490975
-0.017772847538040915   -0.14646998748258636   -0.003668205468338658
-0.02361588159613135   -0.1386130662339136   -0.004557330715361044
-0.014586820970105543   -0.1470650851403445   -0.004268070801429603
-0.017772847538040915   -0.14646998748258636   -0.003668205468338658
-0.018244060927875796   -0.13921630550967795   -0.004345548605220812
-0.02361588159613135   -0.1386130662339136   -0.004557330715361044
-0.016951071056983992   -0.1463040738046468   -0.0041337166489490975
-0.017937911469308485   -0.1391858188281935   -0.0044893898055857325
-0.023008420752695696   -0.1387168592244913   -0.004975852587179128
-0.016951071056983992   -0.1463040738046468   -0.0041337166489490975
-0.014586820970105543   -0.1470650851403445   -0.004268070801429603
-0.017937911469308485   -0.1391858188281935   -0.0044893898055857325
-0.01415874090983049   -0.14707151529318918   -0.004422429454596853
-0.023008420752695696   -0.1387168592244913   -0.004975852587179128
-0.017578017432146268   -0.13926976076628522   -0.004654996250003022
-0.01415874090983049   -0.14707151529318918   -0.004422429454596853
-0.017937911469308485   -0.1391858188281935   -0.0044893898055857325
-0.023008420752695696   -0.1387168592244913   -0.004975852587179128
-0.01415874090983049   -0.14707151529318918   -0.004422429454596853
-0.016241963176904066   -0.14631731130769232   -0.004597359936501696
-0.016951071056983992   -0.1463040738046468   -0.0041337166489490975
-0.023008420752695696   -0.1387168592244913   -0.004975852587179128
-0.01415874090983049   -0.14707151529318918   -0.004422429454596853
-0.016951071056983992   -0.1463040738046468   -0.0041337166489490975
-0.017937911469308485   -0.1391858188281935   -0.0044893898055857325
-0.023008420752695696   -0.1387168592244913   -0.004975852587179128
-0.016241963176904066   -0.14631731130769232   -0.004597359936501696
-0.017578017432146268   -0.13926976076628522   -0.004654996250003022
-0.022267654253916545   -0.1389946634240741   -0.0054231875554281005
-0.016241963176904066   -0.14631731130769232   -0.004597359936501696
-0.01415874090983049   -0.14707151529318918   -0.004422429454596853
-0.017578017432146268   -0.13926976076628522   -0.004654996250003022
-0.013760888275694303   -0.14723239513674083   -0.004578970454824804
-0.022267654253916545   -0.1389946634240741   -0.0054231875554281005
-0.017251512693937883   -0.13947001572274556   -0.004840971964491821
-0.013760888275694303   -0.14723239513674083   -0.004578970454824804
-0.017578017432146268   -0.13926976076628522   -0.004654996250003022
-0.022267654253916545   -0.1389946634240741   -0.0054231875554281005
-0.013760888275694303   -0.14723239513674083   -0.004578970454824804
-0.015401118236206284   -0.14651989544298022   -0.0050710137867798835
-0.016241963176904066   -0.14631731130769232   -0.004597359936501696
-0.022267654253916545   -0.1389946634240741   -0.0054231875554281005
-0.013760888275694303   -0.14723239513674083   -0.004578970454824804
-0.016241963176904066   -0.14631731130769232   -0.004597359936501696
-0.017578017432146268   -0.13926976076628522   -0.004654996250003022
-0.018244060927875796   -0.13921630550967795   -0.004345548605220812
-0.014973619768727605   -0.14721243036463222   -0.004115246197392958
-0.01332096808288549   -0.1395977890310168   -0.0044833195022469
-0.017937911469308485   -0.1391858188281935   -0.0044893898055857325
-0.014973619768727605   -0.14721243036463222   -0.004115246197392958
-0.012926920509539879   -0.14796061249786369   -0.004510555159804756
-0.01332096808288549   -0.1395977890310168   -0.0044833195022469
-0.012518521870698764   -0.1478095935618895   -0.004402598138368345
-0.017937911469308485   -0.1391858188281935   -0.0044893898055857325
-0.013006637094492767   -0.13954923081239962   -0.004439287173011275
-0.012518521870698764   -0.1478095935618895   -0.004402598138368345
-0.01332096808288549   -0.1395977890310168   -0.0044833195022469
-0.017937911469308485   -0.1391858188281935   -0.0044893898055857325
-0.012518521870698764   -0.1478095935618895   -0.004402598138368345
-0.014586820970105543   -0.1470650851403445   -0.004268070801429603
-0.014973619768727605   -0.14721243036463222   -0.004115246197392958
-0.017937911469308485   -0.1391858188281935   -0.0044893898055857325
-0.012518521870698764   -0.1478095935618895   -0.004402598138368345
-0.014973619768727605   -0.14721243036463222   -0.004115246197392958
-0.01332096808288549   -0.1395977890310168   -0.0044833195022469
-0.017937911469308485   -0.1391858188281935   -0.0044893898055857325
-0.014586820970105543   -0.1470650851403445   -0.004268070801429603
-0.013006637094492767   -0.13954923081239962   -0.004439287173011275
-0.017578017432146268   -0.13926976076628522   -0.004654996250003022
-0.014586820970105543   -0.1470650851403445   -0.004268070801429603
-0.012518521870698764   -0.1478095935618895   -0.004402598138368345
-0.013006637094492767   -0.13954923081239962   -0.004439287173011275
-0.012123799281556841   -0.14780625169174097   -0.00429327754422837
-0.017578017432146268   -0.13926976076628522   -0.004654996250003022
-0.01269683501738284   -0.1395993868432811   -0.004416382012892705
-0.012123799281556841   -0.14780625169174097   -0.00429327754422837
-0.013006637094492767   -0.13954923081239962   -0.004439287173011275
-0.017578017432146268   -0.13926976076628522   -0.004654996250003022
-0.012123799281556841   -0.14780625169174097   -0.00429327754422837
-0.01415874090983049   -0.14707151529318918   -0.004422429454596853
-0.014586820970105543   -0.1470650851403445   -0.004268070801429603
-0.017578017432146268   -0.13926976076628522   -0.004654996250003022
-0.012123799281556841   -0.14780625169174097   -0.00429327754422837
-0.014586820970105543   -0.1470650851403445   -0.004268070801429603
-0.013006637094492767   -0.13954923081239962   -0.004439287173011275
-0.017578017432146268   -0.13926976076628522   -0.004654996250003022
-0.01415874090983049   -0.14707151529318918   -0.004422429454596853
-0.01269683501738284   -0.1395993868432811   -0.004416382012892705
-0.017251512693937883   -0.13947001572274556   -0.004840971964491821
-0.01415874090983049   -0.14707151529318918   -0.004422429454596853
-0.012123799281556841   -0.14780625169174097   -0.00429327754422837
-0.01269683501738284   -0.1395993868432811   -0.004416382012892705
-0.011712177934190696   -0.14794746492836303   -0.004188222777990966
-0.017251512693937883   -0.13947001572274556   -0.004840971964491821
-0.012411895272465839   -0.13975158303137356   -0.00441904891307702
-0.011712177934190696   -0.14794746492836303   -0.004188222777990966
-0.01269683501738284   -0.1395993868432811   -0.004416382012892705
-0.017251512693937883   -0.13947001572274556   -0.004840971964491821
-0.011712177934190696   -0.14794746492836303   -0.004188222777990966
-0.013760888275694303   -0.14723239513674083   -0.004578970454824804
-0.01415874090983049   -0.14707151529318918   -0.004422429454596853
-0.017251512693937883   -0.13947001572274556   -0.004840971964491821
-0.011712177934190696   -0.14794746492836303   -0.004188222777990966
-0.01415874090983049   -0.14707151529318918   -0.004422429454596853
-0.01269683501738284   -0.1395993868432811   -0.004416382012892705
-0.01332096808288549   -0.1395977890310168   -0.0044833195022469
-0.012926920509539879   -0.14796061249786369   -0.004510555159804756
-0.008606105866896868   -0.13980024603360883   -0.004645678199722632
-0.013006637094492767   -0.13954923081239962   -0.004439287173011275
-0.012926920509539879   -0.14796061249786369   -0.004510555159804756
-0.011058960888435219   -0.14886673442572262   -0.0049454391205097465
-0.008606105866896868   -0.13980024603360883   -0.004645678199722632
-0.010558113118817521   -0.14873601142334994   -0.004562006823319298
-0.013006637094492767   -0.13954923081239962   -0.004439287173011275
-0.008251721202088834   -0.1397304551155635   -0.004424547879771526
-0.010558113118817521   -0.14873601142334994   -0.004562006823319298
-0.008606105866896868   -0.13980024603360883   -0.004645678199722632
-0.013006637094492767   -0.13954923081239962   -0.004439287173011275
-0.010558113118817521   -0.14873601142334994   -0.004562006823319298
-0.012518521870698764   -0.1478095935618895   -0.004402598138368345
-0.012926920509539879   -0.14796061249786369   -0.004510555159804756
-0.013006637094492767   -0.13954923081239962   -0.004439287173011275
-0.010558113118817521   -0.14873601142334994   -0.004562006823319298
-0.012926920509539879   -0.14796061249786369   -0.004510555159804756
-0.008606105866896868   -0.13980024603360883   -0.004645678199722632
-0.013006637094492767   -0.13954923081239962   -0.004439287173011275
-0.012518521870698764   -0.1478095935618895   -0.004402598138368345
-0.008251721202088834   -0.1397304551155635   -0.004424547879771526
-0.01269683501738284   -0.1395993868432811   -0.004416382012892705
-0.012518521870698764   -0.1478095935618895   -0.004402598138368345
-0.010558113118817521   -0.14873601142334994   -0.004562006823319298
-0.008251721202088834   -0.1397304551155635   -0.004424547879771526
-0.010094250916947845   -0.1487286453746415   -0.004180000344309367
-0.01269683501738284   -0.1395993868432811   -0.004416382012892705
-0.007913994690415404   -0.1397473542932494   -0.004222044578342843
-0.010094250916947845   -0.1487286453746415   -0.004180000344309367
-0.008251721202088834   -0.1397304551155635   -0.004424547879771526
-0.01269683501738284   -0.1395993868432811   -0.004416382012892705
-0.010094250916947845   -0.1487286453746415   -0.004180000344309367
-0.012123799281556841   -0.14780625169174097   -0.00429327754422837
-0.012518521870698764   -0.1478095935618895   -0.004402598138368345
-0.01269683501738284   -0.1395993868432811   -0.004416382012892705
-0.010094250916947845   -0.1487286453746415   -0.004180000344309367
-0.012518521870698764   -0.1478095935618895   -0.004402598138368345
-0.008251721202088834   -0.1397304551155635   -0.004424547879771526
-0.01269683501738284   -0.1395993868432811   -0.004416382012892705
-0.012123799281556841   -0.14780625169174097   -0.00429327754422837
-0.007913994690415404   -0.1397473542932494   -0.004222044578342843
-0.012411895272465839   -0.13975158303137356   -0.00441904891307702
-0.012123799281556841   -0.14780625169174097   -0.00429327754422837
-0.010094250916947845   -0.1487286453746415   -0.004180000344309367
-0.007913994690415404   -0.1397473542932494   -0.004222044578342843
-0.009595963289151115   -0.1488378774490275   -0.0037969216982911367
-0.012411895272465839   -0.13975158303137356   -0.00441904891307702
-0.007633290551229489   -0.1398680419158756   -0.004049917747535795
-0.009595963289151115   -0.1488378774490275   -0.0037969216982911367
-0.007913994690415404   -0.1397473542932494   -0.004222044578342843
-0.012411895272465839   -0.13975158303137356   -0.00441904891307702
-0.009595963289151115   -0.1488378774490275   -0.0037969216982911367
-0.011712177934190696   -0.14794746492836303   -0.004188222777990966
-0.012123799281556841   -0.14780625169174097   -0.00429327754422837
-0.012411895272465839   -0.13975158303137356   -0.00441904891307702
-0.009595963289151115   -0.1488378774490275   -0.0037969216982911367
-0.012123799281556841   -0.14780625169174097   -0.00429327754422837
-0.007913994690415404   -0.1397473542932494   -0.004222044578342843
-0.008606105866896868   -0.13980024603360883   -0.004645678199722632
-0.011058960888435219   -0.14886673442572262   -0.0049454391205097465
-0.003589112230619447   -0.13975345152041074   -0.004836547692607915
-0.008251721202088834   -0.1397304551155635   -0.004424547879771526
-0.011058960888435219   -0.14886673442572262   -0.0049454391205097465
-0.00922056848410308   -0.15000000000000002   -0.00527783103821705
-0.003589112230619447   -0.13975345152041074   -0.004836547692607915
-0.008591114867562396   -0.15000000000000002   -0.0046968093733826865
-0.008251721202088834   -0.1397304551155635   -0.004424547879771526
-0.003134118261034311   -0.13964411310518077   -0.004446104099226684
-0.008591114867562396   -0.15000000000000002   -0.0046968093733826865
-0.003589112230619447   -0.13975345152041074   -0.004836547692607915
-0.008251721202088834   -0.1397304551155635   -0.004424547879771526
-0.008591114867562396   -0.15000000000000002   -0.0046968093733826865
-0.010558113118817521   -0.14873601142334994   -0.004562006823319298
-0.011058960888435219   -0.14886673442572262   -0.0049454391205097465
-0.008251721202088834   -0.1397304551155635   -0.004424547879771526
-0.008591114867562396   -0.15000000000000002   -0.0046968093733826865
-0.011058960888435219   -0.14886673442572262   -0.0049454391205097465
-0.003589112230619447   -0.13975345152041074   -0.004836547692607915
-0.008251721202088834   -0.1397304551155635   -0.004424547879771526
-0.010558113118817521   -0.14873601142334994   -0.004562006823319298
-0.003134118261034311   -0.13964411310518077   -0.004446104099226684
-0.007913994690415404   -0.1397473542932494   -0.004222044578342843
-0.010558113118817521   -0.14873601142334994   -0.004562006823319298
-0.008591114867562396   -0.15000000000000002   -0.0046968093733826865
-0.003134118261034311   -0.13964411310518077   -0.004446104099226684
-0.007959059855208271   -0.15000000000000002   -0.004108883995789784
-0.007913994690415404   -0.1397473542932494   -0.004222044578342843
-0.0026693493756128716   -0.1396245763814653   -0.004075615895570098
-0.007959059855208271   -0.15000000000000002   -0.004108883995789784
-0.003134118261034311   -0.13964411310518077   -0.004446104099226684
-0.007913994690415404   -0.1397473542932494   -0.004222044578342843
-0.007959059855208271   -0.15000000000000002   -0.004108883995789784
-0.010094250916947845   -0.1487286453746415   -0.004180000344309367
-0.010558113118817521   -0.14873601142334994   -0.004562006823319298
-0.007913994690415404   -0.1397473542932494   -0.004222044578342843
-0.007959059855208271   -0.15000000000000002   -0.004108883995789784
-0.010558113118817521   -0.14873601142334994   -0.004562006823319298
-0.003134118261034311   -0.13964411310518077   -0.004446104099226684
-0.007913994690415404   -0.1397473542932494   -0.004222044578342843
-0.010094250916947845   -0.1487286453746415   -0.004180000344309367
-0.0026693493756128716   -0.1396245763814653   -0.004075615895570098
-0.007633290551229489   -0.1398680419158756   -0.004049917747535795
-0.010094250916947845   -0.1487286453746415   -0.004180000344309367
-0.007959059855208271   -0.15000000000000002   -0.004108883995789784
-0.0026693493756128716   -0.1396245763814653   -0.004075615895570098
-0.007340721383083112   -0.15000000000000002   -0.003528697631584814
-0.007633290551229489   -0.1398680419158756   -0.004049917747535795
-0.0023248590225786485   -0.13971437893377978   -0.0037393428973445065
-0.007340721383083112   -0.15000000000000002   -0.003528697631584814
-0.0026693493756128716   -0.1396245763814653   -0.004075615895570098
-0.007633290551229489   -0.1398680419158756   -0.004049917747535795
-0.007340721383083112   -0.15000000000000002   -0.003528697631584814
-0.009595963289151115   -0.1488378774490275   -0.0037969216982911367
-0.010094250916947845   -0.1487286453746415   -0.004180000344309367
-0.007633290551229489   -0.1398680419158756   -0.004049917747535795
-0.007340721383083112   -0.15000000000000002   -0.003528697631584814
-0.010094250916947845   -0.1487286453746415   -0.004180000344309367
-0.0026693493756128716   -0.1396245763814653   -0.004075615895570098
-0.003589112230619447   -0.13975345152041074   -0.004836547692607915
-0.00922056848410308   -0.15000000000000002   -0.00527783103821705
0.0018170698148216406   -0.1392728691130703   -0.005229013462201578
-0.003134118261034311   -0.13964411310518077   -0.004446104099226684
-0.00922056848410308   -0.15000000000000002   -0.00527783103821705
-0.00789129809930269   -0.15000000000000002   -0.0056804030043081525
0.0018170698148216406   -0.1392728691130703   -0.005229013462201578
-0.0065783642351776835   -0.15000000000000002   -0.004840550625801751
-0.003134118261034311   -0.13964411310518077   -0.004446104099226684
0.0028743297442129965   -0.13903451873717976   -0.004590107242676892
-0.0065783642351776835   -0.15000000000000002   -0.004840550625801751
0.0018170698148216406   -0.1392728691130703   -0.005229013462201578
-0.003134118261034311   -0.13964411310518077   -0.004446104099226684
-0.0065783642351776835   -0.15000000000000002   -0.004840550625801751
-0.008591114867562396   -0.15000000000000002   -0.0046968093733826865
-0.00922056848410308   -0.15000000000000002   -0.00527783103821705
-0.003134118261034311   -0.13964411310518077   -0.004446104099226684
-0.0065783642351776835   -0.15000000000000002   -0.004840550625801751
-0.00922056848410308   -0.15000000000000002   -0.00527783103821705
0.0018170698148216406   -0.1392728691130703   -0.005229013462201578
-0.003134118261034311   -0.13964411310518077   -0.004446104099226684
-0.008591114867562396   -0.15000000000000002   -0.0046968093733826865
0.0028743297442129965   -0.13903451873717976   -0.004590107242676892
-0.0026693493756128716   -0.1396245763814653   -0.004075615895570098
-0.008591114867562396   -0.15000000000000002   -0.0046968093733826865
-0.0065783642351776835   -0.15000000000000002   -0.004840550625801751
0.0028743297442129965   -0.13903451873717976   -0.004590107242676892
-0.005531286811253798   -0.15000000000000002   -0.004037086672197367
-0.0026693493756128716   -0.1396245763814653   -0.004075615895570098
0.0037053792197015633   -0.13898604279547352   -0.00399047978704147
-0.005531286811253798   -0.15000000000000002   -0.004037086672197367
0.0028743297442129965   -0.13903451873717976   -0.004590107242676892
-0.0026693493756128716   -0.1396245763814653   -0.004075615895570098
-0.005531286811253798   -0.15000000000000002   -0.004037086672197367
-0.007959059855208271   -0.15000000000000002   -0.004108883995789784
-0.008591114867562396   -0.15000000000000002   -0.0046968093733826865
-0.0026693493756128716   -0.1396245763814653   -0.004075615895570098
-0.005531286811253798   -0.15000000000000002   -0.004037086672197367
-0.008591114867562396   -0.15000000000000002   -0.0046968093733826865
0.0028743297442129965   -0.13903451873717976   -0.004590107242676892
-0.0026693493756128716   -0.1396245763814653   -0.004075615895570098
-0.007959059855208271   -0.15000000000000002   -0.004108883995789784
0.0037053792197015633   -0.13898604279547352   -0.00399047978704147
-0.0023248590225786485   -0.13971437893377978   -0.0037393428973445065
-0.007959059855208271   -0.15000000000000002   -0.004108883995789784
-0.005531286811253798   -0.15000000000000002   -0.004037086672197367
0.0037053792197015633   -0.13898604279547352   -0.00399047978704147
-0.004237698834005854   -0.15000000000000002   -0.0032030358659722183
-0.0023248590225786485   -0.13971437893377978   -0.0037393428973445065
0.004568212321619864   -0.13902578133566895   -0.0034431743007023127
-0.004237698834005854   -0.15000000000000002   -0.0032030358659722183
0.0037053792197015633   -0.13898604279547352   -0.00399047978704147
-0.0023248590225786485   -0.13971437893377978   -0.0037393428973445065
-0.004237698834005854   -0.15000000000000002   -0.0032030358659722183
-0.007340721383083112   -0.15000000000000002   -0.003528697631584814
-0.007959059855208271   -0.15000000000000002   -0.004108883995789784
-0.0023248590225786485   -0.13971437893377978   -0.0037393428973445065
-0.004237698834005854   -0.15000000000000002   -0.0032030358659722183
-0.007959059855208271   -0.15000000000000002   -0.004108883995789784
0.0037053792197015633   -0.13898604279547352   -0.00399047978704147
-0.017772847538040915   -0.14646998748258636   -0.003668205468338658
-0.010579432598153903   -0.14683743695658702   -0.00313905656753777
-0.014973619768727605   -0.14721243036463222   -0.004115246197392958
-0.016951071056983992   -0.1463040738046468   -0.0041337166489490975
-0.010579432598153903   -0.14683743695658702   -0.00313905656753777
-0.011238772013305273   -0.1474083213345157   -0.0037145709833871776
-0.014973619768727605   -0.14721243036463222   -0.004115246197392958
-0.010946475240399323   -0.14720724761617063   -0.003923518399749794
-0.016951071056983992   -0.1463040738046468   -0.0041337166489490975
-0.014586820970105543   -0.1470650851403445   -0.004268070801429603
-0.010946475240399323   -0.14720724761617063   -0.003923518399749794
-0.014973619768727605   -0.14721243036463222   -0.004115246197392958
-0.016951071056983992   -0.1463040738046468   -0.0041337166489490975
-0.010946475240399323   -0.14720724761617063   -0.003923518399749794
-0.009835343449150628   -0.14657935189775798   -0.0036280642498216615
-0.010579432598153903   -0.14683743695658702   -0.00313905656753777
-0.016951071056983992   -0.1463040738046468   -0.0041337166489490975
-0.010946475240399323   -0.14720724761617063   -0.003923518399749794
-0.010579432598153903   -0.14683743695658702   -0.00313905656753777
-0.014973619768727605   -0.14721243036463222   -0.004115246197392958
-0.016951071056983992   -0.1463040738046468   -0.0041337166489490975
-0.009835343449150628   -0.14657935189775798   -0.0036280642498216615
-0.014586820970105543   -0.1470650851403445   -0.004268070801429603
-0.016241963176904066   -0.14631731130769232   -0.004597359936501696
-0.009835343449150628   -0.14657935189775798   -0.0036280642498216615
-0.010946475240399323   -0.14720724761617063   -0.003923518399749794
-0.014586820970105543   -0.1470650851403445   -0.004268070801429603
-0.010603833377976844   -0.14713215546075162   -0.0041161525157186385
-0.016241963176904066   -0.14631731130769232   -0.004597359936501696
-0.01415874090983049   -0.14707151529318918   -0.004422429454596853
-0.010603833377976844   -0.14713215546075162   -0.0041161525157186385
-0.014586820970105543   -0.1470650851403445   -0.004268070801429603
-0.016241963176904066   -0.14631731130769232   -0.004597359936501696
-0.010603833377976844   -0.14713215546075162   -0.0041161525157186385
-0.00921588866597065   -0.14649892216098145   -0.0040968202673733346
-0.009835343449150628   -0.14657935189775798   -0.0036280642498216615
-0.016241963176904066   -0.14631731130769232   -0.004597359936501696
-0.010603833377976844   -0.14713215546075162   -0.0041161525157186385
-0.009835343449150628   -0.14657935189775798   -0.0036280642498216615
-0.014586820970105543   -0.1470650851403445   -0.004268070801429603
-0.016241963176904066   -0.14631731130769232   -0.004597359936501696
-0.00921588866597065   -0.14649892216098145   -0.0040968202673733346
-0.01415874090983049   -0.14707151529318918   -0.004422429454596853
-0.015401118236206284   -0.14651989544298022   -0.0050710137867798835
-0.00921588866597065   -0.14649892216098145   -0.0040968202673733346
-0.010603833377976844   -0.14713215546075162   -0.0041161525157186385
-0.01415874090983049   -0.14707151529318918   -0.004422429454596853
-0.010310190306867324   -0.14718409097249402   -0.004291450750293673
-0.015401118236206284   -0.14651989544298022   -0.0050710137867798835
-0.013760888275694303   -0.14723239513674083   -0.004578970454824804
-0.010310190306867324   -0.14718409097249402   -0.004291450750293673
-0.01415874090983049   -0.14707151529318918   -0.004422429454596853
-0.015401118236206284   -0.14651989544298022   -0.0050710137867798835
-0.010310190306867324   -0.14718409097249402   -0.004291450750293673
-0.008515496427471975   -0.14656375915538875   -0.004543210863253241
-0.00921588866597065   -0.14649892216098145   -0.0040968202673733346
-0.015401118236206284   -0.14651989544298022   -0.0050710137867798835
-0.010310190306867324   -0.14718409097249402   -0.004291450750293673
-0.00921588866597065   -0.14649892216098145   -0.0040968202673733346
-0.01415874090983049   -0.14707151529318918   -0.004422429454596853
-0.014973619768727605   -0.14721243036463222   -0.004115246197392958
-0.011238772013305273   -0.1474083213345157   -0.0037145709833871776
-0.012926920509539879   -0.14796061249786369   -0.004510555159804756
-0.014586820970105543   -0.1470650851403445   -0.004268070801429603
-0.011238772013305273   -0.1474083213345157   -0.0037145709833871776
-0.012123873213175882   -0.147762717433777   -0.004174943205414511
-0.012926920509539879   -0.14796061249786369   -0.004510555159804756
-0.011865048927239118   -0.14758323233639548   -0.004180620780053408
-0.014586820970105543   -0.1470650851403445   -0.004268070801429603
-0.012518521870698764   -0.1478095935618895   -0.004402598138368345
-0.011865048927239118   -0.14758323233639548   -0.004180620780053408
-0.012926920509539879   -0.14796061249786369   -0.004510555159804756
-0.014586820970105543   -0.1470650851403445   -0.004268070801429603
-0.011865048927239118   -0.14758323233639548   -0.004180620780053408
-0.010946475240399323   -0.14720724761617063   -0.003923518399749794
-0.011238772013305273   -0.1474083213345157   -0.0037145709833871776
-0.014586820970105543   -0.1470650851403445   -0.004268070801429603
-0.011865048927239118   -0.14758323233639548   -0.004180620780053408
-0.011238772013305273   -0.1474083213345157   -0.0037145709833871776
-0.012926920509539879   -0.14796061249786369   -0.004510555159804756
-0.014586820970105543   -0.1470650851403445   -0.004268070801429603
-0.010946475240399323   -0.14720724761617063   -0.003923518399749794
-0.012518521870698764   -0.1478095935618895   -0.004402598138368345
-0.01415874090983049   -0.14707151529318918   -0.004422429454596853
-0.010946475240399323   -0.14720724761617063   -0.003923518399749794
-0.011865048927239118   -0.14758323233639548   -0.004180620780053408
-0.012518521870698764   -0.1478095935618895   -0.004402598138368345
-0.011576906993658903   -0.1475178609547266   -0.004165146638977827
-0.01415874090983049   -0.14707151529318918   -0.004422429454596853
-0.012123799281556841   -0.14780625169174097   -0.00429327754422837
-0.011576906993658903   -0.1475178609547266   -0.004165146638977827
-0.012518521870698764   -0.1478095935618895   -0.004402598138368345
-0.01415874090983049   -0.14707151529318918   -0.004422429454596853
-0.011576906993658903   -0.1475178609547266   -0.004165146638977827
-0.010603833377976844   -0.14713215546075162   -0.0041161525157186385
-0.010946475240399323   -0.14720724761617063   -0.003923518399749794
-0.01415874090983049   -0.14707151529318918   -0.004422429454596853
-0.011576906993658903   -0.1475178609547266   -0.004165146638977827
-0.010946475240399323   -0.14720724761617063   -0.003923518399749794
-0.012518521870698764   -0.1478095935618895   -0.004402598138368345
-0.01415874090983049   -0.14707151529318918   -0.004422429454596853
-0.010603833377976844   -0.14713215546075162   -0.0041161525157186385
-0.012123799281556841   -0.14780625169174097   -0.00429327754422837
-0.013760888275694303   -0.14723239513674083   -0.004578970454824804
-0.010603833377976844   -0.14713215546075162   -0.0041161525157186385
-0.011576906993658903   -0.1475178609547266   -0.004165146638977827
-0.012123799281556841   -0.14780625169174097   -0.00429327754422837
-0.011283880329668894   -0.14756131479716325   -0.004133078300504858
-0.013760888275694303   -0.14723239513674083   -0.004578970454824804
-0.011712177934190696   -0.14794746492836303   -0.004188222777990966
-0.011283880329668894   -0.14756131479716325   -0.004133078300504858
-0.012123799281556841   -0.14780625169174097   -0.00429327754422837
-0.013760888275694303   -0.14723239513674083   -0.004578970454824804
-0.011283880329668894   -0.14756131479716325   -0.004133078300504858
-0.010310190306867324   -0.14718409097249402   -0.004291450750293673
-0.010603833377976844   -0.14713215546075162   -0.0041161525157186385
-0.013760888275694303   -0.14723239513674083   -0.004578970454824804
-0.011283880329668894   -0.14756131479716325   -0.004133078300504858
-0.010603833377976844   -0.14713215546075162   -0.0041161525157186385
-0.012123799281556841   -0.14780625169174097   -0.00429327754422837
-0.012926920509539879   -0.14796061249786369   -0.004510555159804756
-0.012123873213175882   -0.147762717433777   -0.004174943205414511
-0.011058960888435219   -0.14886673442572262   -0.0049454391205097465
-0.012518521870698764   -0.1478095935618895   -0.004402598138368345
-0.012123873213175882   -0.147762717433777   -0.004174943205414511
-0.013071740351163173   -0.14791391101934423   -0.004627822165866413
-0.011058960888435219   -0.14886673442572262   -0.0049454391205097465
-0.012803634849769319   -0.1477429534314313   -0.004438062644980996
-0.012518521870698764   -0.1478095935618895   -0.004402598138368345
-0.010558113118817521   -0.14873601142334994   -0.004562006823319298
-0.012803634849769319   -0.1477429534314313   -0.004438062644980996
-0.011058960888435219   -0.14886673442572262   -0.0049454391205097465
-0.012518521870698764   -0.1478095935618895   -0.004402598138368345
-0.012803634849769319   -0.1477429534314313   -0.004438062644980996
-0.011865048927239118   -0.14758323233639548   -0.004180620780053408
-0.012123873213175882   -0.147762717433777   -0.004174943205414511
-0.012518521870698764   -0.1478095935618895   -0.004402598138368345
-0.012803634849769319   -0.1477429534314313   -0.004438062644980996
-0.012123873213175882   -0.147762717433777   -0.004174943205414511
-0.011058960888435219   -0.14886673442572262   -0.0049454391205097465
-0.012518521870698764   -0.1478095935618895   -0.004402598138368345
-0.011865048927239118   -0.14758323233639548   -0.004180620780053408
-0.010558113118817521   -0.14873601142334994   -0.004562006823319298
-0.012123799281556841   -0.14780625169174097   -0.00429327754422837
-0.011865048927239118   -0.14758323233639548   -0.004180620780053408
-0.012803634849769319   -0.1477429534314313   -0.004438062644980996
-0.010558113118817521   -0.14873601142334994   -0.004562006823319298
-0.012481889904905384   -0.14768799399927943   -0.004222547727335328
-0.012123799281556841   -0.14780625169174097   -0.00429327754422837
-0.010094250916947845   -0.1487286453746415   -0.004180000344309367
-0.012481889904905384   -0.14768799399927943   -0.004222547727335328
-0.010558113118817521   -0.14873601142334994   -0.004562006823319298
-0.012123799281556841   -0.14780625169174097   -0.00429327754422837
-0.012481889904905384   -0.14768799399927943   -0.004222547727335328
-0.011576906993658903   -0.1475178609547266   -0.004165146638977827
-0.011865048927239118   -0.14758323233639548   -0.004180620780053408
-0.012123799281556841   -0.14780625169174097   -0.00429327754422837
-0.012481889904905384   -0.14768799399927943   -0.004222547727335328
-0.011865048927239118   -0.14758323233639548   -0.004180620780053408
-0.010558113118817521   -0.14873601142334994   -0.004562006823319298
-0.012123799281556841   -0.14780625169174097   -0.00429327754422837
-0.011576906993658903   -0.1475178609547266   -0.004165146638977827
-0.010094250916947845   -0.1487286453746415   -0.004180000344309367
-0.011712177934190696   -0.14794746492836303   -0.004188222777990966
-0.011576906993658903   -0.1475178609547266   -0.004165146638977827
-0.012481889904905384   -0.14768799399927943   -0.004222547727335328
-0.010094250916947845   -0.1487286453746415   -0.004180000344309367
-0.012150914058134609   -0.14773061834718104   -0.003992901966018441
-0.011712177934190696   -0.14794746492836303   -0.004188222777990966
-0.009595963289151115   -0.1488378774490275   -0.0037969216982911367
-0.012150914058134609   -0.14773061834718104   -0.003992901966018441
-0.010094250916947845   -0.1487286453746415   -0.004180000344309367
-0.011712177934190696   -0.14794746492836303   -0.004188222777990966
-0.012150914058134609   -0.14773061834718104   -0.003992901966018441
-0.011283880329668894   -0.14756131479716325   -0.004133078300504858
-0.011576906993658903   -0.1475178609547266   -0.004165146638977827
-0.011712177934190696   -0.14794746492836303   -0.004188222777990966
-0.012150914058134609   -0.14773061834718104   -0.003992901966018441
-0.011576906993658903   -0.1475178609547266   -0.004165146638977827
-0.010094250916947845   -0.1487286453746415   -0.004180000344309367
-0.011058960888435219   -0.14886673442572262   -0.0049454391205097465
-0.013071740351163173   -0.14791391101934423   -0.004627822165866413
-0.00922056848410308   -0.15000000000000002   -0.00527783103821705
-0.010558113118817521   -0.14873601142334994   -0.004562006823319298
-0.013071740351163173   -0.14791391101934423   -0.004627822165866413
-0.014443870098747194   -0.14775752014192503   -0.0050574888166278024
-0.00922056848410308   -0.15000000000000002   -0.00527783103821705
-0.014093593094475436   -0.1475964630716162   -0.004681798284136672
-0.010558113118817521   -0.14873601142334994   -0.004562006823319298
-0.008591114867562396   -0.15000000000000002   -0.0046968093733826865
-0.014093593094475436   -0.1475964630716162   -0.004681798284136672
-0.00922056848410308   -0.15000000000000002   -0.00527783103821705
-0.010558113118817521   -0.14873601142334994   -0.004562006823319298
-0.014093593094475436   -0.1475964630716162   -0.004681798284136672
-0.012803634849769319   -0.1477429534314313   -0.004438062644980996
-0.013071740351163173   -0.14791391101934423   -0.004627822165866413
-0.010558113118817521   -0.14873601142334994   -0.004562006823319298
-0.014093593094475436   -0.1475964630716162   -0.004681798284136672
-0.013071740351163173   -0.14791391101934423   -0.004627822165866413
-0.00922056848410308   -0.15000000000000002   -0.00527783103821705
-0.010558113118817521   -0.14873601142334994   -0.004562006823319298
-0.012803634849769319   -0.1477429534314313   -0.004438062644980996
-0.008591114867562396   -0.15000000000000002   -0.0046968093733826865
-0.010094250916947845   -0.1487286453746415   -0.004180000344309367
-0.012803634849769319   -0.1477429534314313   -0.004438062644980996
-0.014093593094475436   -0.1475964630716162   -0.004681798284136672
-0.008591114867562396   -0.15000000000000002   -0.0046968093733826865
-0.01363180005738548   -0.1475593629321203   -0.00427748646501059
-0.010094250916947845   -0.1487286453746415   -0.004180000344309367
-0.007959059855208271   -0.15000000000000002   -0.004108883995789784
-0.01363180005738548   -0.1475593629321203   -0.00427748646501059
-0.008591114867562396   -0.15000000000000002   -0.0046968093733826865
-0.010094250916947845   -0.1487286453746415   -0.004180000344309367
-0.01363180005738548   -0.1475593629321203   -0.00427748646501059
-0.012481889904905384   -0.14768799399927943   -0.004222547727335328
-0.012803634849769319   -0.1477429534314313   -0.004438062644980996
-0.010094250916947845   -0.1487286453746415   -0.004180000344309367
-0.01363180005738548   -0.1475593629321203   -0.00427748646501059
-0.012803634849769319   -0.1477429534314313   -0.004438062644980996
-0.008591114867562396   -0.15000000000000002   -0.0046968093733826865
-0.010094250916947845   -0.1487286453746415   -0.004180000344309367
-0.012481889904905384   -0.14768799399927943   -0.004222547727335328
-0.007959059855208271   -0.15000000000000002   -0.004108883995789784
-0.009595963289151115   -0.1488378774490275   -0.0037969216982911367
-0.012481889904905384   -0.14768799399927943   -0.004222547727335328
-0.01363180005738548   -0.1475593629321203   -0.00427748646501059
-0.007959059855208271   -0.15000000000000002   -0.004108883995789784
-0.013196794881837596   -0.14762215719538446   -0.0038574327267817433
-0.009595963289151115   -0.1488378774490275   -0.0037969216982911367
-0.007340721383083112   -0.15000000000000002   -0.003528697631584814
-0.013196794881837596   -0.14762215719538446   -0.0038574327267817433
-0.007959059855208271   -0.15000000000000002   -0.004108883995789784
-0.009595963289151115   -0.1488378774490275   -0.0037969216982911367
-0.013196794881837596   -0.14762215719538446   -0.0038574327267817433
-0.012150914058134609   -0.14773061834718104   -0.003992901966018441
-0.012481889904905384   -0.14768799399927943   -0.004222547727335328
-0.009595963289151115   -0.1488378774490275   -0.0037969216982911367
-0.013196794881837596   -0.14762215719538446   -0.0038574327267817433
-0.012481889904905384   -0.14768799399927943   -0.004222547727335328
-0.007959059855208271   -0.15000000000000002   -0.004108883995789784
-0.00922056848410308   -0.15000000000000002   -0.00527783103821705
-0.014443870098747194   -0.14775752014192503   -0.0050574888166278024
-0.00789129809930269   -0.15000000000000002   -0.0056804030043081525
-0.008591114867562396   -0.15000000000000002   -0.0046968093733826865
-0.014443870098747194   -0.14775752014192503   -0.0050574888166278024
-0.017102711231717426   -0.14703366981437213   -0.005511912851458207
-0.00789129809930269   -0.15000000000000002   -0.0056804030043081525
-0.01617574774301842   -0.14689851413016825   -0.004895457243498716
-0.008591114867562396   -0.15000000000000002   -0.0046968093733826865
-0.0065783642351776835   -0.15000000000000002   -0.004840550625801751
-0.01617574774301842   -0.14689851413016825   -0.004895457243498716
-0.00789129809930269   -0.15000000000000002   -0.0056804030043081525
-0.008591114867562396   -0.15000000000000002   -0.0046968093733826865
-0.01617574774301842   -0.14689851413016825   -0.004895457243498716
-0.014093593094475436   -0.1475964630716162   -0.004681798284136672
-0.014443870098747194   -0.14775752014192503   -0.0050574888166278024
-0.008591114867562396   -0.15000000000000002   -0.0046968093733826865
-0.01617574774301842   -0.14689851413016825   -0.004895457243498716
-0.014443870098747194   -0.14775752014192503   -0.0050574888166278024
-0.00789129809930269   -0.15000000000000002   -0.0056804030043081525
-0.008591114867562396   -0.15000000000000002   -0.0046968093733826865
-0.014093593094475436   -0.1475964630716162   -0.004681798284136672
-0.0065783642351776835   -0.15000000000000002   -0.004840550625801751
-0.007959059855208271   -0.15000000000000002   -0.004108883995789784
-0.014093593094475436   -0.1475964630716162   -0.004681798284136672
-0.01617574774301842   -0.14689851413016825   -0.004895457243498716
-0.0065783642351776835   -0.15000000000000002   -0.004840550625801751
-0.015323174929753257   -0.14687956623197512   -0.0042370609293031014
-0.007959059855208271   -0.15000000000000002   -0.004108883995789784
-0.005531286811253798   -0.15000000000000002   -0.004037086672197367
-0.015323174929753257   -0.14687956623197512   -0.0042370609293031014
-0.0065783642351776835   -0.15000000000000002   -0.004840550625801751
-0.007959059855208271   -0.15000000000000002   -0.004108883995789784
-0.015323174929753257   -0.14687956623197512   -0.0042370609293031014
-0.01363180005738548   -0.1475593629321203   -0.00427748646501059
-0.014093593094475436   -0.1475964630716162   -0.004681798284136672
-0.007959059855208271   -0.15000000000000002   -0.004108883995789784
-0.015323174929753257   -0.14687956623197512   -0.0042370609293031014
-0.014093593094475436   -0.1475964630716162   -0.004681798284136672
-0.0065783642351776835   -0.15000000000000002   -0.004840550625801751
-0.007959059855208271   -0.15000000000000002   -0.004108883995789784
-0.01363180005738548   -0.1475593629321203   -0.00427748646501059
-0.005531286811253798   -0.15000000000000002   -0.004037086672197367
-0.007340721383083112   -0.15000000000000002   -0.003528697631584814
-0.01363180005738548   -0.1475593629321203   -0.00427748646501059
-0.015323174929753257   -0.14687956623197512   -0.0042370609293031014
-0.005531286811253798   -0.15000000000000002   -0.004037086672197367
-0.014246630201953091   -0.1470571043520801   -0.003548134812602305
-0.007340721383083112   -0.15000000000000002   -0.003528697631584814
-0.004237698834005854   -0.15000000000000002   -0.0032030358659722183
-0.014246630201953091   -0.1470571043520801   -0.003548134812602305
-0.005531286811253798   -0.15000000000000002   -0.004037086672197367
-0.007340721383083112   -0.15000000000000002   -0.003528697631584814
-0.014246630201953091   -0.1470571043520801   -0.003548134812602305
-0.013196794881837596   -0.14762215719538446   -0.0038574327267817433
-0.01363180005738548   -0.1475593629321203   -0.00427748646501059
-0.007340721383083112   -0.15000000000000002   -0.003528697631584814
-0.014246630201953091   -0.1470571043520801   -0.003548134812602305
-0.01363180005738548   -0.1475593629321203   -0.00427748646501059
-0.005531286811253798   -0.15000000000000002   -0.004037086672197367
-0.010579432598153903   -0.14683743695658702   -0.00313905656753777
-0.004261357923787284   -0.14124515625530923   -0.0027139910787857377
-0.011238772013305273   -0.1474083213345157   -0.0037145709833871776
-0.009835343449150628   -0.14657935189775798   -0.0036280642498216615
-0.004261357923787284   -0.14124515625530923   -0.0027139910787857377
-0.008041489567706539   -0.14167471163358092   -0.0033249998534134254
-0.011238772013305273   -0.1474083213345157   -0.0037145709833871776
-0.00783408906070624   -0.1414314785613414   -0.0035110398376983314
-0.009835343449150628   -0.14657935189775798   -0.0036280642498216615
-0.010946475240399323   -0.14720724761617063   -0.003923518399749794
-0.00783408906070624   -0.1414314785613414   -0.0035110398376983314
-0.011238772013305273   -0.1474083213345157   -0.0037145709833871776
-0.009835343449150628   -0.14657935189775798   -0.0036280642498216615
-0.00783408906070624   -0.1414314785613414   -0.0035110398376983314
-0.003669067089803461   -0.1409443576372727   -0.0031359263887085994
-0.004261357923787284   -0.14124515625530923   -0.0027139910787857377
-0.009835343449150628   -0.14657935189775798   -0.0036280642498216615
-0.00783408906070624   -0.1414314785613414   -0.0035110398376983314
-0.004261357923787284   -0.14124515625530923   -0.0027139910787857377
-0.011238772013305273   -0.1474083213345157   -0.0037145709833871776
-0.009835343449150628   -0.14657935189775798   -0.0036280642498216615
-0.003669067089803461   -0.1409443576372727   -0.0031359263887085994
-0.010946475240399323   -0.14720724761617063   -0.003923518399749794
-0.00921588866597065   -0.14649892216098145   -0.0040968202673733346
-0.003669067089803461   -0.1409443576372727   -0.0031359263887085994
-0.00783408906070624   -0.1414314785613414   -0.0035110398376983314
-0.010946475240399323   -0.14720724761617063   -0.003923518399749794
-0.007600851347398294   -0.1412957843543152   -0.003680170050932418
-0.00921588866597065   -0.14649892216098145   -0.0040968202673733346
-0.010603833377976844   -0.14713215546075162   -0.0041161525157186385
-0.007600851347398294   -0.1412957843543152   -0.003680170050932418
-0.010946475240399323   -0.14720724761617063   -0.003923518399749794
-0.00921588866597065   -0.14649892216098145   -0.0040968202673733346
-0.007600851347398294   -0.1412957843543152   -0.003680170050932418
-0.0032030295367173034   -0.1408000414363549   -0.003532788653062558
-0.003669067089803461   -0.1409443576372727   -0.0031359263887085994
-0.00921588866597065   -0.14649892216098145   -0.0040968202673733346
-0.007600851347398294   -0.1412957843543152   -0.003680170050932418
-0.003669067089803461   -0.1409443576372727   -0.0031359263887085994
-0.010946475240399323   -0.14720724761617063   -0.003923518399749794
-0.00921588866597065   -0.14649892216098145   -0.0040968202673733346
-0.0032030295367173034   -0.1408000414363549   -0.003532788653062558
-0.010603833377976844   -0.14713215546075162   -0.0041161525157186385
-0.008515496427471975   -0.14656375915538875   -0.004543210863253241
-0.0032030295367173034   -0.1408000414363549   -0.003532788653062558
-0.007600851347398294   -0.1412957843543152   -0.003680170050932418
-0.010603833377976844   -0.14713215546075162   -0.0041161525157186385
-0.0074219532015676526   -0.14126384999149186   -0.00383292203784781
-0.008515496427471975   -0.14656375915538875   -0.004543210863253241
-0.010310190306867324   -0.14718409097249402   -0.004291450750293673
-0.0074219532015676526   -0.14126384999149186   -0.00383292203784781
-0.010603833377976844   -0.14713215546075162   -0.0041161525157186385
-0.008515496427471975   -0.14656375915538875   -0.004543210863253241
-0.0074219532015676526   -0.14126384999149186   -0.00383292203784781
-0.0026946500791806553   -0.14077095197298667   -0.003903506949560447
-0.0032030295367173034   -0.1408000414363549   -0.003532788653062558
-0.008515496427471975   -0.14656375915538875   -0.004543210863253241
-0.0074219532015676526   -0.14126384999149186   -0.00383292203784781
-0.0032030295367173034   -0.1408000414363549   -0.003532788653062558
-0.010603833377976844   -0.14713215546075162   -0.0041161525157186385
-0.011238772013305273   -0.1474083213345157   -0.0037145709833871776
-0.008041489567706539   -0.14167471163358092   -0.0033249998534134254
-0.012123873213175882   -0.147762717433777   -0.004174943205414511
-0.010946475240399323   -0.14720724761617063   -0.003923518399749794
-0.008041489567706539   -0.14167471163358092   -0.0033249998534134254
-0.01176883593047482   -0.14182662820243802   -0.0038237854885575383
-0.012123873213175882   -0.147762717433777   -0.004174943205414511
-0.011594293537342032   -0.14161439229594439   -0.0038342594636114244
-0.010946475240399323   -0.14720724761617063   -0.003923518399749794
-0.011865048927239118   -0.14758323233639548   -0.004180620780053408
-0.011594293537342032   -0.14161439229594439   -0.0038342594636114244
-0.012123873213175882   -0.147762717433777   -0.004174943205414511
-0.010946475240399323   -0.14720724761617063   -0.003923518399749794
-0.011594293537342032   -0.14161439229594439   -0.0038342594636114244
-0.00783408906070624   -0.1414314785613414   -0.0035110398376983314
-0.008041489567706539   -0.14167471163358092   -0.0033249998534134254
-0.010946475240399323   -0.14720724761617063   -0.003923518399749794
-0.011594293537342032   -0.14161439229594439   -0.0038342594636114244
-0.008041489567706539   -0.14167471163358092   -0.0033249998534134254
-0.012123873213175882   -0.147762717433777   -0.004174943205414511
-0.010946475240399323   -0.14720724761617063   -0.003923518399749794
-0.00783408906070624   -0.1414314785613414   -0.0035110398376983314
-0.011865048927239118   -0.14758323233639548   -0.004180620780053408
-0.010603833377976844   -0.14713215546075162   -0.0041161525157186385
-0.00783408906070624   -0.1414314785613414   -0.0035110398376983314
-0.011594293537342032   -0.14161439229594439   -0.0038342594636114244
-0.011865048927239118   -0.14758323233639548   -0.004180620780053408
-0.011413796918738632   -0.14149911074233656   -0.0038290767871472877
-0.010603833377976844   -0.14713215546075162   -0.0041161525157186385
-0.011576906993658903   -0.1475178609547266   -0.004165146638977827
-0.011413796918738632   -0.14149911074233656   -0.0038290767871472877
-0.011865048927239118   -0.14758323233639548   -0.004180620780053408
-0.010603833377976844   -0.14713215546075162   -0.0041161525157186385
-0.011413796918738632   -0.14149911074233656   -0.0038290767871472877
-0.007600851347398294   -0.1412957843543152   -0.003680170050932418
-0.00783408906070624   -0.1414314785613414   -0.0035110398376983314
-0.010603833377976844   -0.14713215546075162   -0.0041161525157186385
-0.011413796918738632   -0.14149911074233656   -0.0038290767871472877
-0.00783408906070624   -0.1414314785613414   -0.0035110398376983314
-0.011865048927239118   -0.14758323233639548   -0.004180620780053408
-0.010603833377976844   -0.14713215546075162   -0.0041161525157186385
-0.007600851347398294   -0.1412957843543152   -0.003680170050932418
-0.011576906993658903   -0.1475178609547266   -0.004165146638977827
-0.010310190306867324   -0.14718409097249402   -0.004291450750293673
-0.007600851347398294   -0.1412957843543152   -0.003680170050932418
-0.011413796918738632   -0.14149911074233656   -0.0038290767871472877
-0.011576906993658903   -0.1475178609547266   -0.004165146638977827
-0.01123969107612223   -0.1414760474519484   -0.0038080734439964194
-0.010310190306867324   -0.14718409097249402   -0.004291450750293673
-0.011283880329668894   -0.14756131479716325   -0.004133078300504858
-0.01123969107612223   -0.1414760474519484   -0.0038080734439964194
-0.011576906993658903   -0.1475178609547266   -0.004165146638977827
-0.010310190306867324   -0.14718409097249402   -0.004291450750293673
-0.01123969107612223   -0.1414760474519484   -0.0038080734439964194
-0.0074219532015676526   -0.14126384999149186   -0.00383292203784781
-0.007600851347398294   -0.1412957843543152   -0.003680170050932418
-0.010310190306867324   -0.14718409097249402   -0.004291450750293673
-0.01123969107612223   -0.1414760474519484   -0.0038080734439964194
-0.007600851347398294   -0.1412957843543152   -0.003680170050932418
-0.011576906993658903   -0.1475178609547266   -0.004165146638977827
-0.012123873213175882   -0.147762717433777   -0.004174943205414511
-0.01176883593047482   -0.14182662820243802   -0.0038237854885575383
-0.013071740351163173   -0.14791391101934423   -0.004627822165866413
-0.011865048927239118   -0.14758323233639548   -0.004180620780053408
-0.01176883593047482   -0.14182662820243802   -0.0038237854885575383
-0.015469782903507373   -0.1416923716907193   -0.004290496870850814
-0.013071740351163173   -0.14791391101934423   -0.004627822165866413
-0.015296617807696481   -0.14150397136986353   -0.004132664981693489
-0.011865048927239118   -0.14758323233639548   -0.004180620780053408
-0.012803634849769319   -0.1477429534314313   -0.004438062644980996
-0.015296617807696481   -0.14150397136986353   -0.004132664981693489
-0.013071740351163173   -0.14791391101934423   -0.004627822165866413
-0.011865048927239118   -0.14758323233639548   -0.004180620780053408
-0.015296617807696481   -0.14150397136986353   -0.004132664981693489
-0.011594293537342032   -0.14161439229594439   -0.0038342594636114244
-0.01176883593047482   -0.14182662820243802   -0.0038237854885575383
-0.011865048927239118   -0.14758323233639548   -0.004180620780053408
-0.015296617807696481   -0.14150397136986353   -0.004132664981693489
-0.01176883593047482   -0.14182662820243802   -0.0038237854885575383
-0.013071740351163173   -0.14791391101934423   -0.004627822165866413
-0.011865048927239118   -0.14758323233639548   -0.004180620780053408
-0.011594293537342032   -0.14161439229594439   -0.0038342594636114244
-0.012803634849769319   -0.1477429534314313   -0.004438062644980996
-0.011576906993658903   -0.1475178609547266   -0.004165146638977827
-0.011594293537342032   -0.14161439229594439   -0.0038342594636114244
-0.015296617807696481   -0.14150397136986353   -0.004132664981693489
-0.012803634849769319   -0.1477429534314313   -0.004438062644980996
-0.015102281651146953   -0.1414108789216415   -0.003959400463265578
-0.011576906993658903   -0.1475178609547266   -0.004165146638977827
-0.012481889904905384   -0.14768799399927943   -0.004222547727335328
-0.015102281651146953   -0.1414108789216415   -0.003959400463265578
-0.012803634849769319   -0.1477429534314313   -0.004438062644980996
-0.011576906993658903   -0.1475178609547266   -0.004165146638977827
-0.015102281651146953   -0.1414108789216415   -0.003959400463265578
-0.011413796918738632   -0.14149911074233656   -0.0038290767871472877
-0.011594293537342032   -0.14161439229594439   -0.0038342594636114244
-0.011576906993658903   -0.1475178609547266   -0.004165146638977827
-0.015102281651146953   -0.1414108789216415   -0.003959400463265578
-0.011594293537342032   -0.14161439229594439   -0.0038342594636114244
-0.012803634849769319   -0.1477429534314313   -0.004438062644980996
-0.011576906993658903   -0.1475178609547266   -0.004165146638977827
-0.011413796918738632   -0.14149911074233656   -0.0038290767871472877
-0.012481889904905384   -0.14768799399927943   -0.004222547727335328
-0.011283880329668894   -0.14756131479716325   -0.004133078300504858
-0.011413796918738632   -0.14149911074233656   -0.0038290767871472877
-0.015102281651146953   -0.1414108789216415   -0.003959400463265578
-0.012481889904905384   -0.14768799399927943   -0.004222547727335328
-0.014907053894511638   -0.1414038258397526   -0.0037688216407700433
-0.011283880329668894   -0.14756131479716325   -0.004133078300504858
-0.012150914058134609   -0.14773061834718104   -0.003992901966018441
-0.014907053894511638   -0.1414038258397526   -0.0037688216407700433
-0.012481889904905384   -0.14768799399927943   -0.004222547727335328
-0.011283880329668894   -0.14756131479716325   -0.004133078300504858
-0.014907053894511638   -0.1414038258397526   -0.0037688216407700433
-0.01123969107612223   -0.1414760474519484   -0.0038080734439964194
-0.011413796918738632   -0.14149911074233656   -0.0038290767871472877
-0.011283880329668894   -0.14756131479716325   -0.004133078300504858
-0.014907053894511638   -0.1414038258397526   -0.0037688216407700433
-0.011413796918738632   -0.14149911074233656   -0.0038290767871472877
-0.012481889904905384   -0.14768799399927943   -0.004222547727335328
-0.013071740351163173   -0.14791391101934423   -0.004627822165866413
-0.015469782903507373   -0.1416923716907193   -0.004290496870850814
-0.014443870098747194   -0.14775752014192503   -0.0050574888166278024
-0.012803634849769319   -0.1477429534314313   -0.004438062644980996
-0.015469782903507373   -0.1416923716907193   -0.004290496870850814
-0.01953756469901977   -0.1412540186093979   -0.004718848167185448
-0.014443870098747194   -0.14775752014192503   -0.0050574888166278024
-0.019325830059831624   -0.14108957548666598   -0.004396551828464656
-0.012803634849769319   -0.1477429534314313   -0.004438062644980996
-0.014093593094475436   -0.1475964630716162   -0.004681798284136672
-0.019325830059831624   -0.14108957548666598   -0.004396551828464656
-0.014443870098747194   -0.14775752014192503   -0.0050574888166278024
-0.012803634849769319   -0.1477429534314313   -0.004438062644980996
-0.019325830059831624   -0.14108957548666598   -0.004396551828464656
-0.015296617807696481   -0.14150397136986353   -0.004132664981693489
-0.015469782903507373   -0.1416923716907193   -0.004290496870850814
-0.012803634849769319   -0.1477429534314313   -0.004438062644980996
-0.019325830059831624   -0.14108957548666598   -0.004396551828464656
-0.015469782903507373   -0.1416923716907193   -0.004290496870850814
-0.014443870098747194   -0.14775752014192503   -0.0050574888166278024
-0.012803634849769319   -0.1477429534314313   -0.004438062644980996
-0.015296617807696481   -0.14150397136986353   -0.004132664981693489
-0.014093593094475436   -0.1475964630716162   -0.004681798284136672
-0.012481889904905384   -0.14768799399927943   -0.004222547727335328
-0.015296617807696481   -0.14150397136986353   -0.004132664981693489
-0.019325830059831624   -0.14108957548666598   -0.004396551828464656
-0.014093593094475436   -0.1475964630716162   -0.004681798284136672
-0.019033729300919757   -0.14101858311679233   -0.004059931115642344
-0.012481889904905384   -0.14768799399927943   -0.004222547727335328
-0.01363180005738548   -0.1475593629321203   -0.00427748646501059
-0.019033729300919757   -0.14101858311679233   -0.004059931115642344
-0.014093593094475436   -0.1475964630716162   -0.004681798284136672
-0.012481889904905384   -0.14768799399927943   -0.004222547727335328
-0.019033729300919757   -0.14101858311679233   -0.004059931115642344
-0.015102281651146953   -0.1414108789216415   -0.003959400463265578
-0.015296617807696481   -0.14150397136986353   -0.004132664981693489
-0.012481889904905384   -0.14768799399927943   -0.004222547727335328
-0.019033729300919757   -0.14101858311679233   -0.004059931115642344
-0.015296617807696481   -0.14150397136986353   -0.004132664981693489
-0.014093593094475436   -0.1475964630716162   -0.004681798284136672
-0.012481889904905384   -0.14768799399927943   -0.004222547727335328
-0.015102281651146953   -0.1414108789216415   -0.003959400463265578
-0.01363180005738548   -0.1475593629321203   -0.00427748646501059
-0.012150914058134609   -0.14773061834718104   -0.003992901966018441
-0.015102281651146953   -0.1414108789216415   -0.003959400463265578
-0.019033729300919757   -0.14101858311679233   -0.004059931115642344
-0.01363180005738548   -0.1475593629321203   -0.00427748646501059
-0.01877837622415972   -0.14104117465398847   -0.0036995418422987904
-0.012150914058134609   -0.14773061834718104   -0.003992901966018441
-0.013196794881837596   -0.14762215719538446   -0.0038574327267817433
-0.01877837622415972   -0.14104117465398847   -0.0036995418422987904
-0.01363180005738548   -0.1475593629321203   -0.00427748646501059
-0.012150914058134609   -0.14773061834718104   -0.003992901966018441
-0.01877837622415972   -0.14104117465398847   -0.0036995418422987904
-0.014907053894511638   -0.1414038258397526   -0.0037688216407700433
-0.015102281651146953   -0.1414108789216415   -0.003959400463265578
-0.012150914058134609   -0.14773061834718104   -0.003992901966018441
-0.01877837622415972   -0.14104117465398847   -0.0036995418422987904
-0.015102281651146953   -0.1414108789216415   -0.003959400463265578
-0.01363180005738548   -0.1475593629321203   -0.00427748646501059
-0.014443870098747194   -0.14775752014192503   -0.0050574888166278024
-0.01953756469901977   -0.1412540186093979   -0.004718848167185448
-0.017102711231717426   -0.14703366981437213   -0.005511912851458207
-0.014093593094475436   -0.1475964630716162   -0.004681798284136672
-0.01953756469901977   -0.1412540186093979   -0.004718848167185448
-0.024776248158483314   -0.14054111704682057   -0.005128926830095273
-0.017102711231717426   -0.14703366981437213   -0.005511912851458207
-0.02409782985818851   -0.14036328472686874   -0.004620188916089741
-0.014093593094475436   -0.1475964630716162   -0.004681798284136672
-0.01617574774301842   -0.14689851413016825   -0.004895457243498716
-0.02409782985818851   -0.14036328472686874   -0.004620188916089741
-0.017102711231717426   -0.14703366981437213   -0.005511912851458207
-0.014093593094475436   -0.1475964630716162   -0.004681798284136672
-0.02409782985818851   -0.14036328472686874   -0.004620188916089741
-0.019325830059831624   -0.14108957548666598   -0.004396551828464656
-0.01953756469901977   -0.1412540186093979   -0.004718848167185448
-0.014093593094475436   -0.1475964630716162   -0.004681798284136672
-0.02409782985818851   -0.14036328472686874   -0.004620188916089741
-0.01953756469901977   -0.1412540186093979   -0.004718848167185448
-0.017102711231717426   -0.14703366981437213   -0.005511912851458207
-0.014093593094475436   -0.1475964630716162   -0.004681798284136672
-0.019325830059831624   -0.14108957548666598   -0.004396551828464656
-0.01617574774301842   -0.14689851413016825   -0.004895457243498716
-0.01363180005738548   -0.1475593629321203   -0.00427748646501059
-0.019325830059831624   -0.14108957548666598   -0.004396551828464656
-0.02409782985818851   -0.14036328472686874   -0.004620188916089741
-0.01617574774301842   -0.14689851413016825   -0.004895457243498716
-0.023489003796769978   -0.140297618800605   -0.004081465837171871
-0.01363180005738548   -0.1475593629321203   -0.00427748646501059
-0.015323174929753257   -0.14687956623197512   -0.0042370609293031014
-0.023489003796769978   -0.140297618800605   -0.004081465837171871
-0.01617574774301842   -0.14689851413016825   -0.004895457243498716
-0.01363180005738548   -0.1475593629321203   -0.00427748646501059
-0.023489003796769978   -0.140297618800605   -0.004081465837171871
-0.019033729300919757   -0.14101858311679233   -0.004059931115642344
-0.019325830059831624   -0.14108957548666598   -0.004396551828464656
-0.01363180005738548   -0.1475593629321203   -0.00427748646501059
-0.023489003796769978   -0.140297618800605   -0.004081465837171871
-0.019325830059831624   -0.14108957548666598   -0.004396551828464656
-0.01617574774301842   -0.14689851413016825   -0.004895457243498716
-0.01363180005738548   -0.1475593629321203   -0.00427748646501059
-0.019033729300919757   -0.14101858311679233   -0.004059931115642344
-0.015323174929753257   -0.14687956623197512   -0.0042370609293031014
-0.013196794881837596   -0.14762215719538446   -0.0038574327267817433
-0.019033729300919757   -0.14101858311679233   -0.004059931115642344
-0.023489003796769978   -0.140297618800605   -0.004081465837171871
-0.015323174929753257   -0.14687956623197512   -0.0042370609293031014
-0.022699842186847608   -0.14037776416046316   -0.0035179050196564227
-0.013196794881837596   -0.14762215719538446   -0.0038574327267817433
-0.014246630201953091   -0.1470571043520801   -0.003548134812602305
-0.022699842186847608   -0.14037776416046316   -0.0035179050196564227
-0.015323174929753257   -0.14687956623197512   -0.0042370609293031014
-0.013196794881837596   -0.14762215719538446   -0.0038574327267817433
-0.022699842186847608   -0.14037776416046316   -0.0035179050196564227
-0.01877837622415972   -0.14104117465398847   -0.0036995418422987904
-0.019033729300919757   -0.14101858311679233   -0.004059931115642344
-0.013196794881837596   -0.14762215719538446   -0.0038574327267817433
-0.022699842186847608   -0.14037776416046316   -0.0035179050196564227
-0.019033729300919757   -0.14101858311679233   -0.004059931115642344
-0.015323174929753257   -0.14687956623197512   -0.0042370609293031014
-0.004261357923787284   -0.14124515625530923   -0.0027139910787857377
0.0008529160184012118   -0.13099041083548865   -0.0022464343468117706
-0.008041489567706539   -0.14167471163358092   -0.0033249998534134254
-0.003669067089803461   -0.1409443576372727   -0.0031359263887085994
0.0008529160184012118   -0.13099041083548865   -0.0022464343468117706
-0.005507925029320433   -0.131304565712331   -0.0028460301185400565
-0.008041489567706539   -0.14167471163358092   -0.0033249998534134254
-0.005398289592952336   -0.13104971932324777   -0.0029933060041730346
-0.003669067089803461   -0.1409443576372727   -0.0031359263887085994
-0.00783408906070624   -0.1414314785613414   -0.0035110398376983314
-0.005398289592952336   -0.13104971932324777   -0.0029933060041730346
-0.008041489567706539   -0.14167471163358092   -0.0033249998534134254
-0.003669067089803461   -0.1409443576372727   -0.0031359263887085994
-0.005398289592952336   -0.13104971932324777   -0.0029933060041730346
0.0012653330389310166   -0.13068496834078602   -0.0025816322938795955
0.0008529160184012118   -0.13099041083548865   -0.0022464343468117706
-0.003669067089803461   -0.1409443576372727   -0.0031359263887085994
-0.005398289592952336   -0.13104971932324777   -0.0029933060041730346
0.0008529160184012118   -0.13099041083548865   -0.0022464343468117706
-0.008041489567706539   -0.14167471163358092   -0.0033249998534134254
-0.003669067089803461   -0.1409443576372727   -0.0031359263887085994
0.0012653330389310166   -0.13068496834078602   -0.0025816322938795955
-0.00783408906070624   -0.1414314785613414   -0.0035110398376983314
-0.0032030295367173034   -0.1408000414363549   -0.003532788653062558
0.0012653330389310166   -0.13068496834078602   -0.0025816322938795955
-0.005398289592952336   -0.13104971932324777   -0.0029933060041730346
-0.00783408906070624   -0.1414314785613414   -0.0035110398376983314
-0.0052736427776626914   -0.13088236901767397   -0.0031232818787234424
-0.0032030295367173034   -0.1408000414363549   -0.003532788653062558
-0.007600851347398294   -0.1412957843543152   -0.003680170050932418
-0.0052736427776626914   -0.13088236901767397   -0.0031232818787234424
-0.00783408906070624   -0.1414314785613414   -0.0035110398376983314
-0.0032030295367173034   -0.1408000414363549   -0.003532788653062558
-0.0052736427776626914   -0.13088236901767397   -0.0031232818787234424
0.001568582599616651   -0.13050740836266142   -0.0028926170534424173
0.0012653330389310166   -0.13068496834078602   -0.0025816322938795955
-0.0032030295367173034   -0.1408000414363549   -0.003532788653062558
-0.0052736427776626914   -0.13088236901767397   -0.0031232818787234424
0.0012653330389310166   -0.13068496834078602   -0.0025816322938795955
-0.00783408906070624   -0.1414314785613414   -0.0035110398376983314
-0.0032030295367173034   -0.1408000414363549   -0.003532788653062558
0.001568582599616651   -0.13050740836266142   -0.0028926170534424173
-0.007600851347398294   -0.1412957843543152   -0.003680170050932418
-0.0026946500791806553   -0.14077095197298667   -0.003903506949560447
0.001568582599616651   -0.13050740836266142   -0.0028926170534424173
-0.0052736427776626914   -0.13088236901767397   -0.0031232818787234424
-0.007600851347398294   -0.1412957843543152   -0.003680170050932418
-0.005199145579500759   -0.13079759429176208   -0.0032376644680688522
-0.0026946500791806553   -0.14077095197298667   -0.003903506949560447
-0.0074219532015676526   -0.14126384999149186   -0.00383292203784781
-0.005199145579500759   -0.13079759429176208   -0.0032376644680688522
-0.007600851347398294   -0.1412957843543152   -0.003680170050932418
-0.0026946500791806553   -0.14077095197298667   -0.003903506949560447
-0.005199145579500759   -0.13079759429176208   -0.0032376644680688522
0.001892679187703744   -0.1304182767127787   -0.0031792612912006444
0.001568582599616651   -0.13050740836266142   -0.0028926170534424173
-0.0026946500791806553   -0.14077095197298667   -0.003903506949560447
-0.005199145579500759   -0.13079759429176208   -0.0032376644680688522
0.001568582599616651   -0.13050740836266142   -0.0028926170534424173
-0.007600851347398294   -0.1412957843543152   -0.003680170050932418
-0.008041489567706539   -0.14167471163358092   -0.0033249998534134254
-0.005507925029320433   -0.131304565712331   -0.0028460301185400565
-0.01176883593047482   -0.14182662820243802   -0.0038237854885575383
-0.00783408906070624   -0.1414314785613414   -0.0035110398376983314
-0.005507925029320433   -0.131304565712331   -0.0028460301185400565
-0.011657581437140952   -0.1313645629779048   -0.0033406780748962404
-0.01176883593047482   -0.14182662820243802   -0.0038237854885575383
-0.011576843396631776   -0.1311456514320521   -0.003344635363672406
-0.00783408906070624   -0.1414314785613414   -0.0035110398376983314
-0.011594293537342032   -0.14161439229594439   -0.0038342594636114244
-0.011576843396631776   -0.1311456514320521   -0.003344635363672406
-0.01176883593047482   -0.14182662820243802   -0.0038237854885575383
-0.00783408906070624   -0.1414314785613414   -0.0035110398376983314
-0.011576843396631776   -0.1311456514320521   -0.003344635363672406
-0.005398289592952336   -0.13104971932324777   -0.0029933060041730346
-0.005507925029320433   -0.131304565712331   -0.0028460301185400565
-0.00783408906070624   -0.1414314785613414   -0.0035110398376983314
-0.011576843396631776   -0.1311456514320521   -0.003344635363672406
-0.005507925029320433   -0.131304565712331   -0.0028460301185400565
-0.01176883593047482   -0.14182662820243802   -0.0038237854885575383
-0.00783408906070624   -0.1414314785613414   -0.0035110398376983314
-0.005398289592952336   -0.13104971932324777   -0.0029933060041730346
-0.011594293537342032   -0.14161439229594439   -0.0038342594636114244
-0.007600851347398294   -0.1412957843543152   -0.003680170050932418
-0.005398289592952336   -0.13104971932324777   -0.0029933060041730346
-0.011576843396631776   -0.1311456514320521   -0.003344635363672406
-0.011594293537342032   -0.14161439229594439   -0.0038342594636114244
-0.011493846930221334   -0.13100506797909903   -0.003332026093574951
-0.007600851347398294   -0.1412957843543152   -0.003680170050932418
-0.011413796918738632   -0.14149911074233656   -0.0038290767871472877
-0.011493846930221334   -0.13100506797909903   -0.003332026093574951
-0.011594293537342032   -0.14161439229594439   -0.0038342594636114244
-0.007600851347398294   -0.1412957843543152   -0.003680170050932418
-0.011493846930221334   -0.13100506797909903   -0.003332026093574951
-0.0052736427776626914   -0.13088236901767397   -0.0031232818787234424
-0.005398289592952336   -0.13104971932324777   -0.0029933060041730346
-0.007600851347398294   -0.1412957843543152   -0.003680170050932418
-0.011493846930221334   -0.13100506797909903   -0.003332026093574951
-0.005398289592952336   -0.13104971932324777   -0.0029933060041730346
-0.011594293537342032   -0.14161439229594439   -0.0038342594636114244
-0.007600851347398294   -0.1412957843543152   -0.003680170050932418
-0.0052736427776626914   -0.13088236901767397   -0.0031232818787234424
-0.011413796918738632   -0.14149911074233656   -0.0038290767871472877
-0.0074219532015676526   -0.14126384999149186   -0.00383292203784781
-0.0052736427776626914   -0.13088236901767397   -0.0031232818787234424
-0.011493846930221334   -0.13100506797909903   -0.003332026093574951
-0.011413796918738632   -0.14149911074233656   -0.0038290767871472877
-0.011421244241923747   -0.13094149580214887   -0.0033039400616794805
-0.0074219532015676526   -0.14126384999149186   -0.00383292203784781
-0.01123969107612223   -0.1414760474519484   -0.0038080734439964194
-0.011421244241923747   -0.13094149580214887   -0.0033039400616794805
-0.011413796918738632   -0.14149911074233656   -0.0038290767871472877
-0.0074219532015676526   -0.14126384999149186   -0.00383292203784781
-0.011421244241923747   -0.13094149580214887   -0.0033039400616794805
-0.005199145579500759   -0.13079759429176208   -0.0032376644680688522
-0.0052736427776626914   -0.13088236901767397   -0.0031232818787234424
-0.0074219532015676526   -0.14126384999149186   -0.00383292203784781
-0.011421244241923747   -0.13094149580214887   -0.0033039400616794805
-0.0052736427776626914   -0.13088236901767397   -0.0031232818787234424
-0.011413796918738632   -0.14149911074233656   -0.0038290767871472877
-0.01176883593047482   -0.14182662820243802   -0.0038237854885575383
-0.011657581437140952   -0.1313645629779048   -0.0033406780748962404
-0.015469782903507373   -0.1416923716907193   -0.004290496870850814
-0.011594293537342032   -0.14161439229594439   -0.0038342594636114244
-0.011657581437140952   -0.1313645629779048   -0.0033406780748962404
-0.01770975956851232   -0.1311691013331682   -0.003787242112453024
-0.015469782903507373   -0.1416923716907193   -0.004290496870850814
-0.017634577795732114   -0.13098017586585786   -0.0036513475094740095
-0.011594293537342032   -0.14161439229594439   -0.0038342594636114244
-0.015296617807696481   -0.14150397136986353   -0.004132664981693489
-0.017634577795732114   -0.13098017586585786   -0.0036513475094740095
-0.015469782903507373   -0.1416923716907193   -0.004290496870850814
-0.011594293537342032   -0.14161439229594439   -0.0038342594636114244
-0.017634577795732114   -0.13098017586585786   -0.0036513475094740095
-0.011576843396631776   -0.1311456514320521   -0.003344635363672406
-0.011657581437140952   -0.1313645629779048   -0.0033406780748962404
-0.011594293537342032   -0.14161439229594439   -0.0038342594636114244
-0.017634577795732114   -0.13098017586585786   -0.0036513475094740095
-0.011657581437140952   -0.1313645629779048   -0.0033406780748962404
-0.015469782903507373   -0.1416923716907193   -0.004290496870850814
-0.011594293537342032   -0.14161439229594439   -0.0038342594636114244
-0.011576843396631776   -0.1311456514320521   -0.003344635363672406
-0.015296617807696481   -0.14150397136986353   -0.004132664981693489
-0.011413796918738632   -0.14149911074233656   -0.0038290767871472877
-0.011576843396631776   -0.1311456514320521   -0.003344635363672406
-0.017634577795732114   -0.13098017586585786   -0.0036513475094740095
-0.015296617807696481   -0.14150397136986353   -0.004132664981693489
-0.017543746278342213   -0.13086871266107064   -0.0034992384095485097
-0.011413796918738632   -0.14149911074233656   -0.0038290767871472877
-0.015102281651146953   -0.1414108789216415   -0.003959400463265578
-0.017543746278342213   -0.13086871266107064   -0.0034992384095485097
-0.015296617807696481   -0.14150397136986353   -0.004132664981693489
-0.011413796918738632   -0.14149911074233656   -0.0038290767871472877
-0.017543746278342213   -0.13086871266107064   -0.0034992384095485097
-0.011493846930221334   -0.13100506797909903   -0.003332026093574951
-0.011576843396631776   -0.1311456514320521   -0.003344635363672406
-0.011413796918738632   -0.14149911074233656   -0.0038290767871472877
-0.017543746278342213   -0.13086871266107064   -0.0034992384095485097
-0.011576843396631776   -0.1311456514320521   -0.003344635363672406
-0.015296617807696481   -0.14150397136986353   -0.004132664981693489
-0.011413796918738632   -0.14149911074233656   -0.0038290767871472877
-0.011493846930221334   -0.13100506797909903   -0.003332026093574951
-0.015102281651146953   -0.1414108789216415   -0.003959400463265578
-0.01123969107612223   -0.1414760474519484   -0.0038080734439964194
-0.011493846930221334   -0.13100506797909903   -0.003332026093574951
-0.017543746278342213   -0.13086871266107064   -0.0034992384095485097
-0.015102281651146953   -0.1414108789216415   -0.003959400463265578
-0.017455347590691835   -0.13083106625030563   -0.003331415932732252
-0.01123969107612223   -0.1414760474519484   -0.0038080734439964194
-0.014907053894511638   -0.1414038258397526   -0.0037688216407700433
-0.017455347590691835   -0.13083106625030563   -0.003331415932732252
-0.015102281651146953   -0.1414108789216415   -0.003959400463265578
-0.01123969107612223   -0.1414760474519484   -0.0038080734439964194
-0.017455347590691835   -0.13083106625030563   -0.003331415932732252
-0.011421244241923747   -0.13094149580214887   -0.0033039400616794805
-0.011493846930221334   -0.13100506797909903   -0.003332026093574951
-0.01123969107612223   -0.1414760474519484   -0.0038080734439964194
-0.017455347590691835   -0.13083106625030563   -0.003331415932732252
-0.011493846930221334   -0.13100506797909903   -0.003332026093574951
-0.015102281651146953   -0.1414108789216415   -0.003959400463265578
-0.015469782903507373   -0.1416923716907193   -0.004290496870850814
-0.01770975956851232   -0.1311691013331682   -0.003787242112453024
-0.01953756469901977   -0.1412540186093979   -0.004718848167185448
-0.015296617807696481   -0.14150397136986353   -0.004132664981693489
-0.01770975956851232   -0.1311691013331682   -0.003787242112453024
-0.024053291830368362   -0.13072522016342486   -0.004183861077931402
-0.01953756469901977   -0.1412540186093979   -0.004718848167185448
-0.023955327445388936   -0.13056500429606743   -0.003907978163099425
-0.015296617807696481   -0.14150397136986353   -0.004132664981693489
-0.019325830059831624   -0.14108957548666598   -0.004396551828464656
-0.023955327445388936   -0.13056500429606743   -0.003907978163099425
-0.01953756469901977   -0.1412540186093979   -0.004718848167185448
-0.015296617807696481   -0.14150397136986353   -0.004132664981693489
-0.023955327445388936   -0.13056500429606743   -0.003907978163099425
-0.017634577795732114   -0.13098017586585786   -0.0036513475094740095
-0.01770975956851232   -0.1311691013331682   -0.003787242112453024
-0.015296617807696481   -0.14150397136986353   -0.004132664981693489
-0.023955327445388936   -0.13056500429606743   -0.003907978163099425
-0.01770975956851232   -0.1311691013331682   -0.003787242112453024
-0.01953756469901977   -0.1412540186093979   -0.004718848167185448
-0.015296617807696481   -0.14150397136986353   -0.004132664981693489
-0.017634577795732114   -0.13098017586585786   -0.0036513475094740095
-0.019325830059831624   -0.14108957548666598   -0.004396551828464656
-0.015102281651146953   -0.1414108789216415   -0.003959400463265578
-0.017634577795732114   -0.13098017586585786   -0.0036513475094740095
-0.023955327445388936   -0.13056500429606743   -0.003907978163099425
-0.019325830059831624   -0.14108957548666598   -0.004396551828464656
-0.023789388857634663   -0.1304799434550282   -0.003618360782075657
-0.015102281651146953   -0.1414108789216415   -0.003959400463265578
-0.019033729300919757   -0.14101858311679233   -0.004059931115642344
-0.023789388857634663   -0.1304799434550282   -0.003618360782075657
-0.019325830059831624   -0.14108957548666598   -0.004396551828464656
-0.015102281651146953   -0.1414108789216415   -0.003959400463265578
-0.023789388857634663   -0.1304799434550282   -0.003618360782075657
-0.017543746278342213   -0.13086871266107064   -0.0034992384095485097
-0.017634577795732114   -0.13098017586585786   -0.0036513475094740095
-0.015102281651146953   -0.1414108789216415   -0.003959400463265578
-0.023789388857634663   -0.1304799434550282   -0.003618360782075657
-0.017634577795732114   -0.13098017586585786   -0.0036513475094740095
-0.019325830059831624   -0.14108957548666598   -0.004396551828464656
-0.015102281651146953   -0.1414108789216415   -0.003959400463265578
-0.017543746278342213   -0.13086871266107064   -0.0034992384095485097
-0.019033729300919757   -0.14101858311679233   -0.004059931115642344
-0.014907053894511638   -0.1414038258397526   -0.0037688216407700433
-0.017543746278342213   -0.13086871266107064   -0.0034992384095485097
-0.023789388857634663   -0.1304799434550282   -0.003618360782075657
-0.019033729300919757   -0.14101858311679233   -0.004059931115642344
-0.02365431491217881   -0.13047448179191895   -0.0033107508323768154
-0.014907053894511638   -0.1414038258397526   -0.0037688216407700433
-0.01877837622415972   -0.14104117465398847   -0.0036995418422987904
-0.02365431491217881   -0.13047448179191895   -0.0033107508323768154
-0.019033729300919757   -0.14101858311679233   -0.004059931115642344
-0.014907053894511638   -0.1414038258397526   -0.0037688216407700433
-0.02365431491217881   -0.13047448179191895   -0.0033107508323768154
-0.017455347590691835   -0.13083106625030563   -0.003331415932732252
-0.017543746278342213   -0.13086871266107064   -0.0034992384095485097
-0.014907053894511638   -0.1414038258397526   -0.0037688216407700433
-0.02365431491217881   -0.13047448179191895   -0.0033107508323768154
-0.017543746278342213   -0.13086871266107064   -0.0034992384095485097
-0.019033729300919757   -0.14101858311679233   -0.004059931115642344
-0.01953756469901977   -0.1412540186093979   -0.004718848167185448
-0.024053291830368362   -0.13072522016342486   -0.004183861077931402
-0.024776248158483314   -0.14054111704682057   -0.005128926830095273
-0.019325830059831624   -0.14108957548666598   -0.004396551828464656
-0.024053291830368362   -0.13072522016342486   -0.004183861077931402
-0.031451868197395656   -0.13008688242588554   -0.004552909991384513
-0.024776248158483314   -0.14054111704682057   -0.005128926830095273
-0.03095258233770732   -0.12992013680158915   -0.0041212590386006
-0.019325830059831624   -0.14108957548666598   -0.004396551828464656
-0.02409782985818851   -0.14036328472686874   -0.004620188916089741
-0.03095258233770732   -0.12992013680158915   -0.0041212590386006
-0.024776248158483314   -0.14054111704682057   -0.005128926830095273
-0.019325830059831624   -0.14108957548666598   -0.004396551828464656
-0.03095258233770732   -0.12992013680158915   -0.0041212590386006
-0.023955327445388936   -0.13056500429606743   -0.003907978163099425
-0.024053291830368362   -0.13072522016342486   -0.004183861077931402
-0.019325830059831624   -0.14108957548666598   -0.004396551828464656
-0.03095258233770732   -0.12992013680158915   -0.0041212590386006
-0.024053291830368362   -0.13072522016342486   -0.004183861077931402
-0.024776248158483314   -0.14054111704682057   -0.005128926830095273
-0.019325830059831624   -0.14108957548666598   -0.004396551828464656
-0.023955327445388936   -0.13056500429606743   -0.003907978163099425
-0.02409782985818851   -0.14036328472686874   -0.004620188916089741
-0.019033729300919757   -0.14101858311679233   -0.004059931115642344
-0.023955327445388936   -0.13056500429606743   -0.003907978163099425
-0.03095258233770732   -0.12992013680158915   -0.0041212590386006
-0.02409782985818851   -0.14036328472686874   -0.004620188916089741
-0.030518772196060272   -0.1298422410249921   -0.0036669970601330253
-0.019033729300919757   -0.14101858311679233   -0.004059931115642344
-0.023489003796769978   -0.140297618800605   -0.004081465837171871
-0.030518772196060272   -0.1298422410249921   -0.0036669970601330253
-0.02409782985818851   -0.14036328472686874   -0.004620188916089741
-0.019033729300919757   -0.14101858311679233   -0.004059931115642344
-0.030518772196060272   -0.1298422410249921   -0.0036669970601330253
-0.023789388857634663   -0.1304799434550282   -0.003618360782075657
-0.023955327445388936   -0.13056500429606743   -0.003907978163099425
-0.019033729300919757   -0.14101858311679233   -0.004059931115642344
-0.030518772196060272   -0.1298422410249921   -0.0036669970601330253
-0.023955327445388936   -0.13056500429606743   -0.003907978163099425
-0.02409782985818851   -0.14036328472686874   -0.004620188916089741
-0.019033729300919757   -0.14101858311679233   -0.004059931115642344
-0.023789388857634663   -0.1304799434550282   -0.003618360782075657
-0.023489003796769978   -0.140297618800605   -0.004081465837171871
-0.01877837622415972   -0.14104117465398847   -0.0036995418422987904
-0.023789388857634663   -0.1304799434550282   -0.003618360782075657
-0.030518772196060272   -0.1298422410249921   -0.0036669970601330253
-0.023489003796769978   -0.140297618800605   -0.004081465837171871
-0.029934111069047215   -0.12988612289706647   -0.0031930252369123217
-0.01877837622415972   -0.14104117465398847   -0.0036995418422987904
-0.022699842186847608   -0.14037776416046316   -0.0035179050196564227
-0.029934111069047215   -0.12988612289706647   -0.0031930252369123217
-0.023489003796769978   -0.140297618800605   -0.004081465837171871
-0.01877837622415972   -0.14104117465398847   -0.0036995418422987904
-0.029934111069047215   -0.12988612289706647   -0.0031930252369123217
-0.02365431491217881   -0.13047448179191895   -0.0033107508323768154
-0.023789388857634663   -0.1304799434550282   -0.003618360782075657
-0.01877837622415972   -0.14104117465398847   -0.0036995418422987904
-0.029934111069047215   -0.12988612289706647   -0.0031930252369123217
-0.023789388857634663   -0.1304799434550282   -0.003618360782075657
-0.023489003796769978   -0.140297618800605   -0.004081465837171871
0.0008529160184012118   -0.13099041083548865   -0.0022464343468117706
0.00472577379617089   -0.11709418887916513   -0.001712380171733219
-0.005507925029320433   -0.131304565712331   -0.0028460301185400565
0.0012653330389310166   -0.13068496834078602   -0.0025816322938795955
0.00472577379617089   -0.11709418887916513   -0.001712380171733219
-0.003683815892803651   -0.11730109501407317   -0.0022845727704557902
-0.005507925029320433   -0.131304565712331   -0.0028460301185400565
-0.0036614156895078596   -0.11704762611989165   -0.0023863365094948952
0.0012653330389310166   -0.13068496834078602   -0.0025816322938795955
-0.005398289592952336   -0.13104971932324777   -0.0029933060041730346
-0.0036614156895078596   -0.11704762611989165   -0.0023863365094948952
-0.005507925029320433   -0.131304565712331   -0.0028460301185400565
0.0012653330389310166   -0.13068496834078602   -0.0025816322938795955
-0.0036614156895078596   -0.11704762611989165   -0.0023863365094948952
0.004969477036668898   -0.1167962353498875   -0.0019595649856414057
0.00472577379617089   -0.11709418887916513   -0.001712380171733219
0.0012653330389310166   -0.13068496834078602   -0.0025816322938795955
-0.0036614156895078596   -0.11704762611989165   -0.0023863365094948952
0.00472577379617089   -0.11709418887916513   -0.001712380171733219
-0.005507925029320433   -0.131304565712331   -0.0028460301185400565
0.0012653330389310166   -0.13068496834078602   -0.0025816322938795955
0.004969477036668898   -0.1167962353498875   -0.0019595649856414057
-0.005398289592952336   -0.13104971932324777   -0.0029933060041730346
0.001568582599616651   -0.13050740836266142   -0.0028926170534424173
0.004969477036668898   -0.1167962353498875   -0.0019595649856414057
-0.0036614156895078596   -0.11704762611989165   -0.0023863365094948952
-0.005398289592952336   -0.13104971932324777   -0.0029933060041730346
-0.0036329879127066813   -0.11686301206932667   -0.002472326672106608
0.001568582599616651   -0.13050740836266142   -0.0028926170534424173
-0.0052736427776626914   -0.13088236901767397   -0.0031232818787234424
-0.0036329879127066813   -0.11686301206932667   -0.002472326672106608
-0.005398289592952336   -0.13104971932324777   -0.0029933060041730346
0.001568582599616651   -0.13050740836266142   -0.0028926170534424173
-0.0036329879127066813   -0.11686301206932667   -0.002472326672106608
0.005124952366582224   -0.11659969798483867   -0.0021844676876932893
0.004969477036668898   -0.1167962353498875   -0.0019595649856414057
0.001568582599616651   -0.13050740836266142   -0.0028926170534424173
-0.0036329879127066813   -0.11686301206932667   -0.002472326672106608
0.004969477036668898   -0.1167962353498875   -0.0019595649856414057
-0.005398289592952336   -0.13104971932324777   -0.0029933060041730346
0.001568582599616651   -0.13050740836266142   -0.0028926170534424173
0.005124952366582224   -0.11659969798483867   -0.0021844676876932893
-0.0052736427776626914   -0.13088236901767397   -0.0031232818787234424
0.001892679187703744   -0.1304182767127787   -0.0031792612912006444
0.005124952366582224   -0.11659969798483867   -0.0021844676876932893
-0.0036329879127066813   -0.11686301206932667   -0.002472326672106608
-0.0052736427776626914   -0.13088236901767397   -0.0031232818787234424
-0.003647298036918776   -0.11674139368253972   -0.0025436952459520685
0.001892679187703744   -0.1304182767127787   -0.0031792612912006444
-0.005199145579500759   -0.13079759429176208   -0.0032376644680688522
-0.003647298036918776   -0.11674139368253972   -0.0025436952459520685
-0.0052736427776626914   -0.13088236901767397   -0.0031232818787234424
0.001892679187703744   -0.1304182767127787   -0.0031792612912006444
-0.003647298036918776   -0.11674139368253972   -0.0025436952459520685
0.0052840665576706575   -0.11646675429524146   -0.002387547750661296
0.005124952366582224   -0.11659969798483867   -0.0021844676876932893
0.001892679187703744   -0.1304182767127787   -0.0031792612912006444
-0.003647298036918776   -0.11674139368253972   -0.0025436952459520685
0.005124952366582224   -0.11659969798483867   -0.0021844676876932893
-0.0052736427776626914   -0.13088236901767397   -0.0031232818787234424
-0.005507925029320433   -0.131304565712331   -0.0028460301185400565
-0.003683815892803651   -0.11730109501407317   -0.0022845727704557902
-0.011657581437140952   -0.1313645629779048   -0.0033406780748962404
-0.005398289592952336   -0.13104971932324777   -0.0029933060041730346
-0.003683815892803651   -0.11730109501407317   -0.0022845727704557902
-0.011773141838875673   -0.117301779742551   -0.0027572506999050464
-0.011657581437140952   -0.1313645629779048   -0.0033406780748962404
-0.011774379382348443   -0.1170870739618825   -0.002747667247203872
-0.005398289592952336   -0.13104971932324777   -0.0029933060041730346
-0.011576843396631776   -0.1311456514320521   -0.003344635363672406
-0.011774379382348443   -0.1170870739618825   -0.002747667247203872
-0.011657581437140952   -0.1313645629779048   -0.0033406780748962404
-0.005398289592952336   -0.13104971932324777   -0.0029933060041730346
-0.011774379382348443   -0.1170870739618825   -0.002747667247203872
-0.0036614156895078596   -0.11704762611989165   -0.0023863365094948952
-0.003683815892803651   -0.11730109501407317   -0.0022845727704557902
-0.005398289592952336   -0.13104971932324777   -0.0029933060041730346
-0.011774379382348443   -0.1170870739618825   -0.002747667247203872
-0.003683815892803651   -0.11730109501407317   -0.0022845727704557902
-0.011657581437140952   -0.1313645629779048   -0.0033406780748962404
-0.005398289592952336   -0.13104971932324777   -0.0029933060041730346
-0.0036614156895078596   -0.11704762611989165   -0.0023863365094948952
-0.011576843396631776   -0.1311456514320521   -0.003344635363672406
-0.0052736427776626914   -0.13088236901767397   -0.0031232818787234424
-0.0036614156895078596   -0.11704762611989165   -0.0023863365094948952
-0.011774379382348443   -0.1170870739618825   -0.002747667247203872
-0.011576843396631776   -0.1311456514320521   -0.003344635363672406
-0.011775087199439583   -0.11693308196116294   -0.002722381055980891
-0.0052736427776626914   -0.13088236901767397   -0.0031232818787234424
-0.011493846930221334   -0.13100506797909903   -0.003332026093574951
-0.011775087199439583   -0.11693308196116294   -0.002722381055980891
-0.011576843396631776   -0.1311456514320521   -0.003344635363672406
-0.0052736427776626914   -0.13088236901767397   -0.0031232818787234424
-0.011775087199439583   -0.11693308196116294   -0.002722381055980891
-0.0036329879127066813   -0.11686301206932667   -0.002472326672106608
-0.0036614156895078596   -0.11704762611989165   -0.0023863365094948952
-0.0052736427776626914   -0.13088236901767397   -0.0031232818787234424
-0.011775087199439583   -0.11693308196116294   -0.002722381055980891
-0.0036614156895078596   -0.11704762611989165   -0.0023863365094948952
-0.011576843396631776   -0.1311456514320521   -0.003344635363672406
-0.0052736427776626914   -0.13088236901767397   -0.0031232818787234424
-0.0036329879127066813   -0.11686301206932667   -0.002472326672106608
-0.011493846930221334   -0.13100506797909903   -0.003332026093574951
-0.005199145579500759   -0.13079759429176208   -0.0032376644680688522
-0.0036329879127066813   -0.11686301206932667   -0.002472326672106608
-0.011775087199439583   -0.11693308196116294   -0.002722381055980891
-0.011493846930221334   -0.13100506797909903   -0.003332026093574951
-0.011786633458746466   -0.11683990707432167   -0.0026821944439966356
-0.005199145579500759   -0.13079759429176208   -0.0032376644680688522
-0.011421244241923747   -0.13094149580214887   -0.0033039400616794805
-0.011786633458746466   -0.11683990707432167   -0.0026821944439966356
-0.011493846930221334   -0.13100506797909903   -0.003332026093574951
-0.005199145579500759   -0.13079759429176208   -0.0032376644680688522
-0.011786633458746466   -0.11683990707432167   -0.0026821944439966356
-0.003647298036918776   -0.11674139368253972   -0.0025436952459520685
-0.0036329879127066813   -0.11686301206932667   -0.002472326672106608
-0.005199145579500759   -0.13079759429176208   -0.0032376644680688522
-0.011786633458746466   -0.11683990707432167   -0.0026821944439966356
-0.0036329879127066813   -0.11686301206932667   -0.002472326672106608
-0.011493846930221334   -0.13100506797909903   -0.003332026093574951
-0.011657581437140952   -0.1313645629779048   -0.0033406780748962404
-0.011773141838875673   -0.117301779742551   -0.0027572506999050464
-0.01770975956851232   -0.1311691013331682   -0.003787242112453024
-0.011576843396631776   -0.1311456514320521   -0.003344635363672406
-0.011773141838875673   -0.117301779742551   -0.0027572506999050464
-0.019724309782203155   -0.11710074138431573   -0.0031715467145174777
-0.01770975956851232   -0.1311691013331682   -0.003787242112453024
-0.019731507039440422   -0.11692017132223687   -0.0030519492567260818
-0.011576843396631776   -0.1311456514320521   -0.003344635363672406
-0.017634577795732114   -0.13098017586585786   -0.0036513475094740095
-0.019731507039440422   -0.11692017132223687   -0.0030519492567260818
-0.01770975956851232   -0.1311691013331682   -0.003787242112453024
-0.011576843396631776   -0.1311456514320521   -0.003344635363672406
-0.019731507039440422   -0.11692017132223687   -0.0030519492567260818
-0.011774379382348443   -0.1170870739618825   -0.002747667247203872
-0.011773141838875673   -0.117301779742551   -0.0027572506999050464
-0.011576843396631776   -0.1311456514320521   -0.003344635363672406
-0.019731507039440422   -0.11692017132223687   -0.0030519492567260818
-0.011773141838875673   -0.117301779742551   -0.0027572506999050464
-0.01770975956851232   -0.1311691013331682   -0.003787242112453024
-0.011576843396631776   -0.1311456514320521   -0.003344635363672406
-0.011774379382348443   -0.1170870739618825   -0.002747667247203872
-0.017634577795732114   -0.13098017586585786   -0.0036513475094740095
-0.011493846930221334   -0.13100506797909903   -0.003332026093574951
-0.011774379382348443   -0.1170870739618825   -0.002747667247203872
-0.019731507039440422   -0.11692017132223687   -0.0030519492567260818
-0.017634577795732114   -0.13098017586585786   -0.0036513475094740095
-0.01972513229485715   -0.11679977677828283   -0.0029169473360439483
-0.011493846930221334   -0.13100506797909903   -0.003332026093574951
-0.017543746278342213   -0.13086871266107064   -0.0034992384095485097
-0.01972513229485715   -0.11679977677828283   -0.0029169473360439483
-0.017634577795732114   -0.13098017586585786   -0.0036513475094740095
-0.011493846930221334   -0.13100506797909903   -0.003332026093574951
-0.01972513229485715   -0.11679977677828283   -0.0029169473360439483
-0.011775087199439583   -0.11693308196116294   -0.002722381055980891
-0.011774379382348443   -0.1170870739618825   -0.002747667247203872
-0.011493846930221334   -0.13100506797909903   -0.003332026093574951
-0.01972513229485715   -0.11679977677828283   -0.0029169473360439483
-0.011774379382348443   -0.1170870739618825   -0.002747667247203872
-0.017634577795732114   -0.13098017586585786   -0.0036513475094740095
-0.011493846930221334   -0.13100506797909903   -0.003332026093574951
-0.011775087199439583   -0.11693308196116294   -0.002722381055980891
-0.017543746278342213   -0.13086871266107064   -0.0034992384095485097
-0.011421244241923747   -0.13094149580214887   -0.0033039400616794805
-0.011775087199439583   -0.11693308196116294   -0.002722381055980891
-0.01972513229485715   -0.11679977677828283   -0.0029169473360439483
-0.017543746278342213   -0.13086871266107064   -0.0034992384095485097
-0.019721175584084358   -0.11673848888361371   -0.00276699331419631
-0.011421244241923747   -0.13094149580214887   -0.0033039400616794805
-0.017455347590691835   -0.13083106625030563   -0.003331415932732252
-0.019721175584084358   -0.11673848888361371   -0.00276699331419631
-0.017543746278342213   -0.13086871266107064   -0.0034992384095485097
-0.011421244241923747   -0.13094149580214887   -0.0033039400616794805
-0.019721175584084358   -0.11673848888361371   -0.00276699331419631
-0.011786633458746466   -0.11683990707432167   -0.0026821944439966356
-0.011775087199439583   -0.11693308196116294   -0.002722381055980891
-0.011421244241923747   -0.13094149580214887   -0.0033039400616794805
-0.019721175584084358   -0.11673848888361371   -0.00276699331419631
-0.011775087199439583   -0.11693308196116294   -0.002722381055980891
-0.017543746278342213   -0.13086871266107064   -0.0034992384095485097
-0.01770975956851232   -0.1311691013331682   -0.003787242112453024
-0.019724309782203155   -0.11710074138431573   -0.0031715467145174777
-0.024053291830368362   -0.13072522016342486   -0.004183861077931402
-0.017634577795732114   -0.13098017586585786   -0.0036513475094740095
-0.019724309782203155   -0.11710074138431573   -0.0031715467145174777
-0.027923815476483982   -0.11670568583265278   -0.0035281238331083546
-0.024053291830368362   -0.13072522016342486   -0.004183861077931402
-0.027914460545547033   -0.11655787307605865   -0.003297228209030594
-0.017634577795732114   -0.13098017586585786   -0.0036513475094740095
-0.023955327445388936   -0.13056500429606743   -0.003907978163099425
-0.027914460545547033   -0.11655787307605865   -0.003297228209030594
-0.024053291830368362   -0.13072522016342486   -0.004183861077931402
-0.017634577795732114   -0.13098017586585786   -0.0036513475094740095
-0.027914460545547033   -0.11655787307605865   -0.003297228209030594
-0.019731507039440422   -0.11692017132223687   -0.0030519492567260818
-0.019724309782203155   -0.11710074138431573   -0.0031715467145174777
-0.017634577795732114   -0.13098017586585786   -0.0036513475094740095
-0.027914460545547033   -0.11655787307605865   -0.003297228209030594
-0.019724309782203155   -0.11710074138431573   -0.0031715467145174777
-0.024053291830368362   -0.13072522016342486   -0.004183861077931402
-0.017634577795732114   -0.13098017586585786   -0.0036513475094740095
-0.019731507039440422   -0.11692017132223687   -0.0030519492567260818
-0.023955327445388936   -0.13056500429606743   -0.003907978163099425
-0.017543746278342213   -0.13086871266107064   -0.0034992384095485097
-0.019731507039440422   -0.11692017132223687   -0.0030519492567260818
-0.027914460545547033   -0.11655787307605865   -0.003297228209030594
-0.023955327445388936   -0.13056500429606743   -0.003907978163099425
-0.02784611926111112   -0.11646793860690471   -0.003053245874720738
-0.017543746278342213   -0.13086871266107064   -0.0034992384095485097
-0.023789388857634663   -0.1304799434550282   -0.003618360782075657
-0.02784611926111112   -0.11646793860690471   -0.003053245874720738
-0.023955327445388936   -0.13056500429606743   -0.003907978163099425
-0.017543746278342213   -0.13086871266107064   -0.0034992384095485097
-0.02784611926111112   -0.11646793860690471   -0.003053245874720738
-0.01972513229485715   -0.11679977677828283   -0.0029169473360439483
-0.019731507039440422   -0.11692017132223687   -0.0030519492567260818
-0.017543746278342213   -0.13086871266107064   -0.0034992384095485097
-0.02784611926111112   -0.11646793860690471   -0.003053245874720738
-0.019731507039440422   -0.11692017132223687   -0.0030519492567260818
-0.023955327445388936   -0.13056500429606743   -0.003907978163099425
-0.017543746278342213   -0.13086871266107064   -0.0034992384095485097
-0.01972513229485715   -0.11679977677828283   -0.0029169473360439483
-0.023789388857634663   -0.1304799434550282   -0.003618360782075657
-0.017455347590691835   -0.13083106625030563   -0.003331415932732252
-0.01972513229485715   -0.11679977677828283   -0.0029169473360439483
-0.02784611926111112   -0.11646793860690471   -0.003053245874720738
-0.023789388857634663   -0.1304799434550282   -0.003618360782075657
-0.02780034571383826   -0.11644206508355473   -0.0027931169120703737
-0.017455347590691835   -0.13083106625030563   -0.003331415932732252
-0.02365431491217881   -0.13047448179191895   -0.0033107508323768154
-0.02780034571383826   -0.11644206508355473   -0.0027931169120703737
-0.023789388857634663   -0.1304799434550282   -0.003618360782075657
-0.017455347590691835   -0.13083106625030563   -0.003331415932732252
-0.02780034571383826   -0.11644206508355473   -0.0027931169120703737
-0.019721175584084358   -0.11673848888361371   -0.00276699331419631
-0.01972513229485715   -0.11679977677828283   -0.0029169473360439483
-0.017455347590691835   -0.13083106625030563   -0.003331415932732252
-0.02780034571383826   -0.11644206508355473   -0.0027931169120703737
-0.01972513229485715   -0.11679977677828283   -0.0029169473360439483
-0.023789388857634663   -0.1304799434550282   -0.003618360782075657
-0.024053291830368362   -0.13072522016342486   -0.004183861077931402
-0.027923815476483982   -0.11670568583265278   -0.0035281238331083546
-0.031451868197395656   -0.13008688242588554   -0.004552909991384513
-0.023955327445388936   -0.13056500429606743   -0.003907978163099425
-0.027923815476483982   -0.11670568583265278   -0.0035281238331083546
-0.03708234543304874   -0.11616204940663957   -0.003849234583344415
-0.031451868197395656   -0.13008688242588554   -0.004552909991384513
-0.036742183321185465   -0.11601719495824374   -0.0034962669988587306
-0.023955327445388936   -0.13056500429606743   -0.003907978163099425
-0.03095258233770732   -0.12992013680158915   -0.0041212590386006
-0.036742183321185465   -0.11601719495824374   -0.0034962669988587306
-0.031451868197395656   -0.13008688242588554   -0.004552909991384513
-0.023955327445388936   -0.13056500429606743   -0.003907978163099425
-0.036742183321185465   -0.11601719495824374   -0.0034962669988587306
-0.027914460545547033   -0.11655787307605865   -0.003297228209030594
-0.027923815476483982   -0.11670568583265278   -0.0035281238331083546
-0.023955327445388936   -0.13056500429606743   -0.003907978163099425
-0.036742183321185465   -0.11601719495824374   -0.0034962669988587306
-0.027923815476483982   -0.11670568583265278   -0.0035281238331083546
-0.031451868197395656   -0.13008688242588554   -0.004552909991384513
-0.023955327445388936   -0.13056500429606743   -0.003907978163099425
-0.027914460545547033   -0.11655787307605865   -0.003297228209030594
-0.03095258233770732   -0.12992013680158915   -0.0041212590386006
-0.023789388857634663   -0.1304799434550282   -0.003618360782075657
-0.027914460545547033   -0.11655787307605865   -0.003297228209030594
-0.036742183321185465   -0.11601719495824374   -0.0034962669988587306
-0.03095258233770732   -0.12992013680158915   -0.0041212590386006
-0.036450960041890454   -0.11593835829432929   -0.0031213321726920006
-0.023789388857634663   -0.1304799434550282   -0.003618360782075657
-0.030518772196060272   -0.1298422410249921   -0.0036669970601330253
-0.036450960041890454   -0.11593835829432929   -0.0031213321726920006
-0.03095258233770732   -0.12992013680158915   -0.0041212590386006
-0.023789388857634663   -0.1304799434550282   -0.003618360782075657
-0.036450960041890454   -0.11593835829432929   -0.0031213321726920006
-0.02784611926111112   -0.11646793860690471   -0.003053245874720738
-0.027914460545547033   -0.11655787307605865   -0.003297228209030594
-0.023789388857634663   -0.1304799434550282   -0.003618360782075657
-0.036450960041890454   -0.11593835829432929   -0.0031213321726920006
-0.027914460545547033   -0.11655787307605865   -0.003297228209030594
-0.03095258233770732   -0.12992013680158915   -0.0041212590386006
-0.023789388857634663   -0.1304799434550282   -0.003618360782075657
-0.02784611926111112   -0.11646793860690471   -0.003053245874720738
-0.030518772196060272   -0.1298422410249921   -0.0036669970601330253
-0.02365431491217881   -0.13047448179191895   -0.0033107508323768154
-0.02784611926111112   -0.11646793860690471   -0.003053245874720738
-0.036450960041890454   -0.11593835829432929   -0.0031213321726920006
-0.030518772196060272   -0.1298422410249921   -0.0036669970601330253
-0.036030248594874054   -0.11596124745307722   -0.0027274275034390497
-0.02365431491217881   -0.13047448179191895   -0.0033107508323768154
-0.029934111069047215   -0.12988612289706647   -0.0031930252369123217
-0.036030248594874054   -0.11596124745307722   -0.0027274275034390497
-0.030518772196060272   -0.1298422410249921   -0.0036669970601330253
-0.02365431491217881   -0.13047448179191895   -0.0033107508323768154
-0.036030248594874054   -0.11596124745307722   -0.0027274275034390497
-0.02780034571383826   -0.11644206508355473   -0.0027931169120703737
-0.02784611926111112   -0.11646793860690471   -0.003053245874720738
-0.02365431491217881   -0.13047448179191895   -0.0033107508323768154
-0.036030248594874054   -0.11596124745307722   -0.0027274275034390497
-0.02784611926111112   -0.11646793860690471   -0.003053245874720738
-0.030518772196060272   -0.1298422410249921   -0.0036669970601330253
0.00472577379617089   -0.11709418887916513   -0.001712380171733219
0.0073849060554657   -0.10040222994471319   -0.0011402192702181229
-0.003683815892803651   -0.11730109501407317   -0.0022845727704557902
0.004969477036668898   -0.1167962353498875   -0.0019595649856414057
0.0073849060554657   -0.10040222994471319   -0.0011402192702181229
-0.0025810128179529755   -0.10050315047440828   -0.0016786272226879382
-0.003683815892803651   -0.11730109501407317   -0.0022845727704557902
-0.0026286571783792918   -0.10025580203075334   -0.00173309737526975
0.004969477036668898   -0.1167962353498875   -0.0019595649856414057
-0.0036614156895078596   -0.11704762611989165   -0.0023863365094948952
-0.0026286571783792918   -0.10025580203075334   -0.00173309737526975
-0.003683815892803651   -0.11730109501407317   -0.0022845727704557902
0.004969477036668898   -0.1167962353498875   -0.0019595649856414057
-0.0026286571783792918   -0.10025580203075334   -0.00173309737526975
0.007479663805431805   -0.10011518178016456   -0.0013014356516677231
0.0073849060554657   -0.10040222994471319   -0.0011402192702181229
0.004969477036668898   -0.1167962353498875   -0.0019595649856414057
-0.0026286571783792918   -0.10025580203075334   -0.00173309737526975
0.0073849060554657   -0.10040222994471319   -0.0011402192702181229
-0.003683815892803651   -0.11730109501407317   -0.0022845727704557902
0.004969477036668898   -0.1167962353498875   -0.0019595649856414057
0.007479663805431805   -0.10011518178016456   -0.0013014356516677231
-0.0036614156895078596   -0.11704762611989165   -0.0023863365094948952
0.005124952366582224   -0.11659969798483867   -0.0021844676876932893
0.007479663805431805   -0.10011518178016456   -0.0013014356516677231
-0.0026286571783792918   -0.10025580203075334   -0.00173309737526975
-0.0036614156895078596   -0.11704762611989165   -0.0023863365094948952
-0.0026788228477518175   -0.1000593288020546   -0.0017735242044007544
0.005124952366582224   -0.11659969798483867   -0.0021844676876932893
-0.0036329879127066813   -0.11686301206932667   -0.002472326672106608
-0.0026788228477518175   -0.1000593288020546   -0.0017735242044007544
-0.0036614156895078596   -0.11704762611989165   -0.0023863365094948952
0.005124952366582224   -0.11659969798483867   -0.0021844676876932893
-0.0026788228477518175   -0.1000593288020546   -0.0017735242044007544
0.00750735839505522   -0.09990499281610565   -0.0014419432265768116
0.007479663805431805   -0.10011518178016456   -0.0013014356516677231
0.005124952366582224   -0.11659969798483867   -0.0021844676876932893
-0.0026788228477518175   -0.1000593288020546   -0.0017735242044007544
0.007479663805431805   -0.10011518178016456   -0.0013014356516677231
-0.0036614156895078596   -0.11704762611989165   -0.0023863365094948952
0.005124952366582224   -0.11659969798483867   -0.0021844676876932893
0.00750735839505522   -0.09990499281610565   -0.0014419432265768116
-0.0036329879127066813   -0.11686301206932667   -0.002472326672106608
0.0052840665576706575   -0.11646675429524146   -0.002387547750661296
0.00750735839505522   -0.09990499281610565   -0.0014419432265768116
-0.0026788228477518175   -0.1000593288020546   -0.0017735242044007544
-0.0036329879127066813   -0.11686301206932667   -0.002472326672106608
-0.0027635513747841277   -0.09990761948984306   -0.0018003846697095419
0.0052840665576706575   -0.11646675429524146   -0.002387547750661296
-0.003647298036918776   -0.11674139368253972   -0.0025436952459520685
-0.0027635513747841277   -0.09990761948984306   -0.0018003846697095419
-0.0036329879127066813   -0.11686301206932667   -0.002472326672106608
0.0052840665576706575   -0.11646675429524146   -0.002387547750661296
-0.0027635513747841277   -0.09990761948984306   -0.0018003846697095419
0.007521676167287994   -0.09973499444068717   -0.0015627172386042485
0.00750735839505522   -0.09990499281610565   -0.0014419432265768116
0.0052840665576706575   -0.11646675429524146   -0.002387547750661296
-0.0027635513747841277   -0.09990761948984306   -0.0018003846697095419
0.00750735839505522   -0.09990499281610565   -0.0014419432265768116
-0.0036329879127066813   -0.11686301206932667   -0.002472326672106608
-0.003683815892803651   -0.11730109501407317   -0.0022845727704557902
-0.0025810128179529755   -0.10050315047440828   -0.0016786272226879382
-0.011773141838875673   -0.117301779742551   -0.0027572506999050464
-0.0036614156895078596   -0.11704762611989165   -0.0023863365094948952
-0.0025810128179529755   -0.10050315047440828   -0.0016786272226879382
-0.012131492115364103   -0.1004501635867819   -0.0021229136490970714
-0.011773141838875673   -0.117301779742551   -0.0027572506999050464
-0.012197057289844375   -0.10024309261214726   -0.0020971328185613305
-0.0036614156895078596   -0.11704762611989165   -0.0023863365094948952
-0.011774379382348443   -0.1170870739618825   -0.002747667247203872
-0.012197057289844375   -0.10024309261214726   -0.0020971328185613305
-0.011773141838875673   -0.117301779742551   -0.0027572506999050464
-0.0036614156895078596   -0.11704762611989165   -0.0023863365094948952
-0.012197057289844375   -0.10024309261214726   -0.0020971328185613305
-0.0026286571783792918   -0.10025580203075334   -0.00173309737526975
-0.0025810128179529755   -0.10050315047440828   -0.0016786272226879382
-0.0036614156895078596   -0.11704762611989165   -0.0023863365094948952
-0.012197057289844375   -0.10024309261214726   -0.0020971328185613305
-0.0025810128179529755   -0.10050315047440828   -0.0016786272226879382
-0.011773141838875673   -0.117301779742551   -0.0027572506999050464
-0.0036614156895078596   -0.11704762611989165   -0.0023863365094948952
-0.0026286571783792918   -0.10025580203075334   -0.00173309737526975
-0.011774379382348443   -0.1170870739618825   -0.002747667247203872
-0.0036329879127066813   -0.11686301206932667   -0.002472326672106608
-0.0026286571783792918   -0.10025580203075334   -0.00173309737526975
-0.012197057289844375   -0.10024309261214726   -0.0020971328185613305
-0.011774379382348443   -0.1170870739618825   -0.002747667247203872
-0.012263518043089448   -0.1000796417472117   -0.0020569038279517216
-0.0036329879127066813   -0.11686301206932667   -0.002472326672106608
-0.011775087199439583   -0.11693308196116294   -0.002722381055980891
-0.012263518043089448   -0.1000796417472117   -0.0020569038279517216
-0.011774379382348443   -0.1170870739618825   -0.002747667247203872
-0.0036329879127066813   -0.11686301206932667   -0.002472326672106608
-0.012263518043089448   -0.1000796417472117   -0.0020569038279517216
-0.0026788228477518175   -0.1000593288020546   -0.0017735242044007544
-0.0026286571783792918   -0.10025580203075334   -0.00173309737526975
-0.0036329879127066813   -0.11686301206932667   -0.002472326672106608
-0.012263518043089448   -0.1000796417472117   -0.0020569038279517216
-0.0026286571783792918   -0.10025580203075334   -0.00173309737526975
-0.011774379382348443   -0.1170870739618825   -0.002747667247203872
-0.0036329879127066813   -0.11686301206932667   -0.002472326672106608
-0.0026788228477518175   -0.1000593288020546   -0.0017735242044007544
-0.011775087199439583   -0.11693308196116294   -0.002722381055980891
-0.003647298036918776   -0.11674139368253972   -0.0025436952459520685
-0.0026788228477518175   -0.1000593288020546   -0.0017735242044007544
-0.012263518043089448   -0.1000796417472117   -0.0020569038279517216
-0.011775087199439583   -0.11693308196116294   -0.002722381055980891
-0.012340251581532322   -0.0999605564674584   -0.002002911741980834
-0.003647298036918776   -0.11674139368253972   -0.0025436952459520685
-0.011786633458746466   -0.11683990707432167   -0.0026821944439966356
-0.012340251581532322   -0.0999605564674584   -0.002002911741980834
-0.011775087199439583   -0.11693308196116294   -0.002722381055980891
-0.003647298036918776   -0.11674139368253972   -0.0025436952459520685
-0.012340251581532322   -0.0999605564674584   -0.002002911741980834
-0.0027635513747841277   -0.09990761948984306   -0.0018003846697095419
-0.0026788228477518175   -0.1000593288020546   -0.0017735242044007544
-0.003647298036918776   -0.11674139368253972   -0.0025436952459520685
-0.012340251581532322   -0.0999605564674584   -0.002002911741980834
-0.0026788228477518175   -0.1000593288020546   -0.0017735242044007544
-0.011775087199439583   -0.11693308196116294   -0.002722381055980891
-0.011773141838875673   -0.117301779742551   -0.0027572506999050464
-0.012131492115364103   -0.1004501635867819   -0.0021229136490970714
-0.019724309782203155   -0.11710074138431573   -0.0031715467145174777
-0.011774379382348443   -0.1170870739618825   -0.002747667247203872
-0.012131492115364103   -0.1004501635867819   -0.0021229136490970714
-0.021520014486087376   -0.10025254475342196   -0.002503496437065283
-0.019724309782203155   -0.11710074138431573   -0.0031715467145174777
-0.021590638197081218   -0.10008214574825894   -0.002397829642160262
-0.011774379382348443   -0.1170870739618825   -0.002747667247203872
-0.019731507039440422   -0.11692017132223687   -0.0030519492567260818
-0.021590638197081218   -0.10008214574825894   -0.002397829642160262
-0.019724309782203155   -0.11710074138431573   -0.0031715467145174777
-0.011774379382348443   -0.1170870739618825   -0.002747667247203872
-0.021590638197081218   -0.10008214574825894   -0.002397829642160262
-0.012197057289844375   -0.10024309261214726   -0.0020971328185613305
-0.012131492115364103   -0.1004501635867819   -0.0021229136490970714
-0.011774379382348443   -0.1170870739618825   -0.002747667247203872
-0.021590638197081218   -0.10008214574825894   -0.002397829642160262
-0.012131492115364103   -0.1004501635867819   -0.0021229136490970714
-0.019724309782203155   -0.11710074138431573   -0.0031715467145174777
-0.011774379382348443   -0.1170870739618825   -0.002747667247203872
-0.012197057289844375   -0.10024309261214726   -0.0020971328185613305
-0.019731507039440422   -0.11692017132223687   -0.0030519492567260818
-0.011775087199439583   -0.11693308196116294   -0.002722381055980891
-0.012197057289844375   -0.10024309261214726   -0.0020971328185613305
-0.021590638197081218   -0.10008214574825894   -0.002397829642160262
-0.019731507039440422   -0.11692017132223687   -0.0030519492567260818
-0.021649230941874147   -0.09995494846886852   -0.0022779647096620136
-0.011775087199439583   -0.11693308196116294   -0.002722381055980891
-0.01972513229485715   -0.11679977677828283   -0.0029169473360439483
-0.021649230941874147   -0.09995494846886852   -0.0022779647096620136
-0.019731507039440422   -0.11692017132223687   -0.0030519492567260818
-0.011775087199439583   -0.11693308196116294   -0.002722381055980891
-0.021649230941874147   -0.09995494846886852   -0.0022779647096620136
-0.012263518043089448   -0.1000796417472117   -0.0020569038279517216
-0.012197057289844375   -0.10024309261214726   -0.0020971328185613305
-0.011775087199439583   -0.11693308196116294   -0.002722381055980891
-0.021649230941874147   -0.09995494846886852   -0.0022779647096620136
-0.012197057289844375   -0.10024309261214726   -0.0020971328185613305
-0.019731507039440422   -0.11692017132223687   -0.0030519492567260818
-0.011775087199439583   -0.11693308196116294   -0.002722381055980891
-0.012263518043089448   -0.1000796417472117   -0.0020569038279517216
-0.01972513229485715   -0.11679977677828283   -0.0029169473360439483
-0.011786633458746466   -0.11683990707432167   -0.0026821944439966356
-0.012263518043089448   -0.1000796417472117   -0.0020569038279517216
-0.021649230941874147   -0.09995494846886852   -0.0022779647096620136
-0.01972513229485715   -0.11679977677828283   -0.0029169473360439483
-0.021709500963030797   -0.0998707760576461   -0.002144323319063471
-0.011786633458746466   -0.11683990707432167   -0.0026821944439966356
-0.019721175584084358   -0.11673848888361371   -0.00276699331419631
-0.021709500963030797   -0.0998707760576461   -0.002144323319063471
-0.01972513229485715   -0.11679977677828283   -0.0029169473360439483
-0.011786633458746466   -0.11683990707432167   -0.0026821944439966356
-0.021709500963030797   -0.0998707760576461   -0.002144323319063471
-0.012340251581532322   -0.0999605564674584   -0.002002911741980834
-0.012263518043089448   -0.1000796417472117   -0.0020569038279517216
-0.011786633458746466   -0.11683990707432167   -0.0026821944439966356
-0.021709500963030797   -0.0998707760576461   -0.002144323319063471
-0.012263518043089448   -0.1000796417472117   -0.0020569038279517216
-0.01972513229485715   -0.11679977677828283   -0.0029169473360439483
-0.019724309782203155   -0.11710074138431573   -0.0031715467145174777
-0.021520014486087376   -0.10025254475342196   -0.002503496437065283
-0.027923815476483982   -0.11670568583265278   -0.0035281238331083546
-0.019731507039440422   -0.11692017132223687   -0.0030519492567260818
-0.021520014486087376   -0.10025254475342196   -0.002503496437065283
-0.031131906290656246   -0.09991427814350563   -0.0028217284160689453
-0.027923815476483982   -0.11670568583265278   -0.0035281238331083546
-0.031190541610167908   -0.09977975488420063   -0.0026350992485460146
-0.019731507039440422   -0.11692017132223687   -0.0030519492567260818
-0.027914460545547033   -0.11655787307605865   -0.003297228209030594
-0.031190541610167908   -0.09977975488420063   -0.0026350992485460146
-0.027923815476483982   -0.11670568583265278   -0.0035281238331083546
-0.019731507039440422   -0.11692017132223687   -0.0030519492567260818
-0.031190541610167908   -0.09977975488420063   -0.0026350992485460146
-0.021590638197081218   -0.10008214574825894   -0.002397829642160262
-0.021520014486087376   -0.10025254475342196   -0.002503496437065283
-0.019731507039440422   -0.11692017132223687   -0.0030519492567260818
-0.031190541610167908   -0.09977975488420063   -0.0026350992485460146
-0.021520014486087376   -0.10025254475342196   -0.002503496437065283
-0.027923815476483982   -0.11670568583265278   -0.0035281238331083546
-0.019731507039440422   -0.11692017132223687   -0.0030519492567260818
-0.021590638197081218   -0.10008214574825894   -0.002397829642160262
-0.027914460545547033   -0.11655787307605865   -0.003297228209030594
-0.01972513229485715   -0.11679977677828283   -0.0029169473360439483
-0.021590638197081218   -0.10008214574825894   -0.002397829642160262
-0.031190541610167908   -0.09977975488420063   -0.0026350992485460146
-0.027914460545547033   -0.11655787307605865   -0.003297228209030594
-0.031198760996357693   -0.09968569848684956   -0.0024362385078452006
-0.01972513229485715   -0.11679977677828283   -0.0029169473360439483
-0.02784611926111112   -0.11646793860690471   -0.003053245874720738
-0.031198760996357693   -0.09968569848684956   -0.0024362385078452006
-0.027914460545547033   -0.11655787307605865   -0.003297228209030594
-0.01972513229485715   -0.11679977677828283   -0.0029169473360439483
-0.031198760996357693   -0.09968569848684956   -0.0024362385078452006
-0.021649230941874147   -0.09995494846886852   -0.0022779647096620136
-0.021590638197081218   -0.10008214574825894   -0.002397829642160262
-0.01972513229485715   -0.11679977677828283   -0.0029169473360439483
-0.031198760996357693   -0.09968569848684956   -0.0024362385078452006
-0.021590638197081218   -0.10008214574825894   -0.002397829642160262
-0.027914460545547033   -0.11655787307605865   -0.003297228209030594
-0.01972513229485715   -0.11679977677828283   -0.0029169473360439483
-0.021649230941874147   -0.09995494846886852   -0.0022779647096620136
-0.02784611926111112   -0.11646793860690471   -0.003053245874720738
-0.019721175584084358   -0.11673848888361371   -0.00276699331419631
-0.021649230941874147   -0.09995494846886852   -0.0022779647096620136
-0.031198760996357693   -0.09968569848684956   -0.0024362385078452006
-0.02784611926111112   -0.11646793860690471   -0.003053245874720738
-0.031221124757130438   -0.09963851919675197   -0.0022225616285606355
-0.019721175584084358   -0.11673848888361371   -0.00276699331419631
-0.02780034571383826   -0.11644206508355473   -0.0027931169120703737
-0.031221124757130438   -0.09963851919675197   -0.0022225616285606355
-0.02784611926111112   -0.11646793860690471   -0.003053245874720738
-0.019721175584084358   -0.11673848888361371   -0.00276699331419631
-0.031221124757130438   -0.09963851919675197   -0.0022225616285606355
-0.021709500963030797   -0.0998707760576461   -0.002144323319063471
-0.021649230941874147   -0.09995494846886852   -0.0022779647096620136
-0.019721175584084358   -0.11673848888361371   -0.00276699331419631
-0.031221124757130438   -0.09963851919675197   -0.0022225616285606355
-0.021649230941874147   -0.09995494846886852   -0.0022779647096620136
-0.02784611926111112   -0.11646793860690471   -0.003053245874720738
-0.027923815476483982   -0.11670568583265278   -0.0035281238331083546
-0.031131906290656246   -0.09991427814350563   -0.0028217284160689453
-0.03708234543304874   -0.11616204940663957   -0.003849234583344415
-0.027914460545547033   -0.11655787307605865   -0.003297228209030594
-0.031131906290656246   -0.09991427814350563   -0.0028217284160689453
-0.041612312210760595   -0.09947137857105491   -0.0030935293732889694
-0.03708234543304874   -0.11616204940663957   -0.003849234583344415
-0.0414141304144318   -0.09934850613769848   -0.00282154685742744
-0.027914460545547033   -0.11655787307605865   -0.003297228209030594
-0.036742183321185465   -0.11601719495824374   -0.0034962669988587306
-0.0414141304144318   -0.09934850613769848   -0.00282154685742744
-0.03708234543304874   -0.11616204940663957   -0.003849234583344415
-0.027914460545547033   -0.11655787307605865   -0.003297228209030594
-0.0414141304144318   -0.09934850613769848   -0.00282154685742744
-0.031190541610167908   -0.09977975488420063   -0.0026350992485460146
-0.031131906290656246   -0.09991427814350563   -0.0028217284160689453
-0.027914460545547033   -0.11655787307605865   -0.003297228209030594
-0.0414141304144318   -0.09934850613769848   -0.00282154685742744
-0.031131906290656246   -0.09991427814350563   -0.0028217284160689453
-0.03708234543304874   -0.11616204940663957   -0.003849234583344415
-0.027914460545547033   -0.11655787307605865   -0.003297228209030594
-0.031190541610167908   -0.09977975488420063   -0.0026350992485460146
-0.036742183321185465   -0.11601719495824374   -0.0034962669988587306
-0.02784611926111112   -0.11646793860690471   -0.003053245874720738
-0.031190541610167908   -0.09977975488420063   -0.0026350992485460146
-0.0414141304144318   -0.09934850613769848   -0.00282154685742744
-0.036742183321185465   -0.11601719495824374   -0.0034962669988587306
-0.04124690090718051   -0.09926848698643839   -0.0025282257799617317
-0.02784611926111112   -0.11646793860690471   -0.003053245874720738
-0.036450960041890454   -0.11593835829432929   -0.0031213321726920006
-0.04124690090718051   -0.09926848698643839   -0.0025282257799617317
-0.036742183321185465   -0.11601719495824374   -0.0034962669988587306
-0.02784611926111112   -0.11646793860690471   -0.003053245874720738
-0.04124690090718051   -0.09926848698643839   -0.0025282257799617317
-0.031198760996357693   -0.09968569848684956   -0.0024362385078452006
-0.031190541610167908   -0.09977975488420063   -0.0026350992485460146
-0.02784611926111112   -0.11646793860690471   -0.003053245874720738
-0.04124690090718051   -0.09926848698643839   -0.0025282257799617317
-0.031190541610167908   -0.09977975488420063   -0.0026350992485460146
-0.036742183321185465   -0.11601719495824374   -0.0034962669988587306
-0.02784611926111112   -0.11646793860690471   -0.003053245874720738
-0.031198760996357693   -0.09968569848684956   -0.0024362385078452006
-0.036450960041890454   -0.11593835829432929   -0.0031213321726920006
-0.02780034571383826   -0.11644206508355473   -0.0027931169120703737
-0.031198760996357693   -0.09968569848684956   -0.0024362385078452006
-0.04124690090718051   -0.09926848698643839   -0.0025282257799617317
-0.036450960041890454   -0.11593835829432929   -0.0031213321726920006
-0.04097012529048353   -0.09926825428549292   -0.00221622101666327
-0.02780034571383826   -0.11644206508355473   -0.0027931169120703737
-0.036030248594874054   -0.11596124745307722   -0.0027274275034390497
-0.04097012529048353   -0.09926825428549292   -0.00221622101666327
-0.036450960041890454   -0.11593835829432929   -0.0031213321726920006
-0.02780034571383826   -0.11644206508355473   -0.0027931169120703737
-0.04097012529048353   -0.09926825428549292   -0.00221622101666327
-0.031221124757130438   -0.09963851919675197   -0.0022225616285606355
-0.031198760996357693   -0.09968569848684956   -0.0024362385078452006
-0.02780034571383826   -0.11644206508355473   -0.0027931169120703737
-0.04097012529048353   -0.09926825428549292   -0.00221622101666327
-0.031198760996357693   -0.09968569848684956   -0.0024362385078452006
-0.036450960041890454   -0.11593835829432929   -0.0031213321726920006
0.0073849060554657   -0.10040222994471319   -0.0011402192702181229
0.0088515586976712   -0.08169257689773501   -0.0005793361976159394
-0.0025810128179529755   -0.10050315047440828   -0.0016786272226879382
0.007479663805431805   -0.10011518178016456   -0.0013014356516677231
0.0088515586976712   -0.08169257689773501   -0.0005793361976159394
-0.0022014272770785326   -0.08168887273722132   -0.0010789174391340663
-0.0025810128179529755   -0.10050315047440828   -0.0016786272226879382
-0.002301301840761018   -0.08144948983420948   -0.0010856255555648365
0.007479663805431805   -0.10011518178016456   -0.0013014356516677231
-0.0026286571783792918   -0.10025580203075334   -0.00173309737526975
-0.002301301840761018   -0.08144948983420948   -0.0010856255555648365
-0.0025810128179529755   -0.10050315047440828   -0.0016786272226879382
0.007479663805431805   -0.10011518178016456   -0.0013014356516677231
-0.002301301840761018   -0.08144948983420948   -0.0010856255555648365
0.008817329559875263   -0.08141767869723646   -0.0006557790140018745
0.0088515586976712   -0.08169257689773501   -0.0005793361976159394
0.007479663805431805   -0.10011518178016456   -0.0013014356516677231
-0.002301301840761018   -0.08144948983420948   -0.0010856255555648365
0.0088515586976712   -0.08169257689773501   -0.0005793361976159394
-0.0025810128179529755   -0.10050315047440828   -0.0016786272226879382
0.007479663805431805   -0.10011518178016456   -0.0013014356516677231
0.008817329559875263   -0.08141767869723646   -0.0006557790140018745
-0.0026286571783792918   -0.10025580203075334   -0.00173309737526975
0.00750735839505522   -0.09990499281610565   -0.0014419432265768116
0.008817329559875263   -0.08141767869723646   -0.0006557790140018745
-0.002301301840761018   -0.08144948983420948   -0.0010856255555648365
-0.0026286571783792918   -0.10025580203075334   -0.00173309737526975
-0.002412261634861397   -0.08124274237943085   -0.0010799190319627074
0.00750735839505522   -0.09990499281610565   -0.0014419432265768116
-0.0026788228477518175   -0.1000593288020546   -0.0017735242044007544
-0.002412261634861397   -0.08124274237943085   -0.0010799190319627074
-0.0026286571783792918   -0.10025580203075334   -0.00173309737526975
0.00750735839505522   -0.09990499281610565   -0.0014419432265768116
-0.002412261634861397   -0.08124274237943085   -0.0010799190319627074
0.008735900164374626   -0.08119554798793759   -0.0007123236279947403
0.008817329559875263   -0.08141767869723646   -0.0006557790140018745
0.00750735839505522   -0.09990499281610565   -0.0014419432265768116
-0.002412261634861397   -0.08124274237943085   -0.0010799190319627074
0.008817329559875263   -0.08141767869723646   -0.0006557790140018745
-0.0026286571783792918   -0.10025580203075334   -0.00173309737526975
0.00750735839505522   -0.09990499281610565   -0.0014419432265768116
0.008735900164374626   -0.08119554798793759   -0.0007123236279947403
-0.0026788228477518175   -0.1000593288020546   -0.0017735242044007544
0.007521676167287994   -0.09973499444068717   -0.0015627172386042485
0.008735900164374626   -0.08119554798793759   -0.0007123236279947403
-0.002412261634861397   -0.08124274237943085   -0.0010799190319627074
-0.0026788228477518175   -0.1000593288020546   -0.0017735242044007544
-0.0025496234657683284   -0.0810633319633146   -0.0010613084481283985
0.007521676167287994   -0.09973499444068717   -0.0015627172386042485
-0.0027635513747841277   -0.09990761948984306   -0.0018003846697095419
-0.0025496234657683284   -0.0810633319633146   -0.0010613084481283985
-0.0026788228477518175   -0.1000593288020546   -0.0017735242044007544
0.007521676167287994   -0.09973499444068717   -0.0015627172386042485
-0.0025496234657683284   -0.0810633319633146   -0.0010613084481283985
0.008622559780962595   -0.08099038002807445   -0.0007503592520469861
0.008735900164374626   -0.08119554798793759   -0.0007123236279947403
0.007521676167287994   -0.09973499444068717   -0.0015627172386042485
-0.0025496234657683284   -0.0810633319633146   -0.0010613084481283985
0.008735900164374626   -0.08119554798793759   -0.0007123236279947403
-0.0026788228477518175   -0.1000593288020546   -0.0017735242044007544
-0.0025810128179529755   -0.10050315047440828   -0.0016786272226879382
-0.0022014272770785326   -0.08168887273722132   -0.0010789174391340663
-0.012131492115364103   -0.1004501635867819   -0.0021229136490970714
-0.0026286571783792918   -0.10025580203075334   -0.00173309737526975
-0.0022014272770785326   -0.08168887273722132   -0.0010789174391340663
-0.012742932982750406   -0.08158865623610187   -0.0014922846417217842
-0.012131492115364103   -0.1004501635867819   -0.0021229136490970714
-0.012854339185831353   -0.08138949963548826   -0.0014490069647938833
-0.0026286571783792918   -0.10025580203075334   -0.00173309737526975
-0.012197057289844375   -0.10024309261214726   -0.0020971328185613305
-0.012854339185831353   -0.08138949963548826   -0.0014490069647938833
-0.012131492115364103   -0.1004501635867819   -0.0021229136490970714
-0.0026286571783792918   -0.10025580203075334   -0.00173309737526975
-0.012854339185831353   -0.08138949963548826   -0.0014490069647938833
-0.002301301840761018   -0.08144948983420948   -0.0010856255555648365
-0.0022014272770785326   -0.08168887273722132   -0.0010789174391340663
-0.0026286571783792918   -0.10025580203075334   -0.00173309737526975
-0.012854339185831353   -0.08138949963548826   -0.0014490069647938833
-0.0022014272770785326   -0.08168887273722132   -0.0010789174391340663
-0.012131492115364103   -0.1004501635867819   -0.0021229136490970714
-0.0026286571783792918   -0.10025580203075334   -0.00173309737526975
-0.002301301840761018   -0.08144948983420948   -0.0010856255555648365
-0.012197057289844375   -0.10024309261214726   -0.0020971328185613305
-0.0026788228477518175   -0.1000593288020546   -0.0017735242044007544
-0.002301301840761018   -0.08144948983420948   -0.0010856255555648365
-0.012854339185831353   -0.08138949963548826   -0.0014490069647938833
-0.012197057289844375   -0.10024309261214726   -0.0020971328185613305
-0.012967961964706719   -0.08121691319076228   -0.001392807294606497
-0.0026788228477518175   -0.1000593288020546   -0.0017735242044007544
-0.012263518043089448   -0.1000796417472117   -0.0020569038279517216
-0.012967961964706719   -0.08121691319076228   -0.001392807294606497
-0.012197057289844375   -0.10024309261214726   -0.0020971328185613305
-0.0026788228477518175   -0.1000593288020546   -0.0017735242044007544
-0.012967961964706719   -0.08121691319076228   -0.001392807294606497
-0.002412261634861397   -0.08124274237943085   -0.0010799190319627074
-0.002301301840761018   -0.08144948983420948   -0.0010856255555648365
-0.0026788228477518175   -0.1000593288020546   -0.0017735242044007544
-0.012967961964706719   -0.08121691319076228   -0.001392807294606497
-0.002301301840761018   -0.08144948983420948   -0.0010856255555648365
-0.012197057289844375   -0.10024309261214726   -0.0020971328185613305
-0.0026788228477518175   -0.1000593288020546   -0.0017735242044007544
-0.002412261634861397   -0.08124274237943085   -0.0010799190319627074
-0.012263518043089448   -0.1000796417472117   -0.0020569038279517216
-0.0027635513747841277   -0.09990761948984306   -0.0018003846697095419
-0.002412261634861397   -0.08124274237943085   -0.0010799190319627074
-0.012967961964706719   -0.08121691319076228   -0.001392807294606497
-0.012263518043089448   -0.1000796417472117   -0.0020569038279517216
-0.01309113378996736   -0.08107249743994266   -0.001324280291523354
-0.0027635513747841277   -0.09990761948984306   -0.0018003846697095419
-0.012340251581532322   -0.0999605564674584   -0.002002911741980834
-0.01309113378996736   -0.08107249743994266   -0.001324280291523354
-0.012263518043089448   -0.1000796417472117   -0.0020569038279517216
-0.0027635513747841277   -0.09990761948984306   -0.0018003846697095419
-0.01309113378996736   -0.08107249743994266   -0.001324280291523354
-0.0025496234657683284   -0.0810633319633146   -0.0010613084481283985
-0.002412261634861397   -0.08124274237943085   -0.0010799190319627074
-0.0027635513747841277   -0.09990761948984306   -0.0018003846697095419
-0.01309113378996736   -0.08107249743994266   -0.001324280291523354
-0.002412261634861397   -0.08124274237943085   -0.0010799190319627074
-0.012263518043089448   -0.1000796417472117   -0.0020569038279517216
-0.012131492115364103   -0.1004501635867819   -0.0021229136490970714
-0.012742932982750406   -0.08158865623610187   -0.0014922846417217842
-0.021520014486087376   -0.10025254475342196   -0.002503496437065283
-0.012197057289844375   -0.10024309261214726   -0.0020971328185613305
-0.012742932982750406   -0.08158865623610187   -0.0014922846417217842
-0.023106143087250373   -0.08140258698348997   -0.0018416071206340404
-0.021520014486087376   -0.10025254475342196   -0.002503496437065283
-0.023220713190976194   -0.08124058698878417   -0.0017484003392110677
-0.012197057289844375   -0.10024309261214726   -0.0020971328185613305
-0.021590638197081218   -0.10008214574825894   -0.002397829642160262
-0.023220713190976194   -0.08124058698878417   -0.0017484003392110677
-0.021520014486087376   -0.10025254475342196   -0.002503496437065283
-0.012197057289844375   -0.10024309261214726   -0.0020971328185613305
-0.023220713190976194   -0.08124058698878417   -0.0017484003392110677
-0.012854339185831353   -0.08138949963548826   -0.0014490069647938833
-0.012742932982750406   -0.08158865623610187   -0.0014922846417217842
-0.012197057289844375   -0.10024309261214726   -0.0020971328185613305
-0.023220713190976194   -0.08124058698878417   -0.0017484003392110677
-0.012742932982750406   -0.08158865623610187   -0.0014922846417217842
-0.021520014486087376   -0.10025254475342196   -0.002503496437065283
-0.012197057289844375   -0.10024309261214726   -0.0020971328185613305
-0.012854339185831353   -0.08138949963548826   -0.0014490069647938833
-0.021590638197081218   -0.10008214574825894   -0.002397829642160262
-0.012263518043089448   -0.1000796417472117   -0.0020569038279517216
-0.012854339185831353   -0.08138949963548826   -0.0014490069647938833
-0.023220713190976194   -0.08124058698878417   -0.0017484003392110677
-0.021590638197081218   -0.10008214574825894   -0.002397829642160262
-0.023324707756843633   -0.08110496898266853   -0.0016425691281335226
-0.012263518043089448   -0.1000796417472117   -0.0020569038279517216
-0.021649230941874147   -0.09995494846886852   -0.0022779647096620136
-0.023324707756843633   -0.08110496898266853   -0.0016425691281335226
-0.021590638197081218   -0.10008214574825894   -0.002397829642160262
-0.012263518043089448   -0.1000796417472117   -0.0020569038279517216
-0.023324707756843633   -0.08110496898266853   -0.0016425691281335226
-0.012967961964706719   -0.08121691319076228   -0.001392807294606497
-0.012854339185831353   -0.08138949963548826   -0.0014490069647938833
-0.012263518043089448   -0.1000796417472117   -0.0020569038279517216
-0.023324707756843633   -0.08110496898266853   -0.0016425691281335226
-0.012854339185831353   -0.08138949963548826   -0.0014490069647938833
-0.021590638197081218   -0.10008214574825894   -0.002397829642160262
-0.012263518043089448   -0.1000796417472117   -0.0020569038279517216
-0.012967961964706719   -0.08121691319076228   -0.001392807294606497
-0.021649230941874147   -0.09995494846886852   -0.0022779647096620136
-0.012340251581532322   -0.0999605564674584   -0.002002911741980834
-0.012967961964706719   -0.08121691319076228   -0.001392807294606497
-0.023324707756843633   -0.08110496898266853   -0.0016425691281335226
-0.021649230941874147   -0.09995494846886852   -0.0022779647096620136
-0.023429680417620464   -0.08099597017634176   -0.0015245991467879487
-0.012340251581532322   -0.0999605564674584   -0.002002911741980834
-0.021709500963030797   -0.0998707760576461   -0.002144323319063471
-0.023429680417620464   -0.08099597017634176   -0.0015245991467879487
-0.021649230941874147   -0.09995494846886852   -0.0022779647096620136
-0.012340251581532322   -0.0999605564674584   -0.002002911741980834
-0.023429680417620464   -0.08099597017634176   -0.0015245991467879487
-0.01309113378996736   -0.08107249743994266   -0.001324280291523354
-0.012967961964706719   -0.08121691319076228   -0.001392807294606497
-0.012340251581532322   -0.0999605564674584   -0.002002911741980834
-0.023429680417620464   -0.08099597017634176   -0.0015245991467879487
-0.012967961964706719   -0.08121691319076228   -0.001392807294606497
-0.021649230941874147   -0.09995494846886852   -0.0022779647096620136
-0.021520014486087376   -0.10025254475342196   -0.002503496437065283
-0.023106143087250373   -0.08140258698348997   -0.0018416071206340404
-0.031131906290656246   -0.09991427814350563   -0.0028217284160689453
-0.021590638197081218   -0.10008214574825894   -0.002397829642160262
-0.023106143087250373   -0.08140258698348997   -0.0018416071206340404
-0.03367434538591707   -0.08112668806511977   -0.0021276002786403876
-0.031131906290656246   -0.09991427814350563   -0.0028217284160689453
-0.033780839425483745   -0.08100219297546418   -0.0019840887510291995
-0.021590638197081218   -0.10008214574825894   -0.002397829642160262
-0.031190541610167908   -0.09977975488420063   -0.0026350992485460146
-0.033780839425483745   -0.08100219297546418   -0.0019840887510291995
-0.031131906290656246   -0.09991427814350563   -0.0028217284160689453
-0.021590638197081218   -0.10008214574825894   -0.002397829642160262
-0.033780839425483745   -0.08100219297546418   -0.0019840887510291995
-0.023220713190976194   -0.08124058698878417   -0.0017484003392110677
-0.023106143087250373   -0.08140258698348997   -0.0018416071206340404
-0.021590638197081218   -0.10008214574825894   -0.002397829642160262
-0.033780839425483745   -0.08100219297546418   -0.0019840887510291995
-0.023106143087250373   -0.08140258698348997   -0.0018416071206340404
-0.031131906290656246   -0.09991427814350563   -0.0028217284160689453
-0.021590638197081218   -0.10008214574825894   -0.002397829642160262
-0.023220713190976194   -0.08124058698878417   -0.0017484003392110677
-0.031190541610167908   -0.09977975488420063   -0.0026350992485460146
-0.021649230941874147   -0.09995494846886852   -0.0022779647096620136
-0.023220713190976194   -0.08124058698878417   -0.0017484003392110677
-0.033780839425483745   -0.08100219297546418   -0.0019840887510291995
-0.031190541610167908   -0.09977975488420063   -0.0026350992485460146
-0.03384578740310622   -0.08090062489671114   -0.001829665926186053
-0.021649230941874147   -0.09995494846886852   -0.0022779647096620136
-0.031198760996357693   -0.09968569848684956   -0.0024362385078452006
-0.03384578740310622   -0.08090062489671114   -0.001829665926186053
-0.031190541610167908   -0.09977975488420063   -0.0026350992485460146
-0.021649230941874147   -0.09995494846886852   -0.0022779647096620136
-0.03384578740310622   -0.08090062489671114   -0.001829665926186053
-0.023324707756843633   -0.08110496898266853   -0.0016425691281335226
-0.023220713190976194   -0.08124058698878417   -0.0017484003392110677
-0.021649230941874147   -0.09995494846886852   -0.0022779647096620136
-0.03384578740310622   -0.08090062489671114   -0.001829665926186053
-0.023220713190976194   -0.08124058698878417   -0.0017484003392110677
-0.031190541610167908   -0.09977975488420063   -0.0026350992485460146
-0.021649230941874147   -0.09995494846886852   -0.0022779647096620136
-0.023324707756843633   -0.08110496898266853   -0.0016425691281335226
-0.031198760996357693   -0.09968569848684956   -0.0024362385078452006
-0.021709500963030797   -0.0998707760576461   -0.002144323319063471
-0.023324707756843633   -0.08110496898266853   -0.0016425691281335226
-0.03384578740310622   -0.08090062489671114   -0.001829665926186053
-0.031198760996357693   -0.09968569848684956   -0.0024362385078452006
-0.03391689490687118   -0.08082796285442843   -0.0016620711395887206
-0.021709500963030797   -0.0998707760576461   -0.002144323319063471
-0.031221124757130438   -0.09963851919675197   -0.0022225616285606355
-0.03391689490687118   -0.08082796285442843   -0.0016620711395887206
-0.031198760996357693   -0.09968569848684956   -0.0024362385078452006
-0.021709500963030797   -0.0998707760576461   -0.002144323319063471
-0.03391689490687118   -0.08082796285442843   -0.0016620711395887206
-0.023429680417620464   -0.08099597017634176   -0.0015245991467879487
-0.023324707756843633   -0.08110496898266853   -0.0016425691281335226
-0.021709500963030797   -0.0998707760576461   -0.002144323319063471
-0.03391689490687118   -0.08082796285442843   -0.0016620711395887206
-0.023324707756843633   -0.08110496898266853   -0.0016425691281335226
-0.031198760996357693   -0.09968569848684956   -0.0024362385078452006
-0.031131906290656246   -0.09991427814350563   -0.0028217284160689453
-0.03367434538591707   -0.08112668806511977   -0.0021276002786403876
-0.041612312210760595   -0.09947137857105491   -0.0030935293732889694
-0.031190541610167908   -0.09977975488420063   -0.0026350992485460146
-0.03367434538591707   -0.08112668806511977   -0.0021276002786403876
-0.045014612369600256   -0.08078804214483631   -0.0023553811980696966
-0.041612312210760595   -0.09947137857105491   -0.0030935293732889694
-0.04493900806440121   -0.08068285364414948   -0.002164664308954209
-0.031190541610167908   -0.09977975488420063   -0.0026350992485460146
-0.0414141304144318   -0.09934850613769848   -0.00282154685742744
-0.04493900806440121   -0.08068285364414948   -0.002164664308954209
-0.041612312210760595   -0.09947137857105491   -0.0030935293732889694
-0.031190541610167908   -0.09977975488420063   -0.0026350992485460146
-0.04493900806440121   -0.08068285364414948   -0.002164664308954209
-0.033780839425483745   -0.08100219297546418   -0.0019840887510291995
-0.03367434538591707   -0.08112668806511977   -0.0021276002786403876
-0.031190541610167908   -0.09977975488420063   -0.0026350992485460146
-0.04493900806440121   -0.08068285364414948   -0.002164664308954209
-0.03367434538591707   -0.08112668806511977   -0.0021276002786403876
-0.041612312210760595   -0.09947137857105491   -0.0030935293732889694
-0.031190541610167908   -0.09977975488420063   -0.0026350992485460146
-0.033780839425483745   -0.08100219297546418   -0.0019840887510291995
-0.0414141304144318   -0.09934850613769848   -0.00282154685742744
-0.031198760996357693   -0.09968569848684956   -0.0024362385078452006
-0.033780839425483745   -0.08100219297546418   -0.0019840887510291995
-0.04493900806440121   -0.08068285364414948   -0.002164664308954209
-0.0414141304144318   -0.09934850613769848   -0.00282154685742744
-0.04487742995964841   -0.08059731709027179   -0.0019539274436069574
-0.031198760996357693   -0.09968569848684956   -0.0024362385078452006
-0.04124690090718051   -0.09926848698643839   -0.0025282257799617317
-0.04487742995964841   -0.08059731709027179   -0.0019539274436069574
-0.0414141304144318   -0.09934850613769848   -0.00282154685742744
-0.031198760996357693   -0.09968569848684956   -0.0024362385078452006
-0.04487742995964841   -0.08059731709027179   -0.0019539274436069574
-0.03384578740310622   -0.08090062489671114   -0.001829665926186053
-0.033780839425483745   -0.08100219297546418   -0.0019840887510291995
-0.031198760996357693   -0.09968569848684956   -0.0024362385078452006
-0.04487742995964841   -0.08059731709027179   -0.0019539274436069574
-0.033780839425483745   -0.08100219297546418   -0.0019840887510291995
-0.0414141304144318   -0.09934850613769848   -0.00282154685742744
-0.031198760996357693   -0.09968569848684956   -0.0024362385078452006
-0.03384578740310622   -0.08090062489671114   -0.001829665926186053
-0.04124690090718051   -0.09926848698643839   -0.0025282257799617317
-0.031221124757130438   -0.09963851919675197   -0.0022225616285606355
-0.03384578740310622   -0.08090062489671114   -0.001829665926186053
-0.04487742995964841   -0.08059731709027179   -0.0019539274436069574
-0.04124690090718051   -0.09926848698643839   -0.0025282257799617317
-0.044727228646658596   -0.08056809705660038   -0.001725457071363895
-0.031221124757130438   -0.09963851919675197   -0.0022225616285606355
-0.04097012529048353   -0.09926825428549292   -0.00221622101666327
-0.044727228646658596   -0.08056809705660038   -0.001725457071363895
-0.04124690090718051   -0.09926848698643839   -0.0025282257799617317
-0.031221124757130438   -0.09963851919675197   -0.0022225616285606355
-0.044727228646658596   -0.08056809705660038   -0.001725457071363895
-0.03391689490687118   -0.08082796285442843   -0.0016620711395887206
-0.03384578740310622   -0.08090062489671114   -0.001829665926186053
-0.031221124757130438   -0.09963851919675197   -0.0022225616285606355
-0.044727228646658596   -0.08056809705660038   -0.001725457071363895
-0.03384578740310622   -0.08090062489671114   -0.001829665926186053
-0.04124690090718051   -0.09926848698643839   -0.0025282257799617317
0.0088515586976712   -0.08169257689773501   -0.0005793361976159394
0.00912941807573726   -0.06170955588074738   -8.782269684816665e-05
-0.0022014272770785326   -0.08168887273722132   -0.0010789174391340663
0.008817329559875263   -0.08141767869723646   -0.0006557790140018745
0.00912941807573726   -0.06170955588074738   -8.782269684816665e-05
-0.0025408058464265275   -0.06160564250587574   -0.0005375987340303914
-0.0022014272770785326   -0.08168887273722132   -0.0010789174391340663
-0.0026774256421209664   -0.06137633111681524   -0.0004966984604781082
0.008817329559875263   -0.08141767869723646   -0.0006557790140018745
-0.002301301840761018   -0.08144948983420948   -0.0010856255555648365
-0.0026774256421209664   -0.06137633111681524   -0.0004966984604781082
-0.0022014272770785326   -0.08168887273722132   -0.0010789174391340663
0.008817329559875263   -0.08141767869723646   -0.0006557790140018745
-0.0026774256421209664   -0.06137633111681524   -0.0004966984604781082
0.00898315702187938   -0.06144712328733202   -7.82249340420627e-05
0.00912941807573726   -0.06170955588074738   -8.782269684816665e-05
0.008817329559875263   -0.08141767869723646   -0.0006557790140018745
-0.0026774256421209664   -0.06137633111681524   -0.0004966984604781082
0.00912941807573726   -0.06170955588074738   -8.782269684816665e-05
-0.0022014272770785326   -0.08168887273722132   -0.0010789174391340663
0.008817329559875263   -0.08141767869723646   -0.0006557790140018745
0.00898315702187938   -0.06144712328733202   -7.82249340420627e-05
-0.002301301840761018   -0.08144948983420948   -0.0010856255555648365
0.008735900164374626   -0.08119554798793759   -0.0007123236279947403
0.00898315702187938   -0.06144712328733202   -7.82249340420627e-05
-0.0026774256421209664   -0.06137633111681524   -0.0004966984604781082
-0.002301301840761018   -0.08144948983420948   -0.0010856255555648365
-0.0028337363027630584   -0.06115939214733485   -0.0004445752170074449
0.008735900164374626   -0.08119554798793759   -0.0007123236279947403
-0.002412261634861397   -0.08124274237943085   -0.0010799190319627074
-0.0028337363027630584   -0.06115939214733485   -0.0004445752170074449
-0.002301301840761018   -0.08144948983420948   -0.0010856255555648365
0.008735900164374626   -0.08119554798793759   -0.0007123236279947403
-0.0028337363027630584   -0.06115939214733485   -0.0004445752170074449
0.008804620332750781   -0.06121185163947916   -4.5672407748949004e-05
0.00898315702187938   -0.06144712328733202   -7.82249340420627e-05
0.008735900164374626   -0.08119554798793759   -0.0007123236279947403
-0.0028337363027630584   -0.06115939214733485   -0.0004445752170074449
0.00898315702187938   -0.06144712328733202   -7.82249340420627e-05
-0.002301301840761018   -0.08144948983420948   -0.0010856255555648365
0.008735900164374626   -0.08119554798793759   -0.0007123236279947403
0.008804620332750781   -0.06121185163947916   -4.5672407748949004e-05
-0.002412261634861397   -0.08124274237943085   -0.0010799190319627074
0.008622559780962595   -0.08099038002807445   -0.0007503592520469861
0.008804620332750781   -0.06121185163947916   -4.5672407748949004e-05
-0.0028337363027630584   -0.06115939214733485   -0.0004445752170074449
-0.002412261634861397   -0.08124274237943085   -0.0010799190319627074
-0.0030089308110525202   -0.060951882699449345   -0.00037841116187197
0.008622559780962595   -0.08099038002807445   -0.0007503592520469861
-0.0025496234657683284   -0.0810633319633146   -0.0010613084481283985
-0.0030089308110525202   -0.060951882699449345   -0.00037841116187197
-0.002412261634861397   -0.08124274237943085   -0.0010799190319627074
0.008622559780962595   -0.08099038002807445   -0.0007503592520469861
-0.0030089308110525202   -0.060951882699449345   -0.00037841116187197
0.008569537510818886   -0.060965361890441265   8.788972035565902e-06
0.008804620332750781   -0.06121185163947916   -4.5672407748949004e-05
0.008622559780962595   -0.08099038002807445   -0.0007503592520469861
-0.0030089308110525202   -0.060951882699449345   -0.00037841116187197
0.008804620332750781   -0.06121185163947916   -4.5672407748949004e-05
-0.002412261634861397   -0.08124274237943085   -0.0010799190319627074
-0.0022014272770785326   -0.08168887273722132   -0.0010789174391340663
-0.0025408058464265275   -0.06160564250587574   -0.0005375987340303914
-0.012742932982750406   -0.08158865623610187   -0.0014922846417217842
-0.002301301840761018   -0.08144948983420948   -0.0010856255555648365
-0.0025408058464265275   -0.06160564250587574   -0.0005375987340303914
-0.013599279630676253   -0.061485846875870005   -0.0009193223236327509
-0.012742932982750406   -0.08158865623610187   -0.0014922846417217842
-0.013738310786220653   -0.061293577701685684   -0.0008575076165476314
-0.002301301840761018   -0.08144948983420948   -0.0010856255555648365
-0.012854339185831353   -0.08138949963548826   -0.0014490069647938833
-0.013738310786220653   -0.061293577701685684   -0.0008575076165476314
-0.012742932982750406   -0.08158865623610187   -0.0014922846417217842
-0.002301301840761018   -0.08144948983420948   -0.0010856255555648365
-0.013738310786220653   -0.061293577701685684   -0.0008575076165476314
-0.0026774256421209664   -0.06137633111681524   -0.0004966984604781082
-0.0025408058464265275   -0.06160564250587574   -0.0005375987340303914
-0.002301301840761018   -0.08144948983420948   -0.0010856255555648365
-0.013738310786220653   -0.061293577701685684   -0.0008575076165476314
-0.0025408058464265275   -0.06160564250587574   -0.0005375987340303914
-0.012742932982750406   -0.08158865623610187   -0.0014922846417217842
-0.002301301840761018   -0.08144948983420948   -0.0010856255555648365
-0.0026774256421209664   -0.06137633111681524   -0.0004966984604781082
-0.012854339185831353   -0.08138949963548826   -0.0014490069647938833
-0.002412261634861397   -0.08124274237943085   -0.0010799190319627074
-0.0026774256421209664   -0.06137633111681524   -0.0004966984604781082
-0.013738310786220653   -0.061293577701685684   -0.0008575076165476314
-0.012854339185831353   -0.08138949963548826   -0.0014490069647938833
-0.013880414711381328   -0.061110923591740376   -0.0007850165377987682
-0.002412261634861397   -0.08124274237943085   -0.0010799190319627074
-0.012967961964706719   -0.08121691319076228   -0.001392807294606497
-0.013880414711381328   -0.061110923591740376   -0.0007850165377987682
-0.012854339185831353   -0.08138949963548826   -0.0014490069647938833
-0.002412261634861397   -0.08124274237943085   -0.0010799190319627074
-0.013880414711381328   -0.061110923591740376   -0.0007850165377987682
-0.0028337363027630584   -0.06115939214733485   -0.0004445752170074449
-0.0026774256421209664   -0.06137633111681524   -0.0004966984604781082
-0.002412261634861397   -0.08124274237943085   -0.0010799190319627074
-0.013880414711381328   -0.061110923591740376   -0.0007850165377987682
-0.0026774256421209664   -0.06137633111681524   -0.0004966984604781082
-0.012854339185831353   -0.08138949963548826   -0.0014490069647938833
-0.002412261634861397   -0.08124274237943085   -0.0010799190319627074
-0.0028337363027630584   -0.06115939214733485   -0.0004445752170074449
-0.012967961964706719   -0.08121691319076228   -0.001392807294606497
-0.0025496234657683284   -0.0810633319633146   -0.0010613084481283985
-0.0028337363027630584   -0.06115939214733485   -0.0004445752170074449
-0.013880414711381328   -0.061110923591740376   -0.0007850165377987682
-0.012967961964706719   -0.08121691319076228   -0.001392807294606497
-0.014031492184892604   -0.06094065490758549   -0.0007017190663881758
-0.0025496234657683284   -0.0810633319633146   -0.0010613084481283985
-0.01309113378996736   -0.08107249743994266   -0.001324280291523354
-0.014031492184892604   -0.06094065490758549   -0.0007017190663881758
-0.012967961964706719   -0.08121691319076228   -0.001392807294606497
-0.0025496234657683284   -0.0810633319633146   -0.0010613084481283985
-0.014031492184892604   -0.06094065490758549   -0.0007017190663881758
-0.0030089308110525202   -0.060951882699449345   -0.00037841116187197
-0.0028337363027630584   -0.06115939214733485   -0.0004445752170074449
-0.0025496234657683284   -0.0810633319633146   -0.0010613084481283985
-0.014031492184892604   -0.06094065490758549   -0.0007017190663881758
-0.0028337363027630584   -0.06115939214733485   -0.0004445752170074449
-0.012967961964706719   -0.08121691319076228   -0.001392807294606497
-0.012742932982750406   -0.08158865623610187   -0.0014922846417217842
-0.013599279630676253   -0.061485846875870005   -0.0009193223236327509
-0.023106143087250373   -0.08140258698348997   -0.0018416071206340404
-0.012854339185831353   -0.08138949963548826   -0.0014490069647938833
-0.013599279630676253   -0.061485846875870005   -0.0009193223236327509
-0.024478537621414463   -0.06134279273870121   -0.0012441414911327736
-0.023106143087250373   -0.08140258698348997   -0.0018416071206340404
-0.02461643079094864   -0.06118492298834224   -0.0011613750878615087
-0.012854339185831353   -0.08138949963548826   -0.0014490069647938833
-0.023220713190976194   -0.08124058698878417   -0.0017484003392110677
-0.02461643079094864   -0.06118492298834224   -0.0011613750878615087
-0.023106143087250373   -0.08140258698348997   -0.0018416071206340404
-0.012854339185831353   -0.08138949963548826   -0.0014490069647938833
-0.02461643079094864   -0.06118492298834224   -0.0011613750878615087
-0.013738310786220653   -0.061293577701685684   -0.0008575076165476314
-0.013599279630676253   -0.061485846875870005   -0.0009193223236327509
-0.012854339185831353   -0.08138949963548826   -0.0014490069647938833
-0.02461643079094864   -0.06118492298834224   -0.0011613750878615087
-0.013599279630676253   -0.061485846875870005   -0.0009193223236327509
-0.023106143087250373   -0.08140258698348997   -0.0018416071206340404
-0.012854339185831353   -0.08138949963548826   -0.0014490069647938833
-0.013738310786220653   -0.061293577701685684   -0.0008575076165476314
-0.023220713190976194   -0.08124058698878417   -0.0017484003392110677
-0.012967961964706719   -0.08121691319076228   -0.001392807294606497
-0.013738310786220653   -0.061293577701685684   -0.0008575076165476314
-0.02461643079094864   -0.06118492298834224   -0.0011613750878615087
-0.023220713190976194   -0.08124058698878417   -0.0017484003392110677
-0.024745439756067175   -0.061037238208243444   -0.001068298246231528
-0.012967961964706719   -0.08121691319076228   -0.001392807294606497
-0.023324707756843633   -0.08110496898266853   -0.0016425691281335226
-0.024745439756067175   -0.061037238208243444   -0.001068298246231528
-0.023220713190976194   -0.08124058698878417   -0.0017484003392110677
-0.012967961964706719   -0.08121691319076228   -0.001392807294606497
-0.024745439756067175   -0.061037238208243444   -0.001068298246231528
-0.013880414711381328   -0.061110923591740376   -0.0007850165377987682
-0.013738310786220653   -0.061293577701685684   -0.0008575076165476314
-0.012967961964706719   -0.08121691319076228   -0.001392807294606497
-0.024745439756067175   -0.061037238208243444   -0.001068298246231528
-0.013738310786220653   -0.061293577701685684   -0.0008575076165476314
-0.023220713190976194   -0.08124058698878417   -0.0017484003392110677
-0.012967961964706719   -0.08121691319076228   -0.001392807294606497
-0.013880414711381328   -0.061110923591740376   -0.0007850165377987682
-0.023324707756843633   -0.08110496898266853   -0.0016425691281335226
-0.01309113378996736   -0.08107249743994266   -0.001324280291523354
-0.013880414711381328   -0.061110923591740376   -0.0007850165377987682
-0.024745439756067175   -0.061037238208243444   -0.001068298246231528
-0.023324707756843633   -0.08110496898266853   -0.0016425691281335226
-0.024874908948458806   -0.060900156597294516   -0.0009654260141887287
-0.01309113378996736   -0.08107249743994266   -0.001324280291523354
-0.023429680417620464   -0.08099597017634176   -0.0015245991467879487
-0.024874908948458806   -0.060900156597294516   -0.0009654260141887287
-0.023324707756843633   -0.08110496898266853   -0.0016425691281335226
-0.01309113378996736   -0.08107249743994266   -0.001324280291523354
-0.024874908948458806   -0.060900156597294516   -0.0009654260141887287
-0.014031492184892604   -0.06094065490758549   -0.0007017190663881758
-0.013880414711381328   -0.061110923591740376   -0.0007850165377987682
-0.01309113378996736   -0.08107249743994266   -0.001324280291523354
-0.024874908948458806   -0.060900156597294516   -0.0009654260141887287
-0.013880414711381328   -0.061110923591740376   -0.0007850165377987682
-0.023324707756843633   -0.08110496898266853   -0.0016425691281335226
-0.023106143087250373   -0.08140258698348997   -0.0018416071206340404
-0.024478537621414463   -0.06134279273870121   -0.0012441414911327736
-0.03367434538591707   -0.08112668806511977   -0.0021276002786403876
-0.023220713190976194   -0.08124058698878417   -0.0017484003392110677
-0.024478537621414463   -0.06134279273870121   -0.0012441414911327736
-0.035553889887427956   -0.06114978941738409   -0.0015092902684440545
-0.03367434538591707   -0.08112668806511977   -0.0021276002786403876
-0.03568599123839209   -0.06102811958481518   -0.0014058184120847286
-0.023220713190976194   -0.08124058698878417   -0.0017484003392110677
-0.033780839425483745   -0.08100219297546418   -0.0019840887510291995
-0.03568599123839209   -0.06102811958481518   -0.0014058184120847286
-0.03367434538591707   -0.08112668806511977   -0.0021276002786403876
-0.023220713190976194   -0.08124058698878417   -0.0017484003392110677
-0.03568599123839209   -0.06102811958481518   -0.0014058184120847286
-0.02461643079094864   -0.06118492298834224   -0.0011613750878615087
-0.024478537621414463   -0.06134279273870121   -0.0012441414911327736
-0.023220713190976194   -0.08124058698878417   -0.0017484003392110677
-0.03568599123839209   -0.06102811958481518   -0.0014058184120847286
-0.024478537621414463   -0.06134279273870121   -0.0012441414911327736
-0.03367434538591707   -0.08112668806511977   -0.0021276002786403876
-0.023220713190976194   -0.08124058698878417   -0.0017484003392110677
-0.02461643079094864   -0.06118492298834224   -0.0011613750878615087
-0.033780839425483745   -0.08100219297546418   -0.0019840887510291995
-0.023324707756843633   -0.08110496898266853   -0.0016425691281335226
-0.02461643079094864   -0.06118492298834224   -0.0011613750878615087
-0.03568599123839209   -0.06102811958481518   -0.0014058184120847286
-0.033780839425483745   -0.08100219297546418   -0.0019840887510291995
-0.035786443697117865   -0.0609126021271054   -0.001293758183044465
-0.023324707756843633   -0.08110496898266853   -0.0016425691281335226
-0.03384578740310622   -0.08090062489671114   -0.001829665926186053
-0.035786443697117865   -0.0609126021271054   -0.001293758183044465
-0.033780839425483745   -0.08100219297546418   -0.0019840887510291995
-0.023324707756843633   -0.08110496898266853   -0.0016425691281335226
-0.035786443697117865   -0.0609126021271054   -0.001293758183044465
-0.024745439756067175   -0.061037238208243444   -0.001068298246231528
-0.02461643079094864   -0.06118492298834224   -0.0011613750878615087
-0.023324707756843633   -0.08110496898266853   -0.0016425691281335226
-0.035786443697117865   -0.0609126021271054   -0.001293758183044465
-0.02461643079094864   -0.06118492298834224   -0.0011613750878615087
-0.033780839425483745   -0.08100219297546418   -0.0019840887510291995
-0.023324707756843633   -0.08110496898266853   -0.0016425691281335226
-0.024745439756067175   -0.061037238208243444   -0.001068298246231528
-0.03384578740310622   -0.08090062489671114   -0.001829665926186053
-0.023429680417620464   -0.08099597017634176   -0.0015245991467879487
-0.024745439756067175   -0.061037238208243444   -0.001068298246231528
-0.035786443697117865   -0.0609126021271054   -0.001293758183044465
-0.03384578740310622   -0.08090062489671114   -0.001829665926186053
-0.03588604120947451   -0.060808249622076815   -0.0011708508696015676
-0.023429680417620464   -0.08099597017634176   -0.0015245991467879487
-0.03391689490687118   -0.08082796285442843   -0.0016620711395887206
-0.03588604120947451   -0.060808249622076815   -0.0011708508696015676
-0.03384578740310622   -0.08090062489671114   -0.001829665926186053
-0.023429680417620464   -0.08099597017634176   -0.0015245991467879487
-0.03588604120947451   -0.060808249622076815   -0.0011708508696015676
-0.024874908948458806   -0.060900156597294516   -0.0009654260141887287
-0.024745439756067175   -0.061037238208243444   -0.001068298246231528
-0.023429680417620464   -0.08099597017634176   -0.0015245991467879487
-0.03588604120947451   -0.060808249622076815   -0.0011708508696015676
-0.024745439756067175   -0.061037238208243444   -0.001068298246231528
-0.03384578740310622   -0.08090062489671114   -0.001829665926186053
-0.03367434538591707   -0.08112668806511977   -0.0021276002786403876
-0.035553889887427956   -0.06114978941738409   -0.0015092902684440545
-0.045014612369600256   -0.08078804214483631   -0.0023553811980696966
-0.033780839425483745   -0.08100219297546418   -0.0019840887510291995
-0.035553889887427956   -0.06114978941738409   -0.0015092902684440545
-0.04728924410588531   -0.060922442003845126   -0.001706893090242167
-0.045014612369600256   -0.08078804214483631   -0.0023553811980696966
-0.04731119998209843   -0.060824870878486814   -0.0015931365714166232
-0.033780839425483745   -0.08100219297546418   -0.0019840887510291995
-0.04493900806440121   -0.08068285364414948   -0.002164664308954209
-0.04731119998209843   -0.060824870878486814   -0.0015931365714166232
-0.045014612369600256   -0.08078804214483631   -0.0023553811980696966
-0.033780839425483745   -0.08100219297546418   -0.0019840887510291995
-0.04731119998209843   -0.060824870878486814   -0.0015931365714166232
-0.03568599123839209   -0.06102811958481518   -0.0014058184120847286
-0.035553889887427956   -0.06114978941738409   -0.0015092902684440545
-0.033780839425483745   -0.08100219297546418   -0.0019840887510291995
-0.04731119998209843   -0.060824870878486814   -0.0015931365714166232
-0.035553889887427956   -0.06114978941738409   -0.0015092902684440545
-0.045014612369600256   -0.08078804214483631   -0.0023553811980696966
-0.033780839425483745   -0.08100219297546418   -0.0019840887510291995
-0.03568599123839209   -0.06102811958481518   -0.0014058184120847286
-0.04493900806440121   -0.08068285364414948   -0.002164664308954209
-0.03384578740310622   -0.08090062489671114   -0.001829665926186053
-0.03568599123839209   -0.06102811958481518   -0.0014058184120847286
-0.04731119998209843   -0.060824870878486814   -0.0015931365714166232
-0.04493900806440121   -0.08068285364414948   -0.002164664308954209
-0.04733346942716705   -0.06072586747743393   -0.0014620646494355799
-0.03384578740310622   -0.08090062489671114   -0.001829665926186053
-0.04487742995964841   -0.08059731709027179   -0.0019539274436069574
-0.04733346942716705   -0.06072586747743393   -0.0014620646494355799
-0.04493900806440121   -0.08068285364414948   -0.002164664308954209
-0.03384578740310622   -0.08090062489671114   -0.001829665926186053
-0.04733346942716705   -0.06072586747743393   -0.0014620646494355799
-0.035786443697117865   -0.0609126021271054   -0.001293758183044465
-0.03568599123839209   -0.06102811958481518   -0.0014058184120847286
-0.03384578740310622   -0.08090062489671114   -0.001829665926186053
-0.04733346942716705   -0.06072586747743393   -0.0014620646494355799
-0.03568599123839209   -0.06102811958481518   -0.0014058184120847286
-0.04493900806440121   -0.08068285364414948   -0.002164664308954209
-0.03384578740310622   -0.08090062489671114   -0.001829665926186053
-0.035786443697117865   -0.0609126021271054   -0.001293758183044465
-0.04487742995964841   -0.08059731709027179   -0.0019539274436069574
-0.03391689490687118   -0.08082796285442843   -0.0016620711395887206
-0.035786443697117865   -0.0609126021271054   -0.001293758183044465
-0.04733346942716705   -0.06072586747743393   -0.0014620646494355799
-0.04487742995964841   -0.08059731709027179   -0.0019539274436069574
-0.047290228550947916   -0.060659257242843316   -0.0013157448755803476
-0.03391689490687118   -0.08082796285442843   -0.0016620711395887206
-0.044727228646658596   -0.08056809705660038   -0.001725457071363895
-0.047290228550947916   -0.060659257242843316   -0.0013157448755803476
-0.04487742995964841   -0.08059731709027179   -0.0019539274436069574
-0.03391689490687118   -0.08082796285442843   -0.0016620711395887206
-0.047290228550947916   -0.060659257242843316   -0.0013157448755803476
-0.03588604120947451   -0.060808249622076815   -0.0011708508696015676
-0.035786443697117865   -0.0609126021271054   -0.001293758183044465
-0.03391689490687118   -0.08082796285442843   -0.0016620711395887206
-0.047290228550947916   -0.060659257242843316   -0.0013157448755803476
-0.035786443697117865   -0.0609126021271054   -0.001293758183044465
-0.04487742995964841   -0.08059731709027179   -0.0019539274436069574
0.00912941807573726   -0.06170955588074738   -8.782269684816665e-05
0.008169791745271967   -0.04115061359208507   0.0002512346562843245
-0.0025408058464265275   -0.06160564250587574   -0.0005375987340303914
0.00898315702187938   -0.06144712328733202   -7.82249340420627e-05
0.008169791745271967   -0.04115061359208507   0.0002512346562843245
-0.00357782982851298   -0.04095570003040768   -0.00010744552027709284
-0.0025408058464265275   -0.06160564250587574   -0.0005375987340303914
-0.003740495737403511   -0.040747780465351095   -2.2893023170097777e-05
0.00898315702187938   -0.06144712328733202   -7.82249340420627e-05
-0.0026774256421209664   -0.06137633111681524   -0.0004966984604781082
-0.003740495737403511   -0.040747780465351095   -2.2893023170097777e-05
-0.0025408058464265275   -0.06160564250587574   -0.0005375987340303914
0.00898315702187938   -0.06144712328733202   -7.82249340420627e-05
-0.003740495737403511   -0.040747780465351095   -2.2893023170097777e-05
0.00791268985412865   -0.04090033039519341   0.00035723593396230275
0.008169791745271967   -0.04115061359208507   0.0002512346562843245
0.00898315702187938   -0.06144712328733202   -7.82249340420627e-05
-0.003740495737403511   -0.040747780465351095   -2.2893023170097777e-05
0.008169791745271967   -0.04115061359208507   0.0002512346562843245
-0.0025408058464265275   -0.06160564250587574   -0.0005375987340303914
0.00898315702187938   -0.06144712328733202   -7.82249340420627e-05
0.00791268985412865   -0.04090033039519341   0.00035723593396230275
-0.0026774256421209664   -0.06137633111681524   -0.0004966984604781082
0.008804620332750781   -0.06121185163947916   -4.5672407748949004e-05
0.00791268985412865   -0.04090033039519341   0.00035723593396230275
-0.003740495737403511   -0.040747780465351095   -2.2893023170097777e-05
-0.0026774256421209664   -0.06137633111681524   -0.0004966984604781082
-0.0039306356564238224   -0.040528145512744404   7.658295090951117e-05
0.008804620332750781   -0.06121185163947916   -4.5672407748949004e-05
-0.0028337363027630584   -0.06115939214733485   -0.0004445752170074449
-0.0039306356564238224   -0.040528145512744404   7.658295090951117e-05
-0.0026774256421209664   -0.06137633111681524   -0.0004966984604781082
0.008804620332750781   -0.06121185163947916   -4.5672407748949004e-05
-0.0039306356564238224   -0.040528145512744404   7.658295090951117e-05
0.007626494321335321   -0.04065130291386875   0.0005087977030841382
0.00791268985412865   -0.04090033039519341   0.00035723593396230275
0.008804620332750781   -0.06121185163947916   -4.5672407748949004e-05
-0.0039306356564238224   -0.040528145512744404   7.658295090951117e-05
0.00791268985412865   -0.04090033039519341   0.00035723593396230275
-0.0026774256421209664   -0.06137633111681524   -0.0004966984604781082
0.008804620332750781   -0.06121185163947916   -4.5672407748949004e-05
0.007626494321335321   -0.04065130291386875   0.0005087977030841382
-0.0028337363027630584   -0.06115939214733485   -0.0004445752170074449
0.008569537510818886   -0.060965361890441265   8.788972035565902e-06
0.007626494321335321   -0.04065130291386875   0.0005087977030841382
-0.0039306356564238224   -0.040528145512744404   7.658295090951117e-05
-0.0028337363027630584   -0.06115939214733485   -0.0004445752170074449
-0.004127134823911267   -0.04029476480576855   0.00019075911329982184
0.008569537510818886   -0.060965361890441265   8.788972035565902e-06
-0.0030089308110525202   -0.060951882699449345   -0.00037841116187197
-0.004127134823911267   -0.04029476480576855   0.00019075911329982184
-0.0028337363027630584   -0.06115939214733485   -0.0004445752170074449
0.008569537510818886   -0.060965361890441265   8.788972035565902e-06
-0.004127134823911267   -0.04029476480576855   0.00019075911329982184
0.00727687557465255   -0.040345569607723675   0.0006754513196435144
0.007626494321335321   -0.04065130291386875   0.0005087977030841382
0.008569537510818886   -0.060965361890441265   8.788972035565902e-06
-0.004127134823911267   -0.04029476480576855   0.00019075911329982184
0.007626494321335321   -0.04065130291386875   0.0005087977030841382
-0.0028337363027630584   -0.06115939214733485   -0.0004445752170074449
-0.0025408058464265275   -0.06160564250587574   -0.0005375987340303914
-0.00357782982851298   -0.04095570003040768   -0.00010744552027709284
-0.013599279630676253   -0.061485846875870005   -0.0009193223236327509
-0.0026774256421209664   -0.06137633111681524   -0.0004966984604781082
-0.00357782982851298   -0.04095570003040768   -0.00010744552027709284
-0.014642851161183176   -0.04090531760793873   -0.00045371856950295015
-0.013599279630676253   -0.061485846875870005   -0.0009193223236327509
-0.014789598116289387   -0.04072342915783249   -0.0003754200783638443
-0.0026774256421209664   -0.06137633111681524   -0.0004966984604781082
-0.013738310786220653   -0.061293577701685684   -0.0008575076165476314
-0.014789598116289387   -0.04072342915783249   -0.0003754200783638443
-0.013599279630676253   -0.061485846875870005   -0.0009193223236327509
-0.0026774256421209664   -0.06137633111681524   -0.0004966984604781082
-0.014789598116289387   -0.04072342915783249   -0.0003754200783638443
-0.003740495737403511   -0.040747780465351095   -2.2893023170097777e-05
-0.00357782982851298   -0.04095570003040768   -0.00010744552027709284
-0.0026774256421209664   -0.06137633111681524   -0.0004966984604781082
-0.014789598116289387   -0.04072342915783249   -0.0003754200783638443
-0.00357782982851298   -0.04095570003040768   -0.00010744552027709284
-0.013599279630676253   -0.061485846875870005   -0.0009193223236327509
-0.0026774256421209664   -0.06137633111681524   -0.0004966984604781082
-0.003740495737403511   -0.040747780465351095   -2.2893023170097777e-05
-0.013738310786220653   -0.061293577701685684   -0.0008575076165476314
-0.0028337363027630584   -0.06115939214733485   -0.0004445752170074449
-0.003740495737403511   -0.040747780465351095   -2.2893023170097777e-05
-0.014789598116289387   -0.04072342915783249   -0.0003754200783638443
-0.013738310786220653   -0.061293577701685684   -0.0008575076165476314
-0.014941327652109178   -0.040534155512662075   -0.00028942488268516285
-0.0028337363027630584   -0.06115939214733485   -0.0004445752170074449
-0.013880414711381328   -0.061110923591740376   -0.0007850165377987682
-0.014941327652109178   -0.040534155512662075   -0.00028942488268516285
-0.013738310786220653   -0.061293577701685684   -0.0008575076165476314
-0.0028337363027630584   -0.06115939214733485   -0.0004445752170074449
-0.014941327652109178   -0.040534155512662075   -0.00028942488268516285
-0.0039306356564238224   -0.040528145512744404   7.658295090951117e-05
-0.003740495737403511   -0.040747780465351095   -2.2893023170097777e-05
-0.0028337363027630584   -0.06115939214733485   -0.0004445752170074449
-0.014941327652109178   -0.040534155512662075   -0.00028942488268516285
-0.003740495737403511   -0.040747780465351095   -2.2893023170097777e-05
-0.013738310786220653   -0.061293577701685684   -0.0008575076165476314
-0.0028337363027630584   -0.06115939214733485   -0.0004445752170074449
-0.0039306356564238224   -0.040528145512744404   7.658295090951117e-05
-0.013880414711381328   -0.061110923591740376   -0.0007850165377987682
-0.0030089308110525202   -0.060951882699449345   -0.00037841116187197
-0.0039306356564238224   -0.040528145512744404   7.658295090951117e-05
-0.014941327652109178   -0.040534155512662075   -0.00028942488268516285
-0.013880414711381328   -0.061110923591740376   -0.0007850165377987682
-0.015099217073962985   -0.04034078063491343   -0.00019417843238688794
-0.0030089308110525202   -0.060951882699449345   -0.00037841116187197
-0.014031492184892604   -0.06094065490758549   -0.0007017190663881758
-0.015099217073962985   -0.04034078063491343   -0.00019417843238688794
-0.013880414711381328   -0.061110923591740376   -0.0007850165377987682
-0.0030089308110525202   -0.060951882699449345   -0.00037841116187197
-0.015099217073962985   -0.04034078063491343   -0.00019417843238688794
-0.004127134823911267   -0.04029476480576855   0.00019075911329982184
-0.0039306356564238224   -0.040528145512744404   7.658295090951117e-05
-0.0030089308110525202   -0.060951882699449345   -0.00037841116187197
-0.015099217073962985   -0.04034078063491343   -0.00019417843238688794
-0.0039306356564238224   -0.040528145512744404   7.658295090951117e-05
-0.013880414711381328   -0.061110923591740376   -0.0007850165377987682
-0.013599279630676253   -0.061485846875870005   -0.0009193223236327509
-0.014642851161183176   -0.04090531760793873   -0.00045371856950295015
-0.024478537621414463   -0.06134279273870121   -0.0012441414911327736
-0.013738310786220653   -0.061293577701685684   -0.0008575076165476314
-0.014642851161183176   -0.04090531760793873   -0.00045371856950295015
-0.025596250277419415   -0.04089139831909594   -0.0007670539893216581
-0.024478537621414463   -0.06134279273870121   -0.0012441414911327736
-0.025736397357830777   -0.04073160771273795   -0.0006926765196062042
-0.013738310786220653   -0.061293577701685684   -0.0008575076165476314
-0.02461643079094864   -0.06118492298834224   -0.0011613750878615087
-0.025736397357830777   -0.04073160771273795   -0.0006926765196062042
-0.024478537621414463   -0.06134279273870121   -0.0012441414911327736
-0.013738310786220653   -0.061293577701685684   -0.0008575076165476314
-0.025736397357830777   -0.04073160771273795   -0.0006926765196062042
-0.014789598116289387   -0.04072342915783249   -0.0003754200783638443
-0.014642851161183176   -0.04090531760793873   -0.00045371856950295015
-0.013738310786220653   -0.061293577701685684   -0.0008575076165476314
-0.025736397357830777   -0.04073160771273795   -0.0006926765196062042
-0.014642851161183176   -0.04090531760793873   -0.00045371856950295015
-0.024478537621414463   -0.06134279273870121   -0.0012441414911327736
-0.013738310786220653   -0.061293577701685684   -0.0008575076165476314
-0.014789598116289387   -0.04072342915783249   -0.0003754200783638443
-0.02461643079094864   -0.06118492298834224   -0.0011613750878615087
-0.013880414711381328   -0.061110923591740376   -0.0007850165377987682
-0.014789598116289387   -0.04072342915783249   -0.0003754200783638443
-0.025736397357830777   -0.04073160771273795   -0.0006926765196062042
-0.02461643079094864   -0.06118492298834224   -0.0011613750878615087
-0.025869893900573145   -0.04056880379411428   -0.0006115809544747932
-0.013880414711381328   -0.061110923591740376   -0.0007850165377987682
-0.024745439756067175   -0.061037238208243444   -0.001068298246231528
-0.025869893900573145   -0.04056880379411428   -0.0006115809544747932
-0.02461643079094864   -0.06118492298834224   -0.0011613750878615087
-0.013880414711381328   -0.061110923591740376   -0.0007850165377987682
-0.025869893900573145   -0.04056880379411428   -0.0006115809544747932
-0.014941327652109178   -0.040534155512662075   -0.00028942488268516285
-0.014789598116289387   -0.04072342915783249   -0.0003754200783638443
-0.013880414711381328   -0.061110923591740376   -0.0007850165377987682
-0.025869893900573145   -0.04056880379411428   -0.0006115809544747932
-0.014789598116289387   -0.04072342915783249   -0.0003754200783638443
-0.02461643079094864   -0.06118492298834224   -0.0011613750878615087
-0.013880414711381328   -0.061110923591740376   -0.0007850165377987682
-0.014941327652109178   -0.040534155512662075   -0.00028942488268516285
-0.024745439756067175   -0.061037238208243444   -0.001068298246231528
-0.014031492184892604   -0.06094065490758549   -0.0007017190663881758
-0.014941327652109178   -0.040534155512662075   -0.00028942488268516285
-0.025869893900573145   -0.04056880379411428   -0.0006115809544747932
-0.024745439756067175   -0.061037238208243444   -0.001068298246231528
-0.026002039525463542   -0.04040207713598939   -0.000524159478822656
-0.014031492184892604   -0.06094065490758549   -0.0007017190663881758
-0.024874908948458806   -0.060900156597294516   -0.0009654260141887287
-0.026002039525463542   -0.04040207713598939   -0.000524159478822656
-0.024745439756067175   -0.061037238208243444   -0.001068298246231528
-0.014031492184892604   -0.06094065490758549   -0.0007017190663881758
-0.026002039525463542   -0.04040207713598939   -0.000524159478822656
-0.015099217073962985   -0.04034078063491343   -0.00019417843238688794
-0.014941327652109178   -0.040534155512662075   -0.00028942488268516285
-0.014031492184892604   -0.06094065490758549   -0.0007017190663881758
-0.026002039525463542   -0.04040207713598939   -0.000524159478822656
-0.014941327652109178   -0.040534155512662075   -0.00028942488268516285
-0.024745439756067175   -0.061037238208243444   -0.001068298246231528
-0.024478537621414463   -0.06134279273870121   -0.0012441414911327736
-0.025596250277419415   -0.04089139831909594   -0.0007670539893216581
-0.035553889887427956   -0.06114978941738409   -0.0015092902684440545
-0.02461643079094864   -0.06118492298834224   -0.0011613750878615087
-0.025596250277419415   -0.04089139831909594   -0.0007670539893216581
-0.03678141216564636   -0.040828207419110404   -0.001030923339759821
-0.035553889887427956   -0.06114978941738409   -0.0015092902684440545
-0.03691502255044353   -0.040697492879882585   -0.0009608019912756325
-0.02461643079094864   -0.06118492298834224   -0.0011613750878615087
-0.03568599123839209   -0.06102811958481518   -0.0014058184120847286
-0.03691502255044353   -0.040697492879882585   -0.0009608019912756325
-0.035553889887427956   -0.06114978941738409   -0.0015092902684440545
-0.02461643079094864   -0.06118492298834224   -0.0011613750878615087
-0.03691502255044353   -0.040697492879882585   -0.0009608019912756325
-0.025736397357830777   -0.04073160771273795   -0.0006926765196062042
-0.025596250277419415   -0.04089139831909594   -0.0007670539893216581
-0.02461643079094864   -0.06118492298834224   -0.0011613750878615087
-0.03691502255044353   -0.040697492879882585   -0.0009608019912756325
-0.025596250277419415   -0.04089139831909594   -0.0007670539893216581
-0.035553889887427956   -0.06114978941738409   -0.0015092902684440545
-0.02461643079094864   -0.06118492298834224   -0.0011613750878615087
-0.025736397357830777   -0.04073160771273795   -0.0006926765196062042
-0.03568599123839209   -0.06102811958481518   -0.0014058184120847286
-0.024745439756067175   -0.061037238208243444   -0.001068298246231528
-0.025736397357830777   -0.04073160771273795   -0.0006926765196062042
-0.03691502255044353   -0.040697492879882585   -0.0009608019912756325
-0.03568599123839209   -0.06102811958481518   -0.0014058184120847286
-0.0370283906186805   -0.0405595649763004   -0.0008859455184544242
-0.024745439756067175   -0.061037238208243444   -0.001068298246231528
-0.035786443697117865   -0.0609126021271054   -0.001293758183044465
-0.0370283906186805   -0.0405595649763004   -0.0008859455184544242
-0.03568599123839209   -0.06102811958481518   -0.0014058184120847286
-0.024745439756067175   -0.061037238208243444   -0.001068298246231528
-0.0370283906186805   -0.0405595649763004   -0.0008859455184544242
-0.025869893900573145   -0.04056880379411428   -0.0006115809544747932
-0.025736397357830777   -0.04073160771273795   -0.0006926765196062042
-0.024745439756067175   -0.061037238208243444   -0.001068298246231528
-0.0370283906186805   -0.0405595649763004   -0.0008859455184544242
-0.025736397357830777   -0.04073160771273795   -0.0006926765196062042
-0.03568599123839209   -0.06102811958481518   -0.0014058184120847286
-0.024745439756067175   -0.061037238208243444   -0.001068298246231528
-0.025869893900573145   -0.04056880379411428   -0.0006115809544747932
-0.035786443697117865   -0.0609126021271054   -0.001293758183044465
-0.024874908948458806   -0.060900156597294516   -0.0009654260141887287
-0.025869893900573145   -0.04056880379411428   -0.0006115809544747932
-0.0370283906186805   -0.0405595649763004   -0.0008859455184544242
-0.035786443697117865   -0.0609126021271054   -0.001293758183044465
-0.03713554924385541   -0.040417900999468924   -0.0008042576471820304
-0.024874908948458806   -0.060900156597294516   -0.0009654260141887287
-0.03588604120947451   -0.060808249622076815   -0.0011708508696015676
-0.03713554924385541   -0.040417900999468924   -0.0008042576471820304
-0.035786443697117865   -0.0609126021271054   -0.001293758183044465
-0.024874908948458806   -0.060900156597294516   -0.0009654260141887287
-0.03713554924385541   -0.040417900999468924   -0.0008042576471820304
-0.026002039525463542   -0.04040207713598939   -0.000524159478822656
-0.025869893900573145   -0.04056880379411428   -0.0006115809544747932
-0.024874908948458806   -0.060900156597294516   -0.0009654260141887287
-0.03713554924385541   -0.040417900999468924   -0.0008042576471820304
-0.025869893900573145   -0.04056880379411428   -0.0006115809544747932
-0.035786443697117865   -0.0609126021271054   -0.001293758183044465
-0.035553889887427956   -0.06114978941738409   -0.0015092902684440545
-0.03678141216564636   -0.040828207419110404   -0.001030923339759821
-0.04728924410588531   -0.060922442003845126   -0.001706893090242167
-0.03568599123839209   -0.06102811958481518   -0.0014058184120847286
-0.03678141216564636   -0.040828207419110404   -0.001030923339759821
-0.048494442636506256   -0.04072456283270324   -0.0012272412887643163
-0.04728924410588531   -0.060922442003845126   -0.001706893090242167
-0.04857833707267058   -0.04061436135958321   -0.0011751588160906093
-0.03568599123839209   -0.06102811958481518   -0.0014058184120847286
-0.04731119998209843   -0.060824870878486814   -0.0015931365714166232
-0.04857833707267058   -0.04061436135958321   -0.0011751588160906093
-0.04728924410588531   -0.060922442003845126   -0.001706893090242167
-0.03568599123839209   -0.06102811958481518   -0.0014058184120847286
-0.04857833707267058   -0.04061436135958321   -0.0011751588160906093
-0.03691502255044353   -0.040697492879882585   -0.0009608019912756325
-0.03678141216564636   -0.040828207419110404   -0.001030923339759821
-0.03568599123839209   -0.06102811958481518   -0.0014058184120847286
-0.04857833707267058   -0.04061436135958321   -0.0011751588160906093
-0.03678141216564636   -0.040828207419110404   -0.001030923339759821
-0.04728924410588531   -0.060922442003845126   -0.001706893090242167
-0.03568599123839209   -0.06102811958481518   -0.0014058184120847286
-0.03691502255044353   -0.040697492879882585   -0.0009608019912756325
-0.04731119998209843   -0.060824870878486814   -0.0015931365714166232
-0.035786443697117865   -0.0609126021271054   -0.001293758183044465
-0.03691502255044353   -0.040697492879882585   -0.0009608019912756325
-0.04857833707267058   -0.04061436135958321   -0.0011751588160906093
-0.04731119998209843   -0.060824870878486814   -0.0015931365714166232
-0.04865504829882464   -0.0404898625654309   -0.0011113877006330608
-0.035786443697117865   -0.0609126021271054   -0.001293758183044465
-0.04733346942716705   -0.06072586747743393   -0.0014620646494355799
-0.04865504829882464   -0.0404898625654309   -0.0011113877006330608
-0.04731119998209843   -0.060824870878486814   -0.0015931365714166232
-0.035786443697117865   -0.0609126021271054   -0.001293758183044465
-0.04865504829882464   -0.0404898625654309   -0.0011113877006330608
-0.0370283906186805   -0.0405595649763004   -0.0008859455184544242
-0.03691502255044353   -0.040697492879882585   -0.0009608019912756325
-0.035786443697117865   -0.0609126021271054   -0.001293758183044465
-0.04865504829882464   -0.0404898625654309   -0.0011113877006330608
-0.03691502255044353   -0.040697492879882585   -0.0009608019912756325
-0.04731119998209843   -0.060824870878486814   -0.0015931365714166232
-0.035786443697117865   -0.0609126021271054   -0.001293758183044465
-0.0370283906186805   -0.0405595649763004   -0.0008859455184544242
-0.04733346942716705   -0.06072586747743393   -0.0014620646494355799
-0.03588604120947451   -0.060808249622076815   -0.0011708508696015676
-0.0370283906186805   -0.0405595649763004   -0.0008859455184544242
-0.04865504829882464   -0.0404898625654309   -0.0011113877006330608
-0.04733346942716705   -0.06072586747743393   -0.0014620646494355799
-0.04869318513483768   -0.04037502154844118   -0.0010388903855468254
-0.03588604120947451   -0.060808249622076815   -0.0011708508696015676
-0.047290228550947916   -0.060659257242843316   -0.0013157448755803476
-0.04869318513483768   -0.04037502154844118   -0.0010388903855468254
-0.04733346942716705   -0.06072586747743393   -0.0014620646494355799
-0.03588604120947451   -0.060808249622076815   -0.0011708508696015676
-0.04869318513483768   -0.04037502154844118   -0.0010388903855468254
-0.03713554924385541   -0.040417900999468924   -0.0008042576471820304
-0.0370283906186805   -0.0405595649763004   -0.0008859455184544242
-0.03588604120947451   -0.060808249622076815   -0.0011708508696015676
-0.04869318513483768   -0.04037502154844118   -0.0010388903855468254
-0.0370283906186805   -0.0405595649763004   -0.0008859455184544242
-0.04733346942716705   -0.06072586747743393   -0.0014620646494355799
0.008169791745271967   -0.04115061359208507   0.0002512346562843245
0.0057153463552851525   -0.02064855821659654   0.0002688993024485775
-0.00357782982851298   -0.04095570003040768   -0.00010744552027709284
0.00791268985412865   -0.04090033039519341   0.00035723593396230275
0.0057153463552851525   -0.02064855821659654   0.0002688993024485775
-0.005228784026610874   -0.020378216790068467   0.0001324703002925883
-0.00357782982851298   -0.04095570003040768   -0.00010744552027709284
-0.0053902348869022685   -0.02027193045677157   0.0002493962304733587
0.00791268985412865   -0.04090033039519341   0.00035723593396230275
-0.003740495737403511   -0.040747780465351095   -2.2893023170097777e-05
-0.0053902348869022685   -0.02027193045677157   0.0002493962304733587
-0.00357782982851298   -0.04095570003040768   -0.00010744552027709284
0.00791268985412865   -0.04090033039519341   0.00035723593396230275
-0.0053902348869022685   -0.02027193045677157   0.0002493962304733587
0.005212528217571295   -0.020383295087345127   0.000558876172035528
0.0057153463552851525   -0.02064855821659654   0.0002688993024485775
0.00791268985412865   -0.04090033039519341   0.00035723593396230275
-0.0053902348869022685   -0.02027193045677157   0.0002493962304733587
0.0057153463552851525   -0.02064855821659654   0.0002688993024485775
-0.00357782982851298   -0.04095570003040768   -0.00010744552027709284
0.00791268985412865   -0.04090033039519341   0.00035723593396230275
0.005212528217571295   -0.020383295087345127   0.000558876172035528
-0.003740495737403511   -0.040747780465351095   -2.2893023170097777e-05
0.007626494321335321   -0.04065130291386875   0.0005087977030841382
0.005212528217571295   -0.020383295087345127   0.000558876172035528
-0.0053902348869022685   -0.02027193045677157   0.0002493962304733587
-0.003740495737403511   -0.040747780465351095   -2.2893023170097777e-05
-0.005601798096559893   -0.020084753889356974   0.00039119799963385847
0.007626494321335321   -0.04065130291386875   0.0005087977030841382
-0.0039306356564238224   -0.040528145512744404   7.658295090951117e-05
-0.005601798096559893   -0.020084753889356974   0.00039119799963385847
-0.003740495737403511   -0.040747780465351095   -2.2893023170097777e-05
0.007626494321335321   -0.04065130291386875   0.0005087977030841382
-0.005601798096559893   -0.020084753889356974   0.00039119799963385847
0.0049178100148356855   -0.020165322720376733   0.0007756230520588977
0.005212528217571295   -0.020383295087345127   0.000558876172035528
0.007626494321335321   -0.04065130291386875   0.0005087977030841382
-0.005601798096559893   -0.020084753889356974   0.00039119799963385847
0.005212528217571295   -0.020383295087345127   0.000558876172035528
-0.003740495737403511   -0.040747780465351095   -2.2893023170097777e-05
0.007626494321335321   -0.04065130291386875   0.0005087977030841382
0.0049178100148356855   -0.020165322720376733   0.0007756230520588977
-0.0039306356564238224   -0.040528145512744404   7.658295090951117e-05
0.00727687557465255   -0.040345569607723675   0.0006754513196435144
0.0049178100148356855   -0.020165322720376733   0.0007756230520588977
-0.005601798096559893   -0.020084753889356974   0.00039119799963385847
-0.0039306356564238224   -0.040528145512744404   7.658295090951117e-05
-0.005779392720874674   -0.019883118042339422   0.0005160621421308949
0.00727687557465255   -0.040345569607723675   0.0006754513196435144
-0.004127134823911267   -0.04029476480576855   0.00019075911329982184
-0.005779392720874674   -0.019883118042339422   0.0005160621421308949
-0.0039306356564238224   -0.040528145512744404   7.658295090951117e-05
0.00727687557465255   -0.040345569607723675   0.0006754513196435144
-0.005779392720874674   -0.019883118042339422   0.0005160621421308949
0.004540567206047586   -0.01983311147968095   0.0010236434483831209
0.0049178100148356855   -0.020165322720376733   0.0007756230520588977
0.00727687557465255   -0.040345569607723675   0.0006754513196435144
-0.005779392720874674   -0.019883118042339422   0.0005160621421308949
0.0049178100148356855   -0.020165322720376733   0.0007756230520588977
-0.0039306356564238224   -0.040528145512744404   7.658295090951117e-05
-0.00357782982851298   -0.04095570003040768   -0.00010744552027709284
-0.005228784026610874   -0.020378216790068467   0.0001324703002925883
-0.014642851161183176   -0.04090531760793873   -0.00045371856950295015
-0.003740495737403511   -0.040747780465351095   -2.2893023170097777e-05
-0.005228784026610874   -0.020378216790068467   0.0001324703002925883
-0.01565293876851688   -0.020677549662582877   -0.00014444621362776918
-0.014642851161183176   -0.04090531760793873   -0.00045371856950295015
-0.0158010463903137   -0.020516502930195822   -6.184817678809624e-05
-0.003740495737403511   -0.040747780465351095   -2.2893023170097777e-05
-0.014789598116289387   -0.04072342915783249   -0.0003754200783638443
-0.0158010463903137   -0.020516502930195822   -6.184817678809624e-05
-0.014642851161183176   -0.04090531760793873   -0.00045371856950295015
-0.003740495737403511   -0.040747780465351095   -2.2893023170097777e-05
-0.0158010463903137   -0.020516502930195822   -6.184817678809624e-05
-0.0053902348869022685   -0.02027193045677157   0.0002493962304733587
-0.005228784026610874   -0.020378216790068467   0.0001324703002925883
-0.003740495737403511   -0.040747780465351095   -2.2893023170097777e-05
-0.0158010463903137   -0.020516502930195822   -6.184817678809624e-05
-0.005228784026610874   -0.020378216790068467   0.0001324703002925883
-0.014642851161183176   -0.04090531760793873   -0.00045371856950295015
-0.003740495737403511   -0.040747780465351095   -2.2893023170097777e-05
-0.0053902348869022685   -0.02027193045677157   0.0002493962304733587
-0.014789598116289387   -0.04072342915783249   -0.0003754200783638443
-0.0039306356564238224   -0.040528145512744404   7.658295090951117e-05
-0.0053902348869022685   -0.02027193045677157   0.0002493962304733587
-0.0158010463903137   -0.020516502930195822   -6.184817678809624e-05
-0.014789598116289387   -0.04072342915783249   -0.0003754200783638443
-0.01595577421867207   -0.02033505000157522   2.5415523535795553e-05
-0.0039306356564238224   -0.040528145512744404   7.658295090951117e-05
-0.014941327652109178   -0.040534155512662075   -0.00028942488268516285
-0.01595577421867207   -0.02033505000157522   2.5415523535795553e-05
-0.014789598116289387   -0.04072342915783249   -0.0003754200783638443
-0.0039306356564238224   -0.040528145512744404   7.658295090951117e-05
-0.01595577421867207   -0.02033505000157522   2.5415523535795553e-05
-0.005601798096559893   -0.020084753889356974   0.00039119799963385847
-0.0053902348869022685   -0.02027193045677157   0.0002493962304733587
-0.0039306356564238224   -0.040528145512744404   7.658295090951117e-05
-0.01595577421867207   -0.02033505000157522   2.5415523535795553e-05
-0.0053902348869022685   -0.02027193045677157   0.0002493962304733587
-0.014789598116289387   -0.04072342915783249   -0.0003754200783638443
-0.0039306356564238224   -0.040528145512744404   7.658295090951117e-05
-0.005601798096559893   -0.020084753889356974   0.00039119799963385847
-0.014941327652109178   -0.040534155512662075   -0.00028942488268516285
-0.004127134823911267   -0.04029476480576855   0.00019075911329982184
-0.005601798096559893   -0.020084753889356974   0.00039119799963385847
-0.01595577421867207   -0.02033505000157522   2.5415523535795553e-05
-0.014941327652109178   -0.040534155512662075   -0.00028942488268516285
-0.01610259210807968   -0.020136182225567022   0.00012156385646909435
-0.004127134823911267   -0.04029476480576855   0.00019075911329982184
-0.015099217073962985   -0.04034078063491343   -0.00019417843238688794
-0.01610259210807968   -0.020136182225567022   0.00012156385646909435
-0.014941327652109178   -0.040534155512662075   -0.00028942488268516285
-0.004127134823911267   -0.04029476480576855   0.00019075911329982184
-0.01610259210807968   -0.020136182225567022   0.00012156385646909435
-0.005779392720874674   -0.019883118042339422   0.0005160621421308949
-0.005601798096559893   -0.020084753889356974   0.00039119799963385847
-0.004127134823911267   -0.04029476480576855   0.00019075911329982184
-0.01610259210807968   -0.020136182225567022   0.00012156385646909435
-0.005601798096559893   -0.020084753889356974   0.00039119799963385847
-0.014941327652109178   -0.040534155512662075   -0.00028942488268516285
-0.014642851161183176   -0.04090531760793873   -0.00045371856950295015
-0.01565293876851688   -0.020677549662582877   -0.00014444621362776918
-0.025596250277419415   -0.04089139831909594   -0.0007670539893216581
-0.014789598116289387   -0.04072342915783249   -0.0003754200783638443
-0.01565293876851688   -0.020677549662582877   -0.00014444621362776918
-0.026336167904424723   -0.020911329048156395   -0.00045039326147397935
-0.025596250277419415   -0.04089139831909594   -0.0007670539893216581
-0.026468946638533292   -0.020746099117633757   -0.0003865778402781341
-0.014789598116289387   -0.04072342915783249   -0.0003754200783638443
-0.025736397357830777   -0.04073160771273795   -0.0006926765196062042
-0.026468946638533292   -0.020746099117633757   -0.0003865778402781341
-0.025596250277419415   -0.04089139831909594   -0.0007670539893216581
-0.014789598116289387   -0.04072342915783249   -0.0003754200783638443
-0.026468946638533292   -0.020746099117633757   -0.0003865778402781341
-0.0158010463903137   -0.020516502930195822   -6.184817678809624e-05
-0.01565293876851688   -0.020677549662582877   -0.00014444621362776918
-0.014789598116289387   -0.04072342915783249   -0.0003754200783638443
-0.026468946638533292   -0.020746099117633757   -0.0003865778402781341
-0.01565293876851688   -0.020677549662582877   -0.00014444621362776918
-0.025596250277419415   -0.04089139831909594   -0.0007670539893216581
-0.014789598116289387   -0.04072342915783249   -0.0003754200783638443
-0.0158010463903137   -0.020516502930195822   -6.184817678809624e-05
-0.025736397357830777   -0.04073160771273795   -0.0006926765196062042
-0.014941327652109178   -0.040534155512662075   -0.00028942488268516285
-0.0158010463903137   -0.020516502930195822   -6.184817678809624e-05
-0.026468946638533292   -0.020746099117633757   -0.0003865778402781341
-0.025736397357830777   -0.04073160771273795   -0.0006926765196062042
-0.026595867536489282   -0.020571758898069493   -0.0003230793737836965
-0.014941327652109178   -0.040534155512662075   -0.00028942488268516285
-0.025869893900573145   -0.04056880379411428   -0.0006115809544747932
-0.026595867536489282   -0.020571758898069493   -0.0003230793737836965
-0.025736397357830777   -0.04073160771273795   -0.0006926765196062042
-0.014941327652109178   -0.040534155512662075   -0.00028942488268516285
-0.026595867536489282   -0.020571758898069493   -0.0003230793737836965
-0.01595577421867207   -0.02033505000157522   2.5415523535795553e-05
-0.0158010463903137   -0.020516502930195822   -6.184817678809624e-05
-0.014941327652109178   -0.040534155512662075   -0.00028942488268516285
-0.026595867536489282   -0.020571758898069493   -0.0003230793737836965
-0.0158010463903137   -0.020516502930195822   -6.184817678809624e-05
-0.025736397357830777   -0.04073160771273795   -0.0006926765196062042
-0.014941327652109178   -0.040534155512662075   -0.00028942488268516285
-0.01595577421867207   -0.02033505000157522   2.5415523535795553e-05
-0.025869893900573145   -0.04056880379411428   -0.0006115809544747932
-0.015099217073962985   -0.04034078063491343   -0.00019417843238688794
-0.01595577421867207   -0.02033505000157522   2.5415523535795553e-05
-0.026595867536489282   -0.020571758898069493   -0.0003230793737836965
-0.025869893900573145   -0.04056880379411428   -0.0006115809544747932
-0.026712715310395336   -0.0203831343026136   -0.00025406475038102763
-0.015099217073962985   -0.04034078063491343   -0.00019417843238688794
-0.026002039525463542   -0.04040207713598939   -0.000524159478822656
-0.026712715310395336   -0.0203831343026136   -0.00025406475038102763
-0.025869893900573145   -0.04056880379411428   -0.0006115809544747932
-0.015099217073962985   -0.04034078063491343   -0.00019417843238688794
-0.026712715310395336   -0.0203831343026136   -0.00025406475038102763
-0.01610259210807968   -0.020136182225567022   0.00012156385646909435
-0.01595577421867207   -0.02033505000157522   2.5415523535795553e-05
-0.015099217073962985   -0.04034078063491343   -0.00019417843238688794
-0.026712715310395336   -0.0203831343026136   -0.00025406475038102763
-0.01595577421867207   -0.02033505000157522   2.5415523535795553e-05
-0.025869893900573145   -0.04056880379411428   -0.0006115809544747932
-0.025596250277419415   -0.04089139831909594   -0.0007670539893216581
-0.026336167904424723   -0.020911329048156395   -0.00045039326147397935
-0.03678141216564636   -0.040828207419110404   -0.001030923339759821
-0.025736397357830777   -0.04073160771273795   -0.0006926765196062042
-0.026336167904424723   -0.020911329048156395   -0.00045039326147397935
-0.0373945525203119   -0.021007062942558254   -0.0007330698483371434
-0.03678141216564636   -0.040828207419110404   -0.001030923339759821
-0.037514121489296406   -0.020858346076343647   -0.0006867111194640329
-0.025736397357830777   -0.04073160771273795   -0.0006926765196062042
-0.03691502255044353   -0.040697492879882585   -0.0009608019912756325
-0.037514121489296406   -0.020858346076343647   -0.0006867111194640329
-0.03678141216564636   -0.040828207419110404   -0.001030923339759821
-0.025736397357830777   -0.04073160771273795   -0.0006926765196062042
-0.037514121489296406   -0.020858346076343647   -0.0006867111194640329
-0.026468946638533292   -0.020746099117633757   -0.0003865778402781341
-0.026336167904424723   -0.020911329048156395   -0.00045039326147397935
-0.025736397357830777   -0.04073160771273795   -0.0006926765196062042
-0.037514121489296406   -0.020858346076343647   -0.0006867111194640329
-0.026336167904424723   -0.020911329048156395   -0.00045039326147397935
-0.03678141216564636   -0.040828207419110404   -0.001030923339759821
-0.025736397357830777   -0.04073160771273795   -0.0006926765196062042
-0.026468946638533292   -0.020746099117633757   -0.0003865778402781341
-0.03691502255044353   -0.040697492879882585   -0.0009608019912756325
-0.025869893900573145   -0.04056880379411428   -0.0006115809544747932
-0.026468946638533292   -0.020746099117633757   -0.0003865778402781341
-0.037514121489296406   -0.020858346076343647   -0.0006867111194640329
-0.03691502255044353   -0.040697492879882585   -0.0009608019912756325
-0.03762065948665764   -0.020696605881505077   -0.0006417757407749652
-0.025869893900573145   -0.04056880379411428   -0.0006115809544747932
-0.0370283906186805   -0.0405595649763004   -0.0008859455184544242
-0.03762065948665764   -0.020696605881505077   -0.0006417757407749652
-0.03691502255044353   -0.040697492879882585   -0.0009608019912756325
-0.025869893900573145   -0.04056880379411428   -0.0006115809544747932
-0.03762065948665764   -0.020696605881505077   -0.0006417757407749652
-0.026595867536489282   -0.020571758898069493   -0.0003230793737836965
-0.026468946638533292   -0.020746099117633757   -0.0003865778402781341
-0.025869893900573145   -0.04056880379411428   -0.0006115809544747932
-0.03762065948665764   -0.020696605881505077   -0.0006417757407749652
-0.026468946638533292   -0.020746099117633757   -0.0003865778402781341
-0.03691502255044353   -0.040697492879882585   -0.0009608019912756325
-0.025869893900573145   -0.04056880379411428   -0.0006115809544747932
-0.026595867536489282   -0.020571758898069493   -0.0003230793737836965
-0.0370283906186805   -0.0405595649763004   -0.0008859455184544242
-0.026002039525463542   -0.04040207713598939   -0.000524159478822656
-0.026595867536489282   -0.020571758898069493   -0.0003230793737836965
-0.03762065948665764   -0.020696605881505077   -0.0006417757407749652
-0.0370283906186805   -0.0405595649763004   -0.0008859455184544242
-0.03771708946238117   -0.020524551894673546   -0.0005956250207422331
-0.026002039525463542   -0.04040207713598939   -0.000524159478822656
-0.03713554924385541   -0.040417900999468924   -0.0008042576471820304
-0.03771708946238117   -0.020524551894673546   -0.0005956250207422331
-0.0370283906186805   -0.0405595649763004   -0.0008859455184544242
-0.026002039525463542   -0.04040207713598939   -0.000524159478822656
-0.03771708946238117   -0.020524551894673546   -0.0005956250207422331
-0.026712715310395336   -0.0203831343026136   -0.00025406475038102763
-0.026595867536489282   -0.020571758898069493   -0.0003230793737836965
-0.026002039525463542   -0.04040207713598939   -0.000524159478822656
-0.03771708946238117   -0.020524551894673546   -0.0005956250207422331
-0.026595867536489282   -0.020571758898069493   -0.0003230793737836965
-0.0370283906186805   -0.0405595649763004   -0.0008859455184544242
-0.03678141216564636   -0.040828207419110404   -0.001030923339759821
-0.0373945525203119   -0.021007062942558254   -0.0007330698483371434
-0.048494442636506256   -0.04072456283270324   -0.0012272412887643163
-0.03691502255044353   -0.040697492879882585   -0.0009608019912756325
-0.0373945525203119   -0.021007062942558254   -0.0007330698483371434
-0.048843222556660904   -0.02101809152751952   -0.000968534151935863
-0.048494442636506256   -0.04072456283270324   -0.0012272412887643163
-0.048946242882967894   -0.020873590436804323   -0.0009489450773992337
-0.03691502255044353   -0.040697492879882585   -0.0009608019912756325
-0.04857833707267058   -0.04061436135958321   -0.0011751588160906093
-0.048946242882967894   -0.020873590436804323   -0.0009489450773992337
-0.048494442636506256   -0.04072456283270324   -0.0012272412887643163
-0.03691502255044353   -0.040697492879882585   -0.0009608019912756325
-0.048946242882967894   -0.020873590436804323   -0.0009489450773992337
-0.037514121489296406   -0.020858346076343647   -0.0006867111194640329
-0.0373945525203119   -0.021007062942558254   -0.0007330698483371434
-0.03691502255044353   -0.040697492879882585   -0.0009608019912756325
-0.048946242882967894   -0.020873590436804323   -0.0009489450773992337
-0.0373945525203119   -0.021007062942558254   -0.0007330698483371434
-0.048494442636506256   -0.04072456283270324   -0.0012272412887643163
-0.03691502255044353   -0.040697492879882585   -0.0009608019912756325
-0.037514121489296406   -0.020858346076343647   -0.0006867111194640329
-0.04857833707267058   -0.04061436135958321   -0.0011751588160906093
-0.0370283906186805   -0.0405595649763004   -0.0008859455184544242
-0.037514121489296406   -0.020858346076343647   -0.0006867111194640329
-0.048946242882967894   -0.020873590436804323   -0.0009489450773992337
-0.04857833707267058   -0.04061436135958321   -0.0011751588160906093
-0.04903853971286642   -0.020717601215617353   -0.000926092749849199
-0.0370283906186805   -0.0405595649763004   -0.0008859455184544242
-0.04865504829882464   -0.0404898625654309   -0.0011113877006330608
-0.04903853971286642   -0.020717601215617353   -0.000926092749849199
-0.04857833707267058   -0.04061436135958321   -0.0011751588160906093
-0.0370283906186805   -0.0405595649763004   -0.0008859455184544242
-0.04903853971286642   -0.020717601215617353   -0.000926092749849199
-0.03762065948665764   -0.020696605881505077   -0.0006417757407749652
-0.037514121489296406   -0.020858346076343647   -0.0006867111194640329
-0.0370283906186805   -0.0405595649763004   -0.0008859455184544242
-0.04903853971286642   -0.020717601215617353   -0.000926092749849199
-0.037514121489296406   -0.020858346076343647   -0.0006867111194640329
-0.04857833707267058   -0.04061436135958321   -0.0011751588160906093
-0.0370283906186805   -0.0405595649763004   -0.0008859455184544242
-0.03762065948665764   -0.020696605881505077   -0.0006417757407749652
-0.04865504829882464   -0.0404898625654309   -0.0011113877006330608
-0.03713554924385541   -0.040417900999468924   -0.0008042576471820304
-0.03762065948665764   -0.020696605881505077   -0.0006417757407749652
-0.04903853971286642   -0.020717601215617353   -0.000926092749849199
-0.04865504829882464   -0.0404898625654309   -0.0011113877006330608
-0.04911652335597597   -0.020552376947575363   -0.0009050388428759706
-0.03713554924385541   -0.040417900999468924   -0.0008042576471820304
-0.04869318513483768   -0.04037502154844118   -0.0010388903855468254
-0.04911652335597597   -0.020552376947575363   -0.0009050388428759706
-0.04865504829882464   -0.0404898625654309   -0.0011113877006330608
-0.03713554924385541   -0.040417900999468924   -0.0008042576471820304
-0.04911652335597597   -0.020552376947575363   -0.0009050388428759706
-0.03771708946238117   -0.020524551894673546   -0.0005956250207422331
-0.03762065948665764   -0.020696605881505077   -0.0006417757407749652
-0.03713554924385541   -0.040417900999468924   -0.0008042576471820304
-0.04911652335597597   -0.020552376947575363   -0.0009050388428759706
-0.03762065948665764   -0.020696605881505077   -0.0006417757407749652
-0.04865504829882464   -0.0404898625654309   -0.0011113877006330608
0.0057153463552851525   -0.02064855821659654   0.0002688993024485775
0.0   0.0   0.0
-0.005228784026610874   -0.020378216790068467   0.0001324703002925883
0.005212528217571295   -0.020383295087345127   0.000558876172035528
0.0   0.0   0.0
-0.006577105734595295   -0.0016456424490904167   -6.0619186861337666e-05
-0.005228784026610874   -0.020378216790068467   0.0001324703002925883
-0.0069696013902589594   -0.0012745356522469759   0.0001637106514023615
0.005212528217571295   -0.020383295087345127   0.000558876172035528
-0.0053902348869022685   -0.02027193045677157   0.0002493962304733587
-0.0069696013902589594   -0.0012745356522469759   0.0001637106514023615
-0.005228784026610874   -0.020378216790068467   0.0001324703002925883
0.005212528217571295   -0.020383295087345127   0.000558876172035528
-0.0069696013902589594   -0.0012745356522469759   0.0001637106514023615
0.0   0.0   0.0
0.0   0.0   0.0
0.005212528217571295   -0.020383295087345127   0.000558876172035528
-0.0069696013902589594   -0.0012745356522469759   0.0001637106514023615
0.0   0.0   0.0
-0.005228784026610874   -0.020378216790068467   0.0001324703002925883
0.005212528217571295   -0.020383295087345127   0.000558876172035528
0.0   0.0   0.0
-0.0053902348869022685   -0.02027193045677157   0.0002493962304733587
0.0049178100148356855   -0.020165322720376733   0.0007756230520588977
0.0   0.0   0.0
-0.0069696013902589594   -0.0012745356522469759   0.0001637106514023615
-0.0053902348869022685   -0.02027193045677157   0.0002493962304733587
-0.007215268245294425   -0.001095110393666865   0.00029247208282525057
0.0049178100148356855   -0.020165322720376733   0.0007756230520588977
-0.005601798096559893   -0.020084753889356974   0.00039119799963385847
-0.007215268245294425   -0.001095110393666865   0.00029247208282525057
-0.0053902348869022685   -0.02027193045677157   0.0002493962304733587
0.0049178100148356855   -0.020165322720376733   0.0007756230520588977
-0.007215268245294425   -0.001095110393666865   0.00029247208282525057
0.0   0.0   0.0
0.0   0.0   0.0
0.0049178100148356855   -0.020165322720376733   0.0007756230520588977
-0.007215268245294425   -0.001095110393666865   0.00029247208282525057
0.0   0.0   0.0
-0.0053902348869022685   -0.02027193045677157   0.0002493962304733587
0.0049178100148356855   -0.020165322720376733   0.0007756230520588977
0.0   0.0   0.0
-0.005601798096559893   -0.020084753889356974   0.00039119799963385847
0.004540567206047586   -0.01983311147968095   0.0010236434483831209
0.0   0.0   0.0
-0.007215268245294425   -0.001095110393666865   0.00029247208282525057
-0.005601798096559893   -0.020084753889356974   0.00039119799963385847
-0.007543486565895925   -0.000857223134300924   0.0004401281176481422
0.004540567206047586   -0.01983311147968095   0.0010236434483831209
-0.005779392720874674   -0.019883118042339422   0.0005160621421308949
-0.007543486565895925   -0.000857223134300924   0.0004401281176481422
-0.005601798096559893   -0.020084753889356974   0.00039119799963385847
0.004540567206047586   -0.01983311147968095   0.0010236434483831209
-0.007543486565895925   -0.000857223134300924   0.0004401281176481422
0.0   0.0   0.0
0.0   0.0   0.0
0.004540567206047586   -0.01983311147968095   0.0010236434483831209
-0.007543486565895925   -0.000857223134300924   0.0004401281176481422
0.0   0.0   0.0
-0.005601798096559893   -0.020084753889356974   0.00039119799963385847
-0.005228784026610874   -0.020378216790068467   0.0001324703002925883
-0.006577105734595295   -0.0016456424490904167   -6.0619186861337666e-05
-0.01565293876851688   -0.020677549662582877   -0.00014444621362776918
-0.0053902348869022685   -0.02027193045677157   0.0002493962304733587
-0.006577105734595295   -0.0016456424490904167   -6.0619186861337666e-05
-0.01612399128057626   -0.002147487240289272   -6.480594419367146e-05
-0.01565293876851688   -0.020677549662582877   -0.00014444621362776918
-0.01632536799567409   -0.0019433645626510422   -8.337781843071847e-06
-0.0053902348869022685   -0.02027193045677157   0.0002493962304733587
-0.0158010463903137   -0.020516502930195822   -6.184817678809624e-05
-0.01632536799567409   -0.0019433645626510422   -8.337781843071847e-06
-0.01565293876851688   -0.020677549662582877   -0.00014444621362776918
-0.0053902348869022685   -0.02027193045677157   0.0002493962304733587
-0.01632536799567409   -0.0019433645626510422   -8.337781843071847e-06
-0.0069696013902589594   -0.0012745356522469759   0.0001637106514023615
-0.006577105734595295   -0.0016456424490904167   -6.0619186861337666e-05
-0.0053902348869022685   -0.02027193045677157   0.0002493962304733587
-0.01632536799567409   -0.0019433645626510422   -8.337781843071847e-06
-0.006577105734595295   -0.0016456424490904167   -6.0619186861337666e-05
-0.01565293876851688   -0.020677549662582877   -0.00014444621362776918
-0.0053902348869022685   -0.02027193045677157   0.0002493962304733587
-0.0069696013902589594   -0.0012745356522469759   0.0001637106514023615
-0.0158010463903137   -0.020516502930195822   -6.184817678809624e-05
-0.005601798096559893   -0.020084753889356974   0.00039119799963385847
-0.0069696013902589594   -0.0012745356522469759   0.0001637106514023615
-0.01632536799567409   -0.0019433645626510422   -8.337781843071847e-06
-0.0158010463903137   -0.020516502930195822   -6.184817678809624e-05
-0.016525588854931845   -0.0017048799609596862   9.359817432725378e-05
-0.005601798096559893   -0.020084753889356974   0.00039119799963385847
-0.01595577421867207   -0.02033505000157522   2.5415523535795553e-05
-0.016525588854931845   -0.0017048799609596862   9.359817432725378e-05
-0.0158010463903137   -0.020516502930195822   -6.184817678809624e-05
-0.005601798096559893   -0.020084753889356974   0.00039119799963385847
-0.016525588854931845   -0.0017048799609596862   9.359817432725378e-05
-0.007215268245294425   -0.001095110393666865   0.00029247208282525057
-0.0069696013902589594   -0.0012745356522469759   0.0001637106514023615
-0.005601798096559893   -0.020084753889356974   0.00039119799963385847
-0.016525588854931845   -0.0017048799609596862   9.359817432725378e-05
-0.0069696013902589594   -0.0012745356522469759   0.0001637106514023615
-0.0158010463903137   -0.020516502930195822   -6.184817678809624e-05
-0.005601798096559893   -0.020084753889356974   0.00039119799963385847
-0.007215268245294425   -0.001095110393666865   0.00029247208282525057
-0.01595577421867207   -0.02033505000157522   2.5415523535795553e-05
-0.005779392720874674   -0.019883118042339422   0.0005160621421308949
-0.007215268245294425   -0.001095110393666865   0.00029247208282525057
-0.016525588854931845   -0.0017048799609596862   9.359817432725378e-05
-0.01595577421867207   -0.02033505000157522   2.5415523535795553e-05
-0.01674609238156116   -0.0014299461367886018   0.00019071005910777463
-0.005779392720874674   -0.019883118042339422   0.0005160621421308949
-0.01610259210807968   -0.020136182225567022   0.00012156385646909435
-0.01674609238156116   -0.0014299461367886018   0.00019071005910777463
-0.01595577421867207   -0.02033505000157522   2.5415523535795553e-05
-0.005779392720874674   -0.019883118042339422   0.0005160621421308949
-0.01674609238156116   -0.0014299461367886018   0.00019071005910777463
-0.007543486565895925   -0.000857223134300924   0.0004401281176481422
-0.007215268245294425   -0.001095110393666865   0.00029247208282525057
-0.005779392720874674   -0.019883118042339422   0.0005160621421308949
-0.01674609238156116   -0.0014299461367886018   0.00019071005910777463
-0.007215268245294425   -0.001095110393666865   0.00029247208282525057
-0.01595577421867207   -0.02033505000157522   2.5415523535795553e-05
-0.01565293876851688   -0.020677549662582877   -0.00014444621362776918
-0.01612399128057626   -0.002147487240289272   -6.480594419367146e-05
-0.026336167904424723   -0.020911329048156395   -0.00045039326147397935
-0.0158010463903137   -0.020516502930195822   -6.184817678809624e-05
-0.01612399128057626   -0.002147487240289272   -6.480594419367146e-05
-0.026598128379697075   -0.0022829992941858705   -0.00026133423960077737
-0.026336167904424723   -0.020911329048156395   -0.00045039326147397935
-0.026719764232130704   -0.002122285890126591   -0.00024623281934652177
-0.0158010463903137   -0.020516502930195822   -6.184817678809624e-05
-0.026468946638533292   -0.020746099117633757   -0.0003865778402781341
-0.026719764232130704   -0.002122285890126591   -0.00024623281934652177
-0.026336167904424723   -0.020911329048156395   -0.00045039326147397935
-0.0158010463903137   -0.020516502930195822   -6.184817678809624e-05
-0.026719764232130704   -0.002122285890126591   -0.00024623281934652177
-0.01632536799567409   -0.0019433645626510422   -8.337781843071847e-06
-0.01612399128057626   -0.002147487240289272   -6.480594419367146e-05
-0.0158010463903137   -0.020516502930195822   -6.184817678809624e-05
-0.026719764232130704   -0.002122285890126591   -0.00024623281934652177
-0.01612399128057626   -0.002147487240289272   -6.480594419367146e-05
-0.026336167904424723   -0.020911329048156395   -0.00045039326147397935
-0.0158010463903137   -0.020516502930195822   -6.184817678809624e-05
-0.01632536799567409   -0.0019433645626510422   -8.337781843071847e-06
-0.026468946638533292   -0.020746099117633757   -0.0003865778402781341
-0.01595577421867207   -0.02033505000157522   2.5415523535795553e-05
-0.01632536799567409   -0.0019433645626510422   -8.337781843071847e-06
-0.026719764232130704   -0.002122285890126591   -0.00024623281934652177
-0.026468946638533292   -0.020746099117633757   -0.0003865778402781341
-0.02684614399727573   -0.0019365215115015838   -0.00021942062460865216
-0.01595577421867207   -0.02033505000157522   2.5415523535795553e-05
-0.026595867536489282   -0.020571758898069493   -0.0003230793737836965
-0.02684614399727573   -0.0019365215115015838   -0.00021942062460865216
-0.026468946638533292   -0.020746099117633757   -0.0003865778402781341
-0.01595577421867207   -0.02033505000157522   2.5415523535795553e-05
-0.02684614399727573   -0.0019365215115015838   -0.00021942062460865216
-0.016525588854931845   -0.0017048799609596862   9.359817432725378e-05
-0.01632536799567409   -0.0019433645626510422   -8.337781843071847e-06
-0.01595577421867207   -0.02033505000157522   2.5415523535795553e-05
-0.02684614399727573   -0.0019365215115015838   -0.00021942062460865216
-0.01632536799567409   -0.0019433645626510422   -8.337781843071847e-06
-0.026468946638533292   -0.020746099117633757   -0.0003865778402781341
-0.01595577421867207   -0.02033505000157522   2.5415523535795553e-05
-0.016525588854931845   -0.0017048799609596862   9.359817432725378e-05
-0.026595867536489282   -0.020571758898069493   -0.0003230793737836965
-0.01610259210807968   -0.020136182225567022   0.00012156385646909435
-0.016525588854931845   -0.0017048799609596862   9.359817432725378e-05
-0.02684614399727573   -0.0019365215115015838   -0.00021942062460865216
-0.026595867536489282   -0.020571758898069493   -0.0003230793737836965
-0.02696505647316131   -0.001711778533442345   -0.0001839482469175581
-0.01610259210807968   -0.020136182225567022   0.00012156385646909435
-0.026712715310395336   -0.0203831343026136   -0.00025406475038102763
-0.02696505647316131   -0.001711778533442345   -0.0001839482469175581
-0.026595867536489282   -0.020571758898069493   -0.0003230793737836965
-0.01610259210807968   -0.020136182225567022   0.00012156385646909435
-0.02696505647316131   -0.001711778533442345   -0.0001839482469175581
-0.01674609238156116   -0.0014299461367886018   0.00019071005910777463
-0.016525588854931845   -0.0017048799609596862   9.359817432725378e-05
-0.01610259210807968   -0.020136182225567022   0.00012156385646909435
-0.02696505647316131   -0.001711778533442345   -0.0001839482469175581
-0.016525588854931845   -0.0017048799609596862   9.359817432725378e-05
-0.026595867536489282   -0.020571758898069493   -0.0003230793737836965
-0.026336167904424723   -0.020911329048156395   -0.00045039326147397935
-0.026598128379697075   -0.0022829992941858705   -0.00026133423960077737
-0.0373945525203119   -0.021007062942558254   -0.0007330698483371434
-0.026468946638533292   -0.020746099117633757   -0.0003865778402781341
-0.026598128379697075   -0.0022829992941858705   -0.00026133423960077737
-0.037587243610315714   -0.0022543208749769873   -0.0005400402527287942
-0.0373945525203119   -0.021007062942558254   -0.0007330698483371434
-0.03766925652066282   -0.0021087514375643735   -0.0005336564183409311
-0.026468946638533292   -0.020746099117633757   -0.0003865778402781341
-0.037514121489296406   -0.020858346076343647   -0.0006867111194640329
-0.03766925652066282   -0.0021087514375643735   -0.0005336564183409311
-0.0373945525203119   -0.021007062942558254   -0.0007330698483371434
-0.026468946638533292   -0.020746099117633757   -0.0003865778402781341
-0.03766925652066282   -0.0021087514375643735   -0.0005336564183409311
-0.026719764232130704   -0.002122285890126591   -0.00024623281934652177
-0.026598128379697075   -0.0022829992941858705   -0.00026133423960077737
-0.026468946638533292   -0.020746099117633757   -0.0003865778402781341
-0.03766925652066282   -0.0021087514375643735   -0.0005336564183409311
-0.026598128379697075   -0.0022829992941858705   -0.00026133423960077737
-0.0373945525203119   -0.021007062942558254   -0.0007330698483371434
-0.026468946638533292   -0.020746099117633757   -0.0003865778402781341
-0.026719764232130704   -0.002122285890126591   -0.00024623281934652177
-0.037514121489296406   -0.020858346076343647   -0.0006867111194640329
-0.026595867536489282   -0.020571758898069493   -0.0003230793737836965
-0.026719764232130704   -0.002122285890126591   -0.00024623281934652177
-0.03766925652066282   -0.0021087514375643735   -0.0005336564183409311
-0.037514121489296406   -0.020858346076343647   -0.0006867111194640329
-0.03775485333633076   -0.0019474648145337793   -0.0005296713878292636
-0.026595867536489282   -0.020571758898069493   -0.0003230793737836965
-0.03762065948665764   -0.020696605881505077   -0.0006417757407749652
-0.03775485333633076   -0.0019474648145337793   -0.0005296713878292636
-0.037514121489296406   -0.020858346076343647   -0.0006867111194640329
-0.026595867536489282   -0.020571758898069493   -0.0003230793737836965
-0.03775485333633076   -0.0019474648145337793   -0.0005296713878292636
-0.02684614399727573   -0.0019365215115015838   -0.00021942062460865216
-0.026719764232130704   -0.002122285890126591   -0.00024623281934652177
-0.026595867536489282   -0.020571758898069493   -0.0003230793737836965
-0.03775485333633076   -0.0019474648145337793   -0.0005296713878292636
-0.026719764232130704   -0.002122285890126591   -0.00024623281934652177
-0.037514121489296406   -0.020858346076343647   -0.0006867111194640329
-0.026595867536489282   -0.020571758898069493   -0.0003230793737836965
-0.02684614399727573   -0.0019365215115015838   -0.00021942062460865216
-0.03762065948665764   -0.020696605881505077   -0.0006417757407749652
-0.026712715310395336   -0.0203831343026136   -0.00025406475038102763
-0.02684614399727573   -0.0019365215115015838   -0.00021942062460865216
-0.03775485333633076   -0.0019474648145337793   -0.0005296713878292636
-0.03762065948665764   -0.020696605881505077   -0.0006417757407749652
-0.03781911397626131   -0.0017735853886457003   -0.0005284926229014486
-0.026712715310395336   -0.0203831343026136   -0.00025406475038102763
-0.03771708946238117   -0.020524551894673546   -0.0005956250207422331
-0.03781911397626131   -0.0017735853886457003   -0.0005284926229014486
-0.03762065948665764   -0.020696605881505077   -0.0006417757407749652
-0.026712715310395336   -0.0203831343026136   -0.00025406475038102763
-0.03781911397626131   -0.0017735853886457003   -0.0005284926229014486
-0.02696505647316131   -0.001711778533442345   -0.0001839482469175581
-0.02684614399727573   -0.0019365215115015838   -0.00021942062460865216
-0.026712715310395336   -0.0203831343026136   -0.00025406475038102763
-0.03781911397626131   -0.0017735853886457003   -0.0005284926229014486
-0.02684614399727573   -0.0019365215115015838   -0.00021942062460865216
-0.03762065948665764   -0.020696605881505077   -0.0006417757407749652
-0.0373945525203119   -0.021007062942558254   -0.0007330698483371434
-0.037587243610315714   -0.0022543208749769873   -0.0005400402527287942
-0.048843222556660904   -0.02101809152751952   -0.000968534151935863
-0.037514121489296406   -0.020858346076343647   -0.0006867111194640329
-0.037587243610315714   -0.0022543208749769873   -0.0005400402527287942
-0.04887711974822277   -0.0022372968972409835   -0.000814045515616668
-0.048843222556660904   -0.02101809152751952   -0.000968534151935863
-0.04894318928149821   -0.002079113903576262   -0.0008141656378982216
-0.037514121489296406   -0.020858346076343647   -0.0006867111194640329
-0.048946242882967894   -0.020873590436804323   -0.0009489450773992337
-0.04894318928149821   -0.002079113903576262   -0.0008141656378982216
-0.048843222556660904   -0.02101809152751952   -0.000968534151935863
-0.037514121489296406   -0.020858346076343647   -0.0006867111194640329
-0.04894318928149821   -0.002079113903576262   -0.0008141656378982216
-0.03766925652066282   -0.0021087514375643735   -0.0005336564183409311
-0.037587243610315714   -0.0022543208749769873   -0.0005400402527287942
-0.037514121489296406   -0.020858346076343647   -0.0006867111194640329
-0.04894318928149821   -0.002079113903576262   -0.0008141656378982216
-0.037587243610315714   -0.0022543208749769873   -0.0005400402527287942
-0.048843222556660904   -0.02101809152751952   -0.000968534151935863
-0.037514121489296406   -0.020858346076343647   -0.0006867111194640329
-0.03766925652066282   -0.0021087514375643735   -0.0005336564183409311
-0.048946242882967894   -0.020873590436804323   -0.0009489450773992337
-0.03762065948665764   -0.020696605881505077   -0.0006417757407749652
-0.03766925652066282   -0.0021087514375643735   -0.0005336564183409311
-0.04894318928149821   -0.002079113903576262   -0.0008141656378982216
-0.048946242882967894   -0.020873590436804323   -0.0009489450773992337
-0.04901578216301897   -0.0019215872639526204   -0.000826602272795424
-0.03762065948665764   -0.020696605881505077   -0.0006417757407749652
-0.04903853971286642   -0.020717601215617353   -0.000926092749849199
-0.04901578216301897   -0.0019215872639526204   -0.000826602272795424
-0.048946242882967894   -0.020873590436804323   -0.0009489450773992337
-0.03762065948665764   -0.020696605881505077   -0.0006417757407749652
-0.04901578216301897   -0.0019215872639526204   -0.000826602272795424
-0.03775485333633076   -0.0019474648145337793   -0.0005296713878292636
-0.03766925652066282   -0.0021087514375643735   -0.0005336564183409311
-0.03762065948665764   -0.020696605881505077   -0.0006417757407749652
-0.04901578216301897   -0.0019215872639526204   -0.000826602272795424
-0.03766925652066282   -0.0021087514375643735   -0.0005336564183409311
-0.048946242882967894   -0.020873590436804323   -0.0009489450773992337
-0.03762065948665764   -0.020696605881505077   -0.0006417757407749652
-0.03775485333633076   -0.0019474648145337793   -0.0005296713878292636
-0.04903853971286642   -0.020717601215617353   -0.000926092749849199
-0.03771708946238117   -0.020524551894673546   -0.0005956250207422331
-0.03775485333633076   -0.0019474648145337793   -0.0005296713878292636
-0.04901578216301897   -0.0019215872639526204   -0.000826602272795424
-0.04903853971286642   -0.020717601215617353   -0.000926092749849199
-0.04906901706469945   -0.0017504350211032676   -0.0008399431934953341
-0.03771708946238117   -0.020524551894673546   -0.0005956250207422331
-0.04911652335597597   -0.020552376947575363   -0.0009050388428759706
-0.04906901706469945   -0.0017504350211032676   -0.0008399431934953341
-0.04903853971286642   -0.020717601215617353   -0.000926092749849199
-0.03771708946238117   -0.020524551894673546   -0.0005956250207422331
-0.04906901706469945   -0.0017504350211032676   -0.0008399431934953341
-0.03781911397626131   -0.0017735853886457003   -0.0005284926229014486
-0.03775485333633076   -0.0019474648145337793   -0.0005296713878292636
-0.03771708946238117   -0.020524551894673546   -0.0005956250207422331
-0.04906901706469945   -0.0017504350211032676   -0.0008399431934953341
-0.03775485333633076   -0.0019474648145337793   -0.0005296713878292636
-0.04903853971286642   -0.020717601215617353   -0.000926092749849199
              </DataArray>   
          </PointData>  
       </Piece>  
   </UnstructuredGrid> 
</VTKFile> 
